Dakota version 6.14 released May 17 2021.
Repository revision 382229e53 (2021-05-12) built Nov  8 2021 17:11:24.
Running serial Dakota executable in serial mode.
Start time: Fri Aug 26 09:49:03 2022

-----------------------
Begin DAKOTA input file
dakota.in
-----------------------
environment 
 tabular_data 
 tabular_data_file = 'dakotaTab.out' 

method, 
 nl2sol
  convergence_tolerance = 0.0001 
   max_iterations = 1000
  scaling


variables 
   continuous_design = 7
    initial_point = 500 200000 0.5 1 1 0.25 0.25 
    lower_bounds = 300 100000 1e-06 1e-06 1e-06 1e-06 1e-06 
    upper_bounds = 700 300000 1 2 2 0.5 0.5 
    descriptors = 'fy' 'E' 'b' 'cR1' 'cR2' 'a1' 'a3' 

interface 
  analysis_driver = 'workflow_driver1'
  fork
   parameters_file = 'paramsDakota.in'
   results_file = 'results.out' 
   aprepro 
   work_directory
     named 'workdir' 
     directory_tag
     directory_save
     copy_files = 'templatedir/*' 
  asynchronous evaluation_concurrency = 12

responses
  id_responses = 'calibration'
 calibration_terms = 1
 response_descriptors = 'stress' 
  field_calibration_terms = 1
   lengths = 342 
  calibration_data
   num_experiments = 1
 numerical_gradients
 no_hessians

---------------------
End DAKOTA input file
---------------------

Using Dakota input file 'dakota.in'
Writing new restart file 'dakota.rst'.

ScalingModel: Scaling enabled

>>>>> Executing environment.

>>>>> Running nl2sol iterator.

---------------------
Begin Evaluation    1
---------------------
Parameters for evaluation 1:
                      5.0000000000e+02 fy
                      2.0000000000e+05 E
                      5.0000000000e-01 b
                      1.0000000000e+00 cR1
                      1.0000000000e+00 cR2
                      2.5000000000e-01 a1
                      2.5000000000e-01 a3

blocking fork: workflow_driver1 paramsDakota.in results.out

Active response data for evaluation 1:
Active set vector = { 1 1 1 1 1 1 1 1 1 1 1 1 1 1 1 1 1 1 1 1 1 1 1 1 1 1 1 1 1 1 1 1 1 1 1 1 1 1 1 1 1 1 1 1 1 1 1 1 1 1 1 1 1 1 1 1 1 1 1 1 1 1 1 1 1 1 1 1 1 1 1 1 1 1 1 1 1 1 1 1 1 1 1 1 1 1 1 1 1 1 1 1 1 1 1 1 1 1 1 1 1 1 1 1 1 1 1 1 1 1 1 1 1 1 1 1 1 1 1 1 1 1 1 1 1 1 1 1 1 1 1 1 1 1 1 1 1 1 1 1 1 1 1 1 1 1 1 1 1 1 1 1 1 1 1 1 1 1 1 1 1 1 1 1 1 1 1 1 1 1 1 1 1 1 1 1 1 1 1 1 1 1 1 1 1 1 1 1 1 1 1 1 1 1 1 1 1 1 1 1 1 1 1 1 1 1 1 1 1 1 1 1 1 1 1 1 1 1 1 1 1 1 1 1 1 1 1 1 1 1 1 1 1 1 1 1 1 1 1 1 1 1 1 1 1 1 1 1 1 1 1 1 1 1 1 1 1 1 1 1 1 1 1 1 1 1 1 1 1 1 1 1 1 1 1 1 1 1 1 1 1 1 1 1 1 1 1 1 1 1 1 1 1 1 1 1 1 1 1 1 1 1 1 1 1 1 1 1 1 1 1 1 1 1 1 1 1 1 1 1 1 1 1 1 1 1 1 1 1 1 1 1 1 1 1 1 1 1 1 1 1 1 }
                      2.3306474000e+00 stress_1
                     -2.4222053783e+02 stress_2
                     -6.5418963101e+02 stress_3
                     -6.9487708623e+02 stress_4
                     -3.7742558623e+02 stress_5
                      9.8648565346e+01 stress_6
                      4.2988238340e+02 stress_7
                      4.3288842922e+02 stress_8
                      1.9233670522e+02 stress_9
                     -2.1850088509e+02 stress_10
                     -6.8473726272e+02 stress_11
                     -9.2883084590e+02 stress_12
                     -1.0724940143e+03 stress_13
                     -1.0856614355e+03 stress_14
                     -7.6344595869e+02 stress_15
                     -9.2507373786e+02 stress_16
                     -1.1100296460e+03 stress_17
                     -9.2211846631e+02 stress_18
                     -5.7045952320e+02 stress_19
                     -1.1709271078e+02 stress_20
                      2.9134922362e+02 stress_21
                      5.3869415391e+02 stress_22
                      6.9528102663e+02 stress_23
                      7.6032258353e+02 stress_24
                      4.3743790529e+02 stress_25
                      5.6071752528e+02 stress_26
                      6.9985142290e+02 stress_27
                      7.3734315480e+02 stress_28
                      6.1900585491e+02 stress_29
                      4.0816550132e+02 stress_30
                      1.1373736591e+02 stress_31
                     -2.4812572709e+02 stress_32
                     -6.1708681350e+02 stress_33
                     -9.0696511263e+02 stress_34
                     -1.1581546746e+03 stress_35
                     -1.4000202855e+03 stress_36
                     -1.6299639170e+03 stress_37
                     -1.8396768724e+03 stress_38
                     -2.0207073271e+03 stress_39
                     -2.1655036541e+03 stress_40
                     -2.2681178250e+03 stress_41
                     -2.3242578505e+03 stress_42
                     -2.3093744545e+03 stress_43
                     -1.9263425629e+03 stress_44
                     -1.5976772273e+03 stress_45
                     -1.7961116273e+03 stress_46
                     -2.1585081744e+03 stress_47
                     -1.8687293357e+03 stress_48
                     -1.9677825357e+03 stress_49
                     -2.1223885266e+03 stress_50
                     -2.3510785187e+03 stress_51
                     -2.1871040645e+03 stress_52
                     -1.8366793029e+03 stress_53
                     -1.4048516130e+03 stress_54
                     -1.0264069850e+03 stress_55
                     -7.7634520759e+02 stress_56
                     -6.7360319093e+02 stress_57
                     -7.5673077093e+02 stress_58
                     -1.0681985690e+03 stress_59
                     -1.5178496588e+03 stress_60
                     -1.9693062002e+03 stress_61
                     -2.2431572671e+03 stress_62
                     -2.3134966042e+03 stress_63
                     -2.0525536858e+03 stress_64
                     -1.6100985958e+03 stress_65
                     -1.4622155752e+03 stress_66
                     -1.7253381750e+03 stress_67
                     -2.1819285636e+03 stress_68
                     -2.4128224836e+03 stress_69
                     -2.4162266776e+03 stress_70
                     -2.3243719854e+03 stress_71
                     -2.1561126436e+03 stress_72
                     -1.9173513079e+03 stress_73
                     -1.6204105144e+03 stress_74
                     -1.2887323421e+03 stress_75
                     -9.5284260357e+02 stress_76
                     -6.3427569997e+02 stress_77
                     -3.3766901828e+02 stress_78
                     -5.9234509345e+01 stress_79
                      2.0402764979e+02 stress_80
                      4.5188407807e+02 stress_81
                      6.8166325332e+02 stress_82
                      8.8944455080e+02 stress_83
                      1.0709662763e+03 stress_84
                      1.2220831621e+03 stress_85
                      1.3392044502e+03 stress_86
                      1.4194729199e+03 stress_87
                      1.4608308573e+03 stress_88
                      1.3898733505e+03 stress_89
                      9.5026597378e+02 stress_90
                      6.8313701022e+02 stress_91
                      9.6263633021e+02 stress_92
                      1.3673085000e+03 stress_93
                      1.3804940903e+03 stress_94
                      1.3225538816e+03 stress_95
                      1.2180880035e+03 stress_96
                      1.0689967461e+03 stress_97
                      8.7923892232e+02 stress_98
                      6.5599392128e+02 stress_99
                      4.0961032685e+02 stress_100
                      1.5135202565e+02 stress_101
                     -1.0972521663e+02 stress_102
                     -3.6877018197e+02 stress_103
                     -6.2466786553e+02 stress_104
                     -8.7815036039e+02 stress_105
                     -1.1303235262e+03 stress_106
                     -1.3818084884e+03 stress_107
                     -1.6325241286e+03 stress_108
                     -1.8817516288e+03 stress_109
                     -2.1282930274e+03 stress_110
                     -2.3706053054e+03 stress_111
                     -2.6069056562e+03 stress_112
                     -2.8353166231e+03 stress_113
                     -3.0539112636e+03 stress_114
                     -3.2607591215e+03 stress_115
                     -3.4539913522e+03 stress_116
                     -3.6318086458e+03 stress_117
                     -3.7925726439e+03 stress_118
                     -3.9347704039e+03 stress_119
                     -4.0570221832e+03 stress_120
                     -4.1581920513e+03 stress_121
                     -4.2372994610e+03 stress_122
                     -4.2935745506e+03 stress_123
                     -4.3264974073e+03 stress_124
                     -4.3353420252e+03 stress_125
                     -4.2372975629e+03 stress_126
                     -4.0002717967e+03 stress_127
                     -3.6761797746e+03 stress_128
                     -3.3238587927e+03 stress_129
                     -2.9892803484e+03 stress_130
                     -2.7046987230e+03 stress_131
                     -2.4932935896e+03 stress_132
                     -2.3716291893e+03 stress_133
                     -2.3642666968e+03 stress_134
                     -2.7623900721e+03 stress_135
                     -2.7854484748e+03 stress_136
                     -2.6044669024e+03 stress_137
                     -2.6392451024e+03 stress_138
                     -2.8064170889e+03 stress_139
                     -3.1253273982e+03 stress_140
                     -3.5425367003e+03 stress_141
                     -3.9411700611e+03 stress_142
                     -4.2054771782e+03 stress_143
                     -4.3745294928e+03 stress_144
                     -4.4595591747e+03 stress_145
                     -4.4399406488e+03 stress_146
                     -4.2132392403e+03 stress_147
                     -3.8541233240e+03 stress_148
                     -3.4734560164e+03 stress_149
                     -3.1611661441e+03 stress_150
                     -2.9737695531e+03 stress_151
                     -2.9454869565e+03 stress_152
                     -3.1543081558e+03 stress_153
                     -3.5440696599e+03 stress_154
                     -3.9856766941e+03 stress_155
                     -4.2639860827e+03 stress_156
                     -4.3685638911e+03 stress_157
                     -4.2510331307e+03 stress_158
                     -3.8490173746e+03 stress_159
                     -3.6164697287e+03 stress_160
                     -3.7770625287e+03 stress_161
                     -4.1976762242e+03 stress_162
                     -4.4402073214e+03 stress_163
                     -4.4681269176e+03 stress_164
                     -4.4280037150e+03 stress_165
                     -4.3494256180e+03 stress_166
                     -4.2346118466e+03 stress_167
                     -4.0870584555e+03 stress_168
                     -3.9114694263e+03 stress_169
                     -3.7129572193e+03 stress_170
                     -3.4965299908e+03 stress_171
                     -3.2665489594e+03 stress_172
                     -3.0264742084e+03 stress_173
                     -2.7789396961e+03 stress_174
                     -2.5257796000e+03 stress_175
                     -2.2683208753e+03 stress_176
                     -2.0075803666e+03 stress_177
                     -1.7443949974e+03 stress_178
                     -1.4795882910e+03 stress_179
                     -1.2140074118e+03 stress_180
                     -9.4855659555e+02 stress_181
                     -6.8424785122e+02 stress_182
                     -4.2216016778e+02 stress_183
                     -1.6346167713e+02 stress_184
                      9.0632303086e+01 stress_185
                      3.3885537841e+02 stress_186
                      5.7991677934e+02 stress_187
                      8.1252581543e+02 stress_188
                      1.0353867599e+03 stress_189
                      1.2472402745e+03 stress_190
                      1.4468671915e+03 stress_191
                      1.6330736066e+03 stress_192
                      1.8047784382e+03 stress_193
                      1.9609428391e+03 stress_194
                      2.1005980842e+03 stress_195
                      2.2229171519e+03 stress_196
                      2.3271218828e+03 stress_197
                      2.4125886535e+03 stress_198
                      2.4787886922e+03 stress_199
                      2.5252895519e+03 stress_200
                      2.5518182614e+03 stress_201
                      2.5531176214e+03 stress_202
                      2.2193802826e+03 stress_203
                      1.8683928224e+03 stress_204
                      1.9732110224e+03 stress_205
                      2.4101682357e+03 stress_206
                      2.4334821235e+03 stress_207
                      2.3717455853e+03 stress_208
                      2.2628893905e+03 stress_209
                      2.1133109353e+03 stress_210
                      1.9304656281e+03 stress_211
                      1.7215684828e+03 stress_212
                      1.4926813986e+03 stress_213
                      1.2486493351e+03 stress_214
                      9.9315059965e+02 stress_215
                      7.2903248376e+02 stress_216
                      4.5867016564e+02 stress_217
                      1.8416172876e+02 stress_218
                     -9.2475925159e+01 stress_219
                     -3.6919525218e+02 stress_220
                     -6.4390149240e+02 stress_221
                     -9.1441964140e+02 stress_222
                     -1.1785210612e+03 stress_223
                     -1.4339325958e+03 stress_224
                     -1.6783928627e+03 stress_225
                     -1.9096646766e+03 stress_226
                     -2.1255741823e+03 stress_227
                     -2.3240810765e+03 stress_228
                     -2.5032198518e+03 stress_229
                     -2.6612511511e+03 stress_230
                     -2.7966049922e+03 stress_231
                     -2.9078844393e+03 stress_232
                     -2.9940053054e+03 stress_233
                     -3.0540838507e+03 stress_234
                     -3.0874814502e+03 stress_235
                     -3.0812345103e+03 stress_236
                     -2.7337968365e+03 stress_237
                     -2.4217814568e+03 stress_238
                     -2.6371102858e+03 stress_239
                     -2.9525394576e+03 stress_240
                     -2.6345067402e+03 stress_241
                     -2.4469275134e+03 stress_242
                     -2.7816967899e+03 stress_243
                     -2.9408247936e+03 stress_244
                     -3.1395132204e+03 stress_245
                     -2.9625705889e+03 stress_246
                     -2.6239196723e+03 stress_247
                     -2.2316013322e+03 stress_248
                     -1.8837848036e+03 stress_249
                     -1.6445903125e+03 stress_250
                     -1.5503917854e+03 stress_251
                     -1.6518997662e+03 stress_252
                     -1.9729055727e+03 stress_253
                     -2.4052443844e+03 stress_254
                     -2.7882871703e+03 stress_255
                     -3.0218616257e+03 stress_256
                     -3.0824007222e+03 stress_257
                     -2.8166628267e+03 stress_258
                     -2.4036442649e+03 stress_259
                     -2.2214873799e+03 stress_260
                     -2.4295693976e+03 stress_261
                     -2.8538063801e+03 stress_262
                     -3.1674984079e+03 stress_263
                     -3.2324536314e+03 stress_264
                     -3.1920365588e+03 stress_265
                     -3.1018437304e+03 stress_266
                     -2.9648965870e+03 stress_267
                     -2.7865011867e+03 stress_268
                     -2.5737284528e+03 stress_269
                     -2.3345127760e+03 stress_270
                     -2.0764077430e+03 stress_271
                     -1.8056416137e+03 stress_272
                     -1.5270237116e+03 stress_273
                     -1.2439162172e+03 stress_274
                     -9.5868229994e+02 stress_275
                     -6.7314025630e+02 stress_276
                     -3.8882416031e+02 stress_277
                     -1.0724025446e+02 stress_278
                      1.7003498334e+02 stress_279
                      4.4131018421e+02 stress_280
                      7.0477680304e+02 stress_281
                      9.5853673619e+02 stress_282
                      1.2006306592e+03 stress_283
                      1.4291044157e+03 stress_284
                      1.6420091295e+03 stress_285
                      1.8374920508e+03 stress_286
                      2.0137978511e+03 stress_287
                      2.1692851475e+03 stress_288
                      2.3025203408e+03 stress_289
                      2.4122406512e+03 stress_290
                      2.4973829023e+03 stress_291
                      2.5571476156e+03 stress_292
                      2.5909412263e+03 stress_293
                      2.5914401736e+03 stress_294
                      2.2458657149e+03 stress_295
                      1.9008794216e+03 stress_296
                      2.0265766216e+03 stress_297
                      2.4568604873e+03 stress_298
                      2.4764391592e+03 stress_299
                      2.4348315063e+03 stress_300
                      2.3611978968e+03 stress_301
                      2.2582510315e+03 stress_302
                      2.1295143401e+03 stress_303
                      1.9786456801e+03 stress_304
                      1.8092912677e+03 stress_305
                      1.6245951076e+03 stress_306
                      1.4271627882e+03 stress_307
                      1.2191129848e+03 stress_308
                      1.0020334382e+03 stress_309
                      7.7719161647e+02 stress_310
                      5.4559022973e+02 stress_311
                      3.0805630201e+02 stress_312
                      6.5370737208e+01 stress_313
                     -1.8174007134e+02 stress_314
                     -4.3253941614e+02 stress_315
                     -6.8625227171e+02 stress_316
                     -9.4207374238e+02 stress_317
                     -1.1991459505e+03 stress_318
                     -1.4565668472e+03 stress_319
                     -1.7134021634e+03 stress_320
                     -1.9686706646e+03 stress_321
                     -2.2213762108e+03 stress_322
                     -2.4704889468e+03 stress_323
                     -2.7149766579e+03 stress_324
                     -2.9538144683e+03 stress_325
                     -3.1859557258e+03 stress_326
                     -3.4104001052e+03 stress_327
                     -3.6261228878e+03 stress_328
                     -3.8321753597e+03 stress_329
                     -4.0276218535e+03 stress_330
                     -4.2115528222e+03 stress_331
                     -4.3831344823e+03 stress_332
                     -4.5415558154e+03 stress_333
                     -4.6860853288e+03 stress_334
                     -4.8160599089e+03 stress_335
                     -4.9308285798e+03 stress_336
                     -5.0298851197e+03 stress_337
                     -5.1127442981e+03 stress_338
                     -5.1790090640e+03 stress_339
                     -5.2283776874e+03 stress_340
                     -5.2606085941e+03 stress_341
                     -5.2755423065e+03 stress_342



------------------------------------------
Begin Dakota derivative estimation routine
------------------------------------------

>>>>> map at X performed previously and results retrieved

>>>>> Dakota finite difference gradient evaluation for x[1] + h:

---------------------
Begin Evaluation    2
---------------------
Parameters for evaluation 2:
                      5.0050000000e+02 fy
                      2.0000000000e+05 E
                      5.0000000000e-01 b
                      1.0000000000e+00 cR1
                      1.0000000000e+00 cR2
                      2.5000000000e-01 a1
                      2.5000000000e-01 a3

(Asynchronous job 2 added to queue)


>>>>> Dakota finite difference gradient evaluation for x[2] + h:

---------------------
Begin Evaluation    3
---------------------
Parameters for evaluation 3:
                      5.0000000000e+02 fy
                      2.0020000000e+05 E
                      5.0000000000e-01 b
                      1.0000000000e+00 cR1
                      1.0000000000e+00 cR2
                      2.5000000000e-01 a1
                      2.5000000000e-01 a3

(Asynchronous job 3 added to queue)


>>>>> Dakota finite difference gradient evaluation for x[3] + h:

---------------------
Begin Evaluation    4
---------------------
Parameters for evaluation 4:
                      5.0000000000e+02 fy
                      2.0000000000e+05 E
                      5.0050000000e-01 b
                      1.0000000000e+00 cR1
                      1.0000000000e+00 cR2
                      2.5000000000e-01 a1
                      2.5000000000e-01 a3

(Asynchronous job 4 added to queue)


>>>>> Dakota finite difference gradient evaluation for x[4] + h:

---------------------
Begin Evaluation    5
---------------------
Parameters for evaluation 5:
                      5.0000000000e+02 fy
                      2.0000000000e+05 E
                      5.0000000000e-01 b
                      1.0010000000e+00 cR1
                      1.0000000000e+00 cR2
                      2.5000000000e-01 a1
                      2.5000000000e-01 a3

(Asynchronous job 5 added to queue)


>>>>> Dakota finite difference gradient evaluation for x[5] + h:

---------------------
Begin Evaluation    6
---------------------
Parameters for evaluation 6:
                      5.0000000000e+02 fy
                      2.0000000000e+05 E
                      5.0000000000e-01 b
                      1.0000000000e+00 cR1
                      1.0010000000e+00 cR2
                      2.5000000000e-01 a1
                      2.5000000000e-01 a3

(Asynchronous job 6 added to queue)


>>>>> Dakota finite difference gradient evaluation for x[6] + h:

---------------------
Begin Evaluation    7
---------------------
Parameters for evaluation 7:
                      5.0000000000e+02 fy
                      2.0000000000e+05 E
                      5.0000000000e-01 b
                      1.0000000000e+00 cR1
                      1.0000000000e+00 cR2
                      2.5025000000e-01 a1
                      2.5000000000e-01 a3

(Asynchronous job 7 added to queue)


>>>>> Dakota finite difference gradient evaluation for x[7] + h:

---------------------
Begin Evaluation    8
---------------------
Parameters for evaluation 8:
                      5.0000000000e+02 fy
                      2.0000000000e+05 E
                      5.0000000000e-01 b
                      1.0000000000e+00 cR1
                      1.0000000000e+00 cR2
                      2.5000000000e-01 a1
                      2.5025000000e-01 a3

(Asynchronous job 8 added to queue)



Blocking synchronize of 7 asynchronous evaluations
First pass: initiating 7 local asynchronous jobs
Initiating evaluation 2
nonblocking fork: workflow_driver1 paramsDakota.in results.out
Initiating evaluation 3
nonblocking fork: workflow_driver1 paramsDakota.in results.out
Initiating evaluation 4
nonblocking fork: workflow_driver1 paramsDakota.in results.out
Initiating evaluation 5
nonblocking fork: workflow_driver1 paramsDakota.in results.out
Initiating evaluation 6
nonblocking fork: workflow_driver1 paramsDakota.in results.out
Initiating evaluation 7
nonblocking fork: workflow_driver1 paramsDakota.in results.out
Initiating evaluation 8
nonblocking fork: workflow_driver1 paramsDakota.in results.out
Waiting on completed jobs
Evaluation 2 has completed
Evaluation 3 has completed
Evaluation 4 has completed
Evaluation 5 has completed
Evaluation 6 has completed
Waiting on completed jobs
Evaluation 7 has completed
Waiting on completed jobs
Evaluation 8 has completed

Active response data for evaluation 2:
Active set vector = { 1 1 1 1 1 1 1 1 1 1 1 1 1 1 1 1 1 1 1 1 1 1 1 1 1 1 1 1 1 1 1 1 1 1 1 1 1 1 1 1 1 1 1 1 1 1 1 1 1 1 1 1 1 1 1 1 1 1 1 1 1 1 1 1 1 1 1 1 1 1 1 1 1 1 1 1 1 1 1 1 1 1 1 1 1 1 1 1 1 1 1 1 1 1 1 1 1 1 1 1 1 1 1 1 1 1 1 1 1 1 1 1 1 1 1 1 1 1 1 1 1 1 1 1 1 1 1 1 1 1 1 1 1 1 1 1 1 1 1 1 1 1 1 1 1 1 1 1 1 1 1 1 1 1 1 1 1 1 1 1 1 1 1 1 1 1 1 1 1 1 1 1 1 1 1 1 1 1 1 1 1 1 1 1 1 1 1 1 1 1 1 1 1 1 1 1 1 1 1 1 1 1 1 1 1 1 1 1 1 1 1 1 1 1 1 1 1 1 1 1 1 1 1 1 1 1 1 1 1 1 1 1 1 1 1 1 1 1 1 1 1 1 1 1 1 1 1 1 1 1 1 1 1 1 1 1 1 1 1 1 1 1 1 1 1 1 1 1 1 1 1 1 1 1 1 1 1 1 1 1 1 1 1 1 1 1 1 1 1 1 1 1 1 1 1 1 1 1 1 1 1 1 1 1 1 1 1 1 1 1 1 1 1 1 1 1 1 1 1 1 1 1 1 1 1 1 1 1 1 1 1 1 1 1 1 1 1 1 1 1 1 1 }
                      2.3306474000e+00 stress_1
                     -2.4222053786e+02 stress_2
                     -6.5444590111e+02 stress_3
                     -6.9517710047e+02 stress_4
                     -3.7772560047e+02 stress_5
                      9.8348559342e+01 stress_6
                      4.2961396447e+02 stress_7
                      4.3262189081e+02 stress_8
                      1.9207016681e+02 stress_9
                     -2.1876742357e+02 stress_10
                     -6.8501196565e+02 stress_11
                     -9.2911970246e+02 stress_12
                     -1.0727829535e+03 stress_13
                     -1.0859503756e+03 stress_14
                     -7.6373489734e+02 stress_15
                     -9.2536267651e+02 stress_16
                     -1.1103194247e+03 stress_17
                     -9.2240824500e+02 stress_18
                     -5.7074916014e+02 stress_19
                     -1.1734874890e+02 stress_20
                      2.9146226552e+02 stress_21
                      5.3896935729e+02 stress_22
                      6.9557153931e+02 stress_23
                      7.6061485396e+02 stress_24
                      4.3773016700e+02 stress_25
                      5.6100978699e+02 stress_26
                      7.0014365196e+02 stress_27
                      7.3763483770e+02 stress_28
                      6.1929753780e+02 stress_29
                      4.0845717281e+02 stress_30
                      1.1402748894e+02 stress_31
                     -2.4787993658e+02 stress_32
                     -6.1711855683e+02 stress_33
                     -9.0721111497e+02 stress_34
                     -1.1584298292e+03 stress_35
                     -1.4002965866e+03 stress_36
                     -1.6302395760e+03 stress_37
                     -1.8399521233e+03 stress_38
                     -2.0209823724e+03 stress_39
                     -2.1657785969e+03 stress_40
                     -2.2683927170e+03 stress_41
                     -2.3245327203e+03 stress_42
                     -2.3096493242e+03 stress_43
                     -1.9266082300e+03 stress_44
                     -1.5978863220e+03 stress_45
                     -1.7963207220e+03 stress_46
                     -2.1587173091e+03 stress_47
                     -1.8689347769e+03 stress_48
                     -1.9679879769e+03 stress_49
                     -2.1225939678e+03 stress_50
                     -2.3512851662e+03 stress_51
                     -2.1873103500e+03 stress_52
                     -1.8368671076e+03 stress_53
                     -1.4049320809e+03 stress_54
                     -1.0263212889e+03 stress_55
                     -7.7615322979e+02 stress_56
                     -6.7337552547e+02 stress_57
                     -7.5650310547e+02 stress_58
                     -1.0679709036e+03 stress_59
                     -1.5176225697e+03 stress_60
                     -1.9691523425e+03 stress_61
                     -2.2433072248e+03 stress_62
                     -2.3137206906e+03 stress_63
                     -2.0527768275e+03 stress_64
                     -1.6102876022e+03 stress_65
                     -1.4623727468e+03 stress_66
                     -1.7254953467e+03 stress_67
                     -2.1820954739e+03 stress_68
                     -2.4131097930e+03 stress_69
                     -2.4165145880e+03 stress_70
                     -2.3246598696e+03 stress_71
                     -2.1563993348e+03 stress_72
                     -1.9176267377e+03 stress_73
                     -1.6206376893e+03 stress_74
                     -1.2888440336e+03 stress_75
                     -9.5279160145e+02 stress_76
                     -6.3408237224e+02 stress_77
                     -3.3739017332e+02 stress_78
                     -5.8916643699e+01 stress_79
                      2.0435914072e+02 stress_80
                      4.5221794964e+02 stress_81
                      6.8199529003e+02 stress_82
                      8.8977359288e+02 stress_83
                      1.0712923806e+03 stress_84
                      1.2224068207e+03 stress_85
                      1.3395262766e+03 stress_86
                      1.4197935365e+03 stress_87
                      1.4611508668e+03 stress_88
                      1.3901932468e+03 stress_89
                      9.5055151441e+02 stress_90
                      6.8335340842e+02 stress_91
                      9.6285272841e+02 stress_92
                      1.3675256993e+03 stress_93
                      1.3807116633e+03 stress_94
                      1.3227713972e+03 stress_95
                      1.2183043251e+03 stress_96
                      1.0692060102e+03 stress_97
                      8.7942506902e+02 stress_98
                      6.5612853437e+02 stress_99
                      4.0966034481e+02 stress_100
                      1.5129560658e+02 stress_101
                     -1.0988775658e+02 stress_102
                     -3.6901971968e+02 stress_103
                     -6.2497818584e+02 stress_104
                     -8.7849772417e+02 stress_105
                     -1.1306904913e+03 stress_106
                     -1.3821837797e+03 stress_107
                     -1.6329010963e+03 stress_108
                     -1.8821266685e+03 stress_109
                     -2.1286643910e+03 stress_110
                     -2.3709723185e+03 stress_111
                     -2.6072682367e+03 stress_112
                     -2.8356749967e+03 stress_113
                     -3.0542658014e+03 stress_114
                     -3.2611102502e+03 stress_115
                     -3.4543395058e+03 stress_116
                     -3.6321542422e+03 stress_117
                     -3.7929160735e+03 stress_118
                     -3.9351120277e+03 stress_119
                     -4.0573623342e+03 stress_120
                     -4.1585310366e+03 stress_121
                     -4.2376375673e+03 stress_122
                     -4.2939120483e+03 stress_123
                     -4.3268345554e+03 stress_124
                     -4.3356790801e+03 stress_125
                     -4.2376301381e+03 stress_126
                     -4.0005596425e+03 stress_127
                     -3.6763557014e+03 stress_128
                     -3.3238880298e+03 stress_129
                     -2.9891754706e+03 stress_130
                     -2.7044948783e+03 stress_131
                     -2.4930272593e+03 stress_132
                     -2.3713311987e+03 stress_133
                     -2.3639668885e+03 stress_134
                     -2.7620902868e+03 stress_135
                     -2.7851487019e+03 stress_136
                     -2.6041554623e+03 stress_137
                     -2.6389336623e+03 stress_138
                     -2.8061056492e+03 stress_139
                     -3.1250165183e+03 stress_140
                     -3.5422679850e+03 stress_141
                     -3.9412301916e+03 stress_142
                     -4.2057627274e+03 stress_143
                     -4.3748503208e+03 stress_144
                     -4.4598848474e+03 stress_145
                     -4.4402662086e+03 stress_146
                     -4.2135429928e+03 stress_147
                     -3.8543300542e+03 stress_148
                     -3.4735169593e+03 stress_149
                     -3.1611019376e+03 stress_150
                     -2.9736344414e+03 stress_151
                     -2.9453415812e+03 stress_152
                     -3.1541627805e+03 stress_153
                     -3.5439249460e+03 stress_154
                     -3.9856377097e+03 stress_155
                     -4.2642520941e+03 stress_156
                     -4.3688760563e+03 stress_157
                     -4.2513408336e+03 stress_158
                     -3.8492434168e+03 stress_159
                     -3.6166161753e+03 stress_160
                     -3.7772089752e+03 stress_161
                     -4.1978397046e+03 stress_162
                     -4.4405317884e+03 stress_163
                     -4.4684527908e+03 stress_164
                     -4.4283290680e+03 stress_165
                     -4.3497464683e+03 stress_166
                     -4.2349179891e+03 stress_167
                     -4.0873333071e+03 stress_168
                     -3.9116928061e+03 stress_169
                     -3.7131097347e+03 stress_170
                     -3.4965971249e+03 stress_171
                     -3.2665233397e+03 stress_172
                     -3.0263557232e+03 stress_173
                     -2.7787340883e+03 stress_174
                     -2.5254963695e+03 stress_175
                     -2.2679712986e+03 stress_176
                     -2.0071759721e+03 stress_177
                     -1.7439465767e+03 stress_178
                     -1.4791053849e+03 stress_179
                     -1.2134981195e+03 stress_180
                     -9.4802759090e+02 stress_181
                     -6.8370451194e+02 stress_182
                     -4.2160674762e+02 stress_183
                     -1.6290148856e+02 stress_184
                      9.1196719043e+01 stress_185
                      3.3942210235e+02 stress_186
                      5.8048438717e+02 stress_187
                      8.1309327428e+02 stress_188
                      1.0359533439e+03 stress_189
                      1.2478054976e+03 stress_190
                      1.4474307540e+03 stress_191
                      1.6336353532e+03 stress_192
                      1.8053383250e+03 stress_193
                      1.9615009081e+03 stress_194
                      2.1011544433e+03 stress_195
                      2.2234719586e+03 stress_196
                      2.3276753330e+03 stress_197
                      2.4131409709e+03 stress_198
                      2.4793401211e+03 stress_199
                      2.5258403515e+03 stress_200
                      2.5523687003e+03 stress_201
                      2.5536680425e+03 stress_202
                      2.2198520311e+03 stress_203
                      1.8687110812e+03 stress_204
                      1.9735292812e+03 stress_205
                      2.4104865056e+03 stress_206
                      2.4338004028e+03 stress_207
                      2.3720601246e+03 stress_208
                      2.2631848159e+03 stress_209
                      2.1135633888e+03 stress_210
                      1.9306504281e+03 stress_211
                      1.7216669710e+03 stress_212
                      1.4926840507e+03 stress_213
                      1.2485554371e+03 stress_214
                      9.9296596779e+02 stress_215
                      7.2876678375e+02 stress_216
                      4.5833467804e+02 stress_217
                      1.8376779531e+02 stress_218
                     -9.2917802240e+01 stress_219
                     -3.6967583502e+02 stress_220
                     -6.4441293258e+02 stress_221
                     -9.1495542804e+02 stress_222
                     -1.1790758863e+03 stress_223
                     -1.4345021870e+03 stress_224
                     -1.6789738168e+03 stress_225
                     -1.9102543055e+03 stress_226
                     -2.1261703778e+03 stress_227
                     -2.3246821977e+03 stress_228
                     -2.5038246287e+03 stress_229
                     -2.6618586079e+03 stress_230
                     -2.7972143823e+03 stress_231
                     -2.9084951922e+03 stress_232
                     -2.9946169834e+03 stress_233
                     -3.0546961112e+03 stress_234
                     -3.0880940131e+03 stress_235
                     -3.0818470633e+03 stress_236
                     -2.7343570772e+03 stress_237
                     -2.4222253511e+03 stress_238
                     -2.6375544026e+03 stress_239
                     -2.9529912693e+03 stress_240
                     -2.6349180103e+03 stress_241
                     -2.4472812055e+03 stress_242
                     -2.7820527734e+03 stress_243
                     -2.9411889759e+03 stress_244
                     -3.1398989302e+03 stress_245
                     -2.9629453950e+03 stress_246
                     -2.6242151759e+03 stress_247
                     -2.2317462811e+03 stress_248
                     -1.8837817913e+03 stress_249
                     -1.6444909718e+03 stress_250
                     -1.5502569947e+03 stress_251
                     -1.6517650091e+03 stress_252
                     -1.9727781489e+03 stress_253
                     -2.4051950158e+03 stress_254
                     -2.7883984598e+03 stress_255
                     -3.0220799283e+03 stress_256
                     -3.0826433573e+03 stress_257
                     -2.8168850426e+03 stress_258
                     -2.4037602248e+03 stress_259
                     -2.2215385998e+03 stress_260
                     -2.4296215799e+03 stress_261
                     -2.8539205124e+03 stress_262
                     -3.1677431238e+03 stress_263
                     -3.2327245412e+03 stress_264
                     -3.1923071025e+03 stress_265
                     -3.1021100074e+03 stress_266
                     -2.9651467882e+03 stress_267
                     -2.7867147320e+03 stress_268
                     -2.5738800536e+03 stress_269
                     -2.3345794239e+03 stress_270
                     -2.0763747598e+03 stress_271
                     -1.8055050484e+03 stress_272
                     -1.5267891380e+03 stress_273
                     -1.2435954589e+03 stress_274
                     -9.5828998052e+02 stress_275
                     -6.7269118063e+02 stress_276
                     -3.8833174080e+02 stress_277
                     -1.0671582050e+02 stress_278
                      1.7058231251e+02 stress_279
                      4.4187332231e+02 stress_280
                      7.0535039389e+02 stress_281
                      9.5911682766e+02 stress_282
                      1.2012144037e+03 stress_283
                      1.4296898171e+03 stress_284
                      1.6425948376e+03 stress_285
                      1.8380772011e+03 stress_286
                      2.0143819407e+03 stress_287
                      2.1698679408e+03 stress_288
                      2.3031017983e+03 stress_289
                      2.4128208751e+03 stress_290
                      2.4979620963e+03 stress_291
                      2.5577260524e+03 stress_292
                      2.5915192235e+03 stress_293
                      2.5920181642e+03 stress_294
                      2.2463631466e+03 stress_295
                      1.9012267889e+03 stress_296
                      2.0269239889e+03 stress_297
                      2.4572078652e+03 stress_298
                      2.4767865444e+03 stress_299
                      2.4351771783e+03 stress_300
                      2.3615343073e+03 stress_301
                      2.2585648736e+03 stress_302
                      2.1297890252e+03 stress_303
                      1.9788646731e+03 stress_304
                      1.8094410215e+03 stress_305
                      1.6246667012e+03 stress_306
                      1.4271523028e+03 stress_307
                      1.2190209626e+03 stress_308
                      1.0018638106e+03 stress_309
                      7.7695057030e+02 stress_310
                      5.4528517942e+02 stress_311
                      3.0769508910e+02 stress_312
                      6.4961081936e+01 stress_313
                     -1.8219092788e+02 stress_314
                     -4.3302490305e+02 stress_315
                     -6.8676656717e+02 stress_316
                     -9.4261178152e+02 stress_317
                     -1.1997033866e+03 stress_318
                     -1.4571399906e+03 stress_319
                     -1.7139879095e+03 stress_320
                     -1.9692664202e+03 stress_321
                     -2.2219798244e+03 stress_322
                     -2.4710986439e+03 stress_323
                     -2.7155909838e+03 stress_324
                     -2.9544322388e+03 stress_325
                     -3.1865759829e+03 stress_326
                     -3.4110220814e+03 stress_327
                     -3.6267459741e+03 stress_328
                     -3.8327990797e+03 stress_329
                     -4.0282458411e+03 stress_330
                     -4.2121768029e+03 stress_331
                     -4.3837582578e+03 stress_332
                     -4.5421792504e+03 stress_333
                     -4.6867083399e+03 stress_334
                     -4.8166824556e+03 stress_335
                     -4.9314506566e+03 stress_336
                     -5.0305067495e+03 stress_337
                     -5.1133655265e+03 stress_338
                     -5.1796299544e+03 stress_339
                     -5.2289983167e+03 stress_340
                     -5.2612290487e+03 stress_341
                     -5.2761626790e+03 stress_342


Active response data for evaluation 3:
Active set vector = { 1 1 1 1 1 1 1 1 1 1 1 1 1 1 1 1 1 1 1 1 1 1 1 1 1 1 1 1 1 1 1 1 1 1 1 1 1 1 1 1 1 1 1 1 1 1 1 1 1 1 1 1 1 1 1 1 1 1 1 1 1 1 1 1 1 1 1 1 1 1 1 1 1 1 1 1 1 1 1 1 1 1 1 1 1 1 1 1 1 1 1 1 1 1 1 1 1 1 1 1 1 1 1 1 1 1 1 1 1 1 1 1 1 1 1 1 1 1 1 1 1 1 1 1 1 1 1 1 1 1 1 1 1 1 1 1 1 1 1 1 1 1 1 1 1 1 1 1 1 1 1 1 1 1 1 1 1 1 1 1 1 1 1 1 1 1 1 1 1 1 1 1 1 1 1 1 1 1 1 1 1 1 1 1 1 1 1 1 1 1 1 1 1 1 1 1 1 1 1 1 1 1 1 1 1 1 1 1 1 1 1 1 1 1 1 1 1 1 1 1 1 1 1 1 1 1 1 1 1 1 1 1 1 1 1 1 1 1 1 1 1 1 1 1 1 1 1 1 1 1 1 1 1 1 1 1 1 1 1 1 1 1 1 1 1 1 1 1 1 1 1 1 1 1 1 1 1 1 1 1 1 1 1 1 1 1 1 1 1 1 1 1 1 1 1 1 1 1 1 1 1 1 1 1 1 1 1 1 1 1 1 1 1 1 1 1 1 1 1 1 1 1 1 1 1 1 1 1 1 1 1 1 1 1 1 1 1 1 1 1 1 1 }
                      2.3329780474e+00 stress_1
                     -2.4246275833e+02 stress_2
                     -6.5458681551e+02 stress_3
                     -6.9527175926e+02 stress_4
                     -3.7750280776e+02 stress_5
                      9.9047409686e+01 stress_6
                      4.3058036784e+02 stress_7
                      4.3358750886e+02 stress_8
                      1.9279523314e+02 stress_9
                     -2.1845319469e+02 stress_10
                     -6.8514752690e+02 stress_11
                     -9.2947081745e+02 stress_12
                     -1.0732775648e+03 stress_13
                     -1.0864581525e+03 stress_14
                     -7.6392046169e+02 stress_15
                     -9.2570986863e+02 stress_16
                     -1.1108498910e+03 stress_17
                     -9.2275080014e+02 stress_18
                     -5.7074034229e+02 stress_19
                     -1.1695410966e+02 stress_20
                      2.9152657185e+02 stress_21
                      5.3895752102e+02 stress_22
                      6.9568576404e+02 stress_23
                      7.6079061481e+02 stress_24
                      4.3758306079e+02 stress_25
                      5.6098596041e+02 stress_26
                      7.0025902448e+02 stress_27
                      7.3778879303e+02 stress_28
                      6.1933315584e+02 stress_29
                      4.0828197355e+02 stress_30
                      1.1356098150e+02 stress_31
                     -2.4861924103e+02 stress_32
                     -6.1767117746e+02 stress_33
                     -9.0762588219e+02 stress_34
                     -1.1590376342e+03 stress_35
                     -1.4011439775e+03 stress_36
                     -1.6313181975e+03 stress_37
                     -1.8412412756e+03 stress_38
                     -2.0224529673e+03 stress_39
                     -2.1673941937e+03 stress_40
                     -2.2701110299e+03 stress_41
                     -2.3263072178e+03 stress_42
                     -2.3114089384e+03 stress_43
                     -1.9280032849e+03 stress_44
                     -1.5990661054e+03 stress_45
                     -1.7976989398e+03 stress_46
                     -2.1604578433e+03 stress_47
                     -1.8703929479e+03 stress_48
                     -1.9695452011e+03 stress_49
                     -2.1243057979e+03 stress_50
                     -2.3532232650e+03 stress_51
                     -2.1890852020e+03 stress_52
                     -1.8383286024e+03 stress_53
                     -1.4061767035e+03 stress_54
                     -1.0275198173e+03 stress_55
                     -7.7731411436e+02 stress_56
                     -6.7450497257e+02 stress_57
                     -7.5771568015e+02 stress_58
                     -1.0694949460e+03 stress_59
                     -1.5195950987e+03 stress_60
                     -1.9714290790e+03 stress_61
                     -2.2452497094e+03 stress_62
                     -2.3155855820e+03 stress_63
                     -2.0543826748e+03 stress_64
                     -1.6115194660e+03 stress_65
                     -1.4635205278e+03 stress_66
                     -1.7269062502e+03 stress_67
                     -2.1839434316e+03 stress_68
                     -2.4149479299e+03 stress_69
                     -2.4183549302e+03 stress_70
                     -2.3264084099e+03 stress_71
                     -2.1579820131e+03 stress_72
                     -1.9189932550e+03 stress_73
                     -1.6218039959e+03 stress_74
                     -1.2899098999e+03 stress_75
                     -9.5384702679e+02 stress_76
                     -6.3510373803e+02 stress_77
                     -3.3828581998e+02 stress_78
                     -5.9611818680e+01 stress_79
                      2.0390001096e+02 stress_80
                      4.5200193015e+02 stress_81
                      6.8201272827e+02 stress_82
                      8.9000480835e+02 stress_83
                      1.0717109988e+03 stress_84
                      1.2229814518e+03 stress_85
                      1.3402216969e+03 stress_86
                      1.4205716473e+03 stress_87
                      1.4619715507e+03 stress_88
                      1.3909432009e+03 stress_89
                      9.5093075631e+02 stress_90
                      6.8360402593e+02 stress_91
                      9.6338284524e+02 stress_92
                      1.3684588818e+03 stress_93
                      1.3816572817e+03 stress_94
                      1.3236591910e+03 stress_95
                      1.2190900504e+03 stress_96
                      1.0698568013e+03 stress_97
                      8.7993243706e+02 stress_98
                      6.5651587069e+02 stress_99
                      4.0997061173e+02 stress_100
                      1.5156051895e+02 stress_101
                     -1.0967174782e+02 stress_102
                     -3.6888887100e+02 stress_103
                     -6.2498177082e+02 stress_104
                     -8.7868077669e+02 stress_105
                     -1.1310865597e+03 stress_106
                     -1.3828147086e+03 stress_107
                     -1.6337794061e+03 stress_108
                     -1.8832580752e+03 stress_109
                     -2.1300497021e+03 stress_110
                     -2.3726086528e+03 stress_111
                     -2.6091497455e+03 stress_112
                     -2.8377933387e+03 stress_113
                     -3.0566104172e+03 stress_114
                     -3.2636685392e+03 stress_115
                     -3.4570969836e+03 stress_116
                     -3.6350946575e+03 stress_117
                     -3.7960215912e+03 stress_118
                     -3.9383633590e+03 stress_119
                     -4.0607388667e+03 stress_120
                     -4.1620110731e+03 stress_121
                     -4.2411984714e+03 stress_122
                     -4.2975304461e+03 stress_123
                     -4.3304865763e+03 stress_124
                     -4.3393401322e+03 stress_125
                     -4.2412021318e+03 stress_126
                     -4.0039842325e+03 stress_127
                     -3.6796802587e+03 stress_128
                     -3.3271537697e+03 stress_129
                     -2.9923748878e+03 stress_130
                     -2.7076076362e+03 stress_131
                     -2.4960535690e+03 stress_132
                     -2.3742991567e+03 stress_133
                     -2.3669311189e+03 stress_134
                     -2.7654525941e+03 stress_135
                     -2.7885340425e+03 stress_136
                     -2.6073831968e+03 stress_137
                     -2.6421961750e+03 stress_138
                     -2.8095353331e+03 stress_139
                     -3.1287639827e+03 stress_140
                     -3.5463478695e+03 stress_141
                     -3.9450500688e+03 stress_142
                     -4.2093968413e+03 stress_143
                     -4.3785830948e+03 stress_144
                     -4.4636929820e+03 stress_145
                     -4.4440549514e+03 stress_146
                     -4.2171487506e+03 stress_147
                     -3.8577709912e+03 stress_148
                     -3.4768689799e+03 stress_149
                     -3.1643920218e+03 stress_150
                     -2.9768789456e+03 stress_151
                     -2.9485783297e+03 stress_152
                     -3.1576083502e+03 stress_153
                     -3.5477589426e+03 stress_154
                     -3.9897009532e+03 stress_155
                     -4.2679837089e+03 stress_156
                     -4.3726201591e+03 stress_157
                     -4.2549763573e+03 stress_158
                     -3.8526405097e+03 stress_159
                     -3.6199400559e+03 stress_160
                     -3.7806934487e+03 stress_161
                     -4.2017105579e+03 stress_162
                     -4.4443229938e+03 stress_163
                     -4.4722691074e+03 stress_164
                     -4.4321063057e+03 stress_165
                     -4.3534541592e+03 stress_166
                     -4.2385403462e+03 stress_167
                     -4.0908707960e+03 stress_168
                     -3.9151577730e+03 stress_169
                     -3.7165180340e+03 stress_170
                     -3.4999598460e+03 stress_171
                     -3.2698416360e+03 stress_172
                     -3.0296196910e+03 stress_173
                     -2.7819247597e+03 stress_174
                     -2.5285891088e+03 stress_175
                     -2.2709392531e+03 stress_176
                     -2.0099928072e+03 stress_177
                     -1.7465882706e+03 stress_178
                     -1.4815512410e+03 stress_179
                     -1.2157311705e+03 stress_180
                     -9.5003462303e+02 stress_181
                     -6.8547591427e+02 stress_182
                     -4.2313623498e+02 stress_183
                     -1.6418582555e+02 stress_184
                      9.0158010229e+01 stress_185
                      3.3862699031e+02 stress_186
                      5.7992855936e+02 stress_187
                      8.1277034511e+02 stress_188
                      1.0358550180e+03 stress_189
                      1.2479217408e+03 stress_190
                      1.4477499402e+03 stress_191
                      1.6341443731e+03 stress_192
                      1.8060227656e+03 stress_193
                      1.9623451458e+03 stress_194
                      2.1021417536e+03 stress_195
                      2.2245846909e+03 stress_196
                      2.3288949816e+03 stress_197
                      2.4144483508e+03 stress_198
                      2.4807154772e+03 stress_199
                      2.5272634665e+03 stress_200
                      2.5538190651e+03 stress_201
                      2.5551197421e+03 stress_202
                      2.2211276018e+03 stress_203
                      1.8699428815e+03 stress_204
                      1.9748658997e+03 stress_205
                      2.4122600591e+03 stress_206
                      2.4355972513e+03 stress_207
                      2.3738027373e+03 stress_208
                      2.2648568732e+03 stress_209
                      2.1151719247e+03 stress_210
                      1.9322115428e+03 stress_211
                      1.7231919023e+03 stress_212
                      1.4941718191e+03 stress_213
                      1.2499922930e+03 stress_214
                      9.9432879137e+02 stress_215
                      7.3002761530e+02 stress_216
                      4.5946471158e+02 stress_217
                      1.8474020502e+02 stress_218
                     -9.2126144653e+01 stress_219
                     -3.6908348177e+02 stress_220
                     -6.4403356324e+02 stress_221
                     -9.1479787328e+02 stress_222
                     -1.1791443437e+03 stress_223
                     -1.4347965104e+03 stress_224
                     -1.6794898612e+03 stress_225
                     -1.9109842595e+03 stress_226
                     -2.1271030962e+03 stress_227
                     -2.3258035607e+03 stress_228
                     -2.5051178095e+03 stress_229
                     -2.6633044520e+03 stress_230
                     -2.7987917067e+03 stress_231
                     -2.9101810649e+03 stress_232
                     -2.9963871225e+03 stress_233
                     -3.0565251610e+03 stress_234
                     -3.0899558540e+03 stress_235
                     -3.0837026773e+03 stress_236
                     -2.7359701155e+03 stress_237
                     -2.4237593565e+03 stress_238
                     -2.6393032904e+03 stress_239
                     -2.9550401665e+03 stress_240
                     -2.6367301346e+03 stress_241
                     -2.4490210603e+03 stress_242
                     -2.7841228015e+03 stress_243
                     -2.9434016966e+03 stress_244
                     -3.1422671963e+03 stress_245
                     -2.9651585849e+03 stress_246
                     -2.6262485596e+03 stress_247
                     -2.2336886589e+03 stress_248
                     -1.8856723246e+03 stress_249
                     -1.6463349506e+03 stress_250
                     -1.5520776619e+03 stress_251
                     -1.6536871167e+03 stress_252
                     -1.9750065374e+03 stress_253
                     -2.4076992722e+03 stress_254
                     -2.7909641187e+03 stress_255
                     -3.0246650807e+03 stress_256
                     -3.0852403826e+03 stress_257
                     -2.8192572662e+03 stress_258
                     -2.4059322145e+03 stress_259
                     -2.2236580068e+03 stress_260
                     -2.4319471356e+03 stress_261
                     -2.8565461406e+03 stress_262
                     -3.1704210971e+03 stress_263
                     -3.2354150779e+03 stress_264
                     -3.1949579572e+03 stress_265
                     -3.1046792278e+03 stress_266
                     -2.9676112845e+03 stress_267
                     -2.7890742649e+03 stress_268
                     -2.5761508450e+03 stress_269
                     -2.3367810319e+03 stress_270
                     -2.0785176091e+03 stress_271
                     -1.8075843344e+03 stress_272
                     -1.5287858277e+03 stress_273
                     -1.2454813991e+03 stress_274
                     -9.6003379492e+02 stress_275
                     -6.7426295579e+02 stress_276
                     -3.8970588474e+02 stress_277
                     -1.0787241308e+02 stress_278
                      1.6965719647e+02 stress_279
                      4.4118785254e+02 stress_280
                      7.0490747304e+02 stress_281
                      9.5891465334e+02 stress_282
                      1.2012470058e+03 stress_283
                      1.4299475691e+03 stress_284
                      1.6430648720e+03 stress_285
                      1.8387438265e+03 stress_286
                      2.0152269872e+03 stress_287
                      2.1708710623e+03 stress_288
                      2.3042408228e+03 stress_289
                      2.4140720841e+03 stress_290
                      2.4993005052e+03 stress_291
                      2.5591257389e+03 stress_292
                      2.5929535822e+03 stress_293
                      2.5934530349e+03 stress_294
                      2.2476138331e+03 stress_295
                      1.9024328580e+03 stress_296
                      2.0282557552e+03 stress_297
                      2.4589698942e+03 stress_298
                      2.4785681374e+03 stress_299
                      2.4369206005e+03 stress_300
                      2.3632226608e+03 stress_301
                      2.2601954932e+03 stress_302
                      2.1313693197e+03 stress_303
                      1.9804055817e+03 stress_304
                      1.8109511366e+03 stress_305
                      1.6261484980e+03 stress_306
                      1.4286008570e+03 stress_307
                      1.2204245517e+03 stress_308
                      1.0032055285e+03 stress_309
                      7.7821027411e+02 stress_310
                      5.4644127908e+02 stress_311
                      3.0872597077e+02 stress_312
                      6.5846157147e+01 stress_313
                     -1.8147056226e+02 stress_314
                     -4.3248607314e+02 stress_315
                     -6.8642382652e+02 stress_316
                     -9.4247736558e+02 stress_317
                     -1.1997872373e+03 stress_318
                     -1.4574498349e+03 stress_319
                     -1.7145293699e+03 stress_320
                     -1.9700431160e+03 stress_321
                     -2.2229934958e+03 stress_322
                     -2.4723492476e+03 stress_323
                     -2.7170768045e+03 stress_324
                     -2.9561499961e+03 stress_325
                     -3.1885208968e+03 stress_326
                     -3.4131879911e+03 stress_327
                     -3.6291253768e+03 stress_328
                     -3.8353832587e+03 stress_329
                     -4.0310249236e+03 stress_330
                     -4.2151398231e+03 stress_331
                     -4.3868932639e+03 stress_332
                     -4.5454733534e+03 stress_333
                     -4.6901478153e+03 stress_334
                     -4.8202528303e+03 stress_335
                     -4.9351367362e+03 stress_336
                     -5.0342927767e+03 stress_337
                     -5.1172352133e+03 stress_338
                     -5.1835665801e+03 stress_339
                     -5.2329848320e+03 stress_340
                     -5.2652481434e+03 stress_341
                     -5.2801968710e+03 stress_342


Active response data for evaluation 4:
Active set vector = { 1 1 1 1 1 1 1 1 1 1 1 1 1 1 1 1 1 1 1 1 1 1 1 1 1 1 1 1 1 1 1 1 1 1 1 1 1 1 1 1 1 1 1 1 1 1 1 1 1 1 1 1 1 1 1 1 1 1 1 1 1 1 1 1 1 1 1 1 1 1 1 1 1 1 1 1 1 1 1 1 1 1 1 1 1 1 1 1 1 1 1 1 1 1 1 1 1 1 1 1 1 1 1 1 1 1 1 1 1 1 1 1 1 1 1 1 1 1 1 1 1 1 1 1 1 1 1 1 1 1 1 1 1 1 1 1 1 1 1 1 1 1 1 1 1 1 1 1 1 1 1 1 1 1 1 1 1 1 1 1 1 1 1 1 1 1 1 1 1 1 1 1 1 1 1 1 1 1 1 1 1 1 1 1 1 1 1 1 1 1 1 1 1 1 1 1 1 1 1 1 1 1 1 1 1 1 1 1 1 1 1 1 1 1 1 1 1 1 1 1 1 1 1 1 1 1 1 1 1 1 1 1 1 1 1 1 1 1 1 1 1 1 1 1 1 1 1 1 1 1 1 1 1 1 1 1 1 1 1 1 1 1 1 1 1 1 1 1 1 1 1 1 1 1 1 1 1 1 1 1 1 1 1 1 1 1 1 1 1 1 1 1 1 1 1 1 1 1 1 1 1 1 1 1 1 1 1 1 1 1 1 1 1 1 1 1 1 1 1 1 1 1 1 1 1 1 1 1 1 1 1 1 1 1 1 1 1 1 1 1 1 1 }
                      2.3306474000e+00 stress_1
                     -2.4222053783e+02 stress_2
                     -6.5422604594e+02 stress_3
                     -6.9494845446e+02 stress_4
                     -3.7749695446e+02 stress_5
                      9.8577198915e+01 stress_6
                      4.2981345871e+02 stress_7
                      4.3281964307e+02 stress_8
                      1.9226791907e+02 stress_9
                     -2.1856967155e+02 stress_10
                     -6.8482198267e+02 stress_11
                     -9.2910885525e+02 stress_12
                     -1.0729155331e+03 stress_13
                     -1.0860961202e+03 stress_14
                     -7.6388064330e+02 stress_15
                     -9.2550842247e+02 stress_16
                     -1.1104655295e+03 stress_17
                     -9.2255434981e+02 stress_18
                     -5.7089539870e+02 stress_19
                     -1.1752563823e+02 stress_20
                      2.9099234509e+02 stress_21
                      5.3852127980e+02 stress_22
                      6.9525751953e+02 stress_23
                      7.6036302281e+02 stress_24
                      4.3747834418e+02 stress_25
                      5.6075796417e+02 stress_26
                      6.9989189069e+02 stress_27
                      7.3738400910e+02 stress_28
                      6.1904670921e+02 stress_29
                      4.0820635512e+02 stress_30
                      1.1377812196e+02 stress_31
                     -2.4808914633e+02 stress_32
                     -6.1710346100e+02 stress_33
                     -9.0715266323e+02 stress_34
                     -1.1585712014e+03 stress_35
                     -1.4006744831e+03 stress_36
                     -1.6308470618e+03 stress_37
                     -1.8407694353e+03 stress_38
                     -2.0219808157e+03 stress_39
                     -2.1669218965e+03 stress_40
                     -2.2696386628e+03 stress_41
                     -2.3258348207e+03 stress_42
                     -2.3109514246e+03 stress_43
                     -1.9279183542e+03 stress_44
                     -1.5992423185e+03 stress_45
                     -1.7976767185e+03 stress_46
                     -2.1600732803e+03 stress_47
                     -1.8702940004e+03 stress_48
                     -1.9693472004e+03 stress_49
                     -2.1239531913e+03 stress_50
                     -2.3526434798e+03 stress_51
                     -2.1886689909e+03 stress_52
                     -1.8382414018e+03 stress_53
                     -1.4063866029e+03 stress_54
                     -1.0278640963e+03 stress_55
                     -7.7770657818e+02 stress_56
                     -6.7491351176e+02 stress_57
                     -7.5804109176e+02 stress_58
                     -1.0695088898e+03 stress_59
                     -1.5191600074e+03 stress_60
                     -1.9706226022e+03 stress_61
                     -2.2445323603e+03 stress_62
                     -2.3149120538e+03 stress_63
                     -2.0539690407e+03 stress_64
                     -1.6115083842e+03 stress_65
                     -1.4636185916e+03 stress_66
                     -1.7267411914e+03 stress_67
                     -2.1833329881e+03 stress_68
                     -2.4143077163e+03 stress_69
                     -2.4177149157e+03 stress_70
                     -2.3258602216e+03 stress_71
                     -2.1576007603e+03 stress_72
                     -1.9188379149e+03 stress_73
                     -1.6218882473e+03 stress_74
                     -1.2901785759e+03 stress_75
                     -9.5421392597e+02 stress_76
                     -6.3551807241e+02 stress_77
                     -3.3873576330e+02 stress_78
                     -6.0095345635e+01 stress_79
                      2.0338706702e+02 stress_80
                      4.5146541631e+02 stress_81
                      6.8145830158e+02 stress_82
                      8.8943715031e+02 stress_83
                      1.0711337484e+03 stress_84
                      1.2223973980e+03 stress_85
                      1.3396330052e+03 stress_86
                      1.4199800606e+03 stress_87
                      1.4613785552e+03 stress_88
                      1.3904210382e+03 stress_89
                      9.5080774338e+02 stress_90
                      6.8366170657e+02 stress_91
                      9.6316102656e+02 stress_92
                      1.3678335153e+03 stress_93
                      1.3810192438e+03 stress_94
                      1.3230790300e+03 stress_95
                      1.2186130093e+03 stress_96
                      1.0695206746e+03 stress_97
                      8.7975833200e+02 stress_98
                      6.5650009304e+02 stress_99
                      4.1008656383e+02 stress_100
                      1.5177305404e+02 stress_101
                     -1.0939061424e+02 stress_102
                     -3.6855463024e+02 stress_103
                     -6.2460141816e+02 stress_104
                     -8.7825830099e+02 stress_105
                     -1.1306258292e+03 stress_106
                     -1.3823201042e+03 stress_107
                     -1.6332555362e+03 stress_108
                     -1.8827093778e+03 stress_109
                     -2.1294801879e+03 stress_110
                     -2.3720218037e+03 stress_111
                     -2.6085485134e+03 stress_112
                     -2.8371801907e+03 stress_113
                     -3.0559874037e+03 stress_114
                     -3.2630373628e+03 stress_115
                     -3.4564590622e+03 stress_116
                     -3.6344511798e+03 stress_117
                     -3.7953735608e+03 stress_118
                     -3.9377116335e+03 stress_119
                     -4.0600841893e+03 stress_120
                     -4.1613540973e+03 stress_121
                     -4.2405397834e+03 stress_122
                     -4.2968705830e+03 stress_123
                     -4.3298260417e+03 stress_124
                     -4.3386794192e+03 stress_125
                     -4.2406342231e+03 stress_126
                     -4.0035973619e+03 stress_127
                     -3.6794628321e+03 stress_128
                     -3.3270552015e+03 stress_129
                     -2.9923548516e+03 stress_130
                     -2.7076409869e+03 stress_131
                     -2.4961222447e+03 stress_132
                     -2.3743870699e+03 stress_133
                     -2.3670201755e+03 stress_134
                     -2.7651435518e+03 stress_135
                     -2.7882019551e+03 stress_136
                     -2.6072171011e+03 stress_137
                     -2.6419953011e+03 stress_138
                     -2.8091672876e+03 stress_139
                     -3.1280776266e+03 stress_140
                     -3.5452904340e+03 stress_141
                     -3.9439814416e+03 stress_142
                     -4.2084444762e+03 stress_143
                     -4.3776457167e+03 stress_144
                     -4.4627562813e+03 stress_145
                     -4.4431377425e+03 stress_146
                     -4.2164319034e+03 stress_147
                     -3.8572850972e+03 stress_148
                     -3.4765452844e+03 stress_149
                     -3.1641627703e+03 stress_150
                     -2.9766962460e+03 stress_151
                     -2.9484021829e+03 stress_152
                     -3.1572233822e+03 stress_153
                     -3.5469849232e+03 stress_154
                     -3.9886029120e+03 stress_155
                     -4.2670121782e+03 stress_156
                     -4.3716744450e+03 stress_157
                     -4.2541429666e+03 stress_158
                     -3.8521047210e+03 stress_159
                     -3.6195253672e+03 stress_160
                     -3.7801181671e+03 stress_161
                     -4.2007337856e+03 stress_162
                     -4.4433805227e+03 stress_163
                     -4.4713272687e+03 stress_164
                     -4.4312039986e+03 stress_165
                     -4.3526251446e+03 stress_166
                     -4.2378082665e+03 stress_167
                     -4.0902466403e+03 stress_168
                     -3.9146406568e+03 stress_169
                     -3.7160989318e+03 stress_170
                     -3.4996261562e+03 stress_171
                     -3.2695809428e+03 stress_172
                     -3.0294218570e+03 stress_173
                     -2.7817824520e+03 stress_174
                     -2.5284974076e+03 stress_175
                     -2.2708948876e+03 stress_176
                     -2.0099934292e+03 stress_177
                     -1.7466319264e+03 stress_178
                     -1.4816360463e+03 stress_179
                     -1.2158551572e+03 stress_180
                     -9.5019569435e+02 stress_181
                     -6.8567185497e+02 stress_182
                     -4.2336475341e+02 stress_183
                     -1.6444459829e+02 stress_184
                      8.9871294263e+01 stress_185
                      3.3831459647e+02 stress_186
                      5.7959268204e+02 stress_187
                      8.1241309051e+02 stress_188
                      1.0354783962e+03 stress_189
                      1.2475276608e+03 stress_190
                      1.4473402110e+03 stress_191
                      1.6337207092e+03 stress_192
                      1.8055867894e+03 stress_193
                      1.9618983973e+03 stress_194
                      2.1016856999e+03 stress_195
                      2.2241207314e+03 stress_196
                      2.3284244607e+03 stress_197
                      2.4139725641e+03 stress_198
                      2.4802356815e+03 stress_199
                      2.5267808906e+03 stress_200
                      2.5533349162e+03 stress_201
                      2.5546355163e+03 stress_202
                      2.2208766435e+03 stress_203
                      1.8698200650e+03 stress_204
                      1.9746382650e+03 stress_205
                      2.4115954827e+03 stress_206
                      2.4349093746e+03 stress_207
                      2.3731721730e+03 stress_208
                      2.2643113787e+03 stress_209
                      2.1147192448e+03 stress_210
                      1.9318455709e+03 stress_211
                      1.7229006025e+03 stress_212
                      1.4939430428e+03 stress_213
                      1.2498164484e+03 stress_214
                      9.9419929625e+02 stress_215
                      7.2994026392e+02 stress_216
                      4.5941678922e+02 stress_217
                      1.8472975623e+02 stress_218
                     -9.2100805194e+01 stress_219
                     -3.6902404202e+02 stress_220
                     -6.4394183109e+02 stress_221
                     -9.1467580650e+02 stress_222
                     -1.1789940320e+03 stress_223
                     -1.4346201406e+03 stress_224
                     -1.6792896770e+03 stress_225
                     -1.9107625278e+03 stress_226
                     -2.1268620801e+03 stress_227
                     -2.3255454980e+03 stress_228
                     -2.5048449052e+03 stress_229
                     -2.6630188668e+03 stress_230
                     -2.7984955576e+03 stress_231
                     -2.9098764307e+03 stress_232
                     -2.9960760423e+03 stress_233
                     -3.0562096452e+03 stress_234
                     -3.0896378941e+03 stress_235
                     -3.0833909534e+03 stress_236
                     -2.7359426063e+03 stress_237
                     -2.4238913846e+03 stress_238
                     -2.6392202627e+03 stress_239
                     -2.9546535182e+03 stress_240
                     -2.6366123615e+03 stress_241
                     -2.4490165325e+03 stress_242
                     -2.7837863647e+03 stress_243
                     -2.9429174752e+03 stress_244
                     -3.1416210524e+03 stress_245
                     -2.9646765327e+03 stress_246
                     -2.6260041724e+03 stress_247
                     -2.2336216534e+03 stress_248
                     -1.8857079806e+03 stress_249
                     -1.6464242776e+03 stress_250
                     -1.5521857416e+03 stress_251
                     -1.6536937251e+03 stress_252
                     -1.9747004845e+03 stress_253
                     -2.4070559492e+03 stress_254
                     -2.7901614903e+03 stress_255
                     -3.0238154805e+03 stress_256
                     -3.0843815349e+03 stress_257
                     -2.8186395389e+03 stress_258
                     -2.4055862593e+03 stress_259
                     -2.2233997759e+03 stress_260
                     -2.4314819066e+03 stress_261
                     -2.8557335837e+03 stress_262
                     -3.1694950675e+03 stress_263
                     -3.2344769756e+03 stress_264
                     -3.1940598575e+03 stress_265
                     -3.1038663278e+03 stress_266
                     -2.9669158028e+03 stress_267
                     -2.7885105837e+03 stress_268
                     -2.5757165259e+03 stress_269
                     -2.3364626614e+03 stress_270
                     -2.0782980821e+03 stress_271
                     -1.8074482029e+03 stress_272
                     -1.5287214705e+03 stress_273
                     -1.2454809108e+03 stress_274
                     -9.6009183844e+02 stress_275
                     -6.7437555991e+02 stress_276
                     -3.8986960989e+02 stress_277
                     -1.0808389781e+02 stress_278
                      1.6940140550e+02 stress_279
                      4.4089131339e+02 stress_280
                      7.0457379349e+02 stress_281
                      9.5854741949e+02 stress_282
                      1.2008497205e+03 stress_283
                      1.4295236052e+03 stress_284
                      1.6426174484e+03 stress_285
                      1.8382759945e+03 stress_286
                      2.0147416326e+03 stress_287
                      2.1703709171e+03 stress_288
                      2.3037284771e+03 stress_289
                      2.4135500065e+03 stress_290
                      2.4987710660e+03 stress_291
                      2.5585912290e+03 stress_292
                      2.5924162397e+03 stress_293
                      2.5929156508e+03 stress_294
                      2.2473194212e+03 stress_295
                      1.9022673581e+03 stress_296
                      2.0279645581e+03 stress_297
                      2.4582484314e+03 stress_298
                      2.4778271097e+03 stress_299
                      2.4362191822e+03 stress_300
                      2.3625836387e+03 stress_301
                      2.2596308330e+03 stress_302
                      2.1308812852e+03 stress_303
                      1.9799898312e+03 stress_304
                      1.8105999903e+03 stress_305
                      1.6258536371e+03 stress_306
                      1.4283549208e+03 stress_307
                      1.2202217852e+03 stress_308
                      1.0030418250e+03 stress_309
                      7.7808287099e+02 stress_310
                      5.4634836780e+02 stress_311
                      3.0866633447e+02 stress_312
                      6.5818881030e+01 stress_313
                     -1.8146628318e+02 stress_314
                     -4.3245105456e+02 stress_315
                     -6.8635895912e+02 stress_316
                     -9.4238363822e+02 stress_317
                     -1.1996657386e+03 stress_318
                     -1.4573017404e+03 stress_319
                     -1.7143559229e+03 stress_320
                     -1.9698456081e+03 stress_321
                     -2.2227732470e+03 stress_322
                     -2.4721075903e+03 stress_323
                     -2.7168150688e+03 stress_324
                     -2.9558694979e+03 stress_325
                     -3.1882229313e+03 stress_326
                     -3.4128738243e+03 stress_327
                     -3.6287962450e+03 stress_328
                     -3.8350403621e+03 stress_329
                     -4.0306694274e+03 stress_330
                     -4.2147728583e+03 stress_331
                     -4.3865159264e+03 stress_332
                     -4.5450867074e+03 stress_333
                     -4.6897528940e+03 stress_334
                     -4.8198506382e+03 stress_335
                     -4.9347282546e+03 stress_336
                     -5.0338789628e+03 stress_337
                     -5.1168170058e+03 stress_338
                     -5.1831449019e+03 stress_339
                     -5.2325605925e+03 stress_340
                     -5.2648222429e+03 stress_341
                     -5.2797702039e+03 stress_342


Active response data for evaluation 5:
Active set vector = { 1 1 1 1 1 1 1 1 1 1 1 1 1 1 1 1 1 1 1 1 1 1 1 1 1 1 1 1 1 1 1 1 1 1 1 1 1 1 1 1 1 1 1 1 1 1 1 1 1 1 1 1 1 1 1 1 1 1 1 1 1 1 1 1 1 1 1 1 1 1 1 1 1 1 1 1 1 1 1 1 1 1 1 1 1 1 1 1 1 1 1 1 1 1 1 1 1 1 1 1 1 1 1 1 1 1 1 1 1 1 1 1 1 1 1 1 1 1 1 1 1 1 1 1 1 1 1 1 1 1 1 1 1 1 1 1 1 1 1 1 1 1 1 1 1 1 1 1 1 1 1 1 1 1 1 1 1 1 1 1 1 1 1 1 1 1 1 1 1 1 1 1 1 1 1 1 1 1 1 1 1 1 1 1 1 1 1 1 1 1 1 1 1 1 1 1 1 1 1 1 1 1 1 1 1 1 1 1 1 1 1 1 1 1 1 1 1 1 1 1 1 1 1 1 1 1 1 1 1 1 1 1 1 1 1 1 1 1 1 1 1 1 1 1 1 1 1 1 1 1 1 1 1 1 1 1 1 1 1 1 1 1 1 1 1 1 1 1 1 1 1 1 1 1 1 1 1 1 1 1 1 1 1 1 1 1 1 1 1 1 1 1 1 1 1 1 1 1 1 1 1 1 1 1 1 1 1 1 1 1 1 1 1 1 1 1 1 1 1 1 1 1 1 1 1 1 1 1 1 1 1 1 1 1 1 1 1 1 1 1 1 1 }
                      2.3306474000e+00 stress_1
                     -2.4222053782e+02 stress_2
                     -6.5418742794e+02 stress_3
                     -6.9487630612e+02 stress_4
                     -3.7742480612e+02 stress_5
                      9.8649345161e+01 stress_6
                      4.2988299873e+02 stress_7
                      4.3288903736e+02 stress_8
                      1.9233731336e+02 stress_9
                     -2.1850027679e+02 stress_10
                     -6.8473597985e+02 stress_11
                     -9.2883081817e+02 stress_12
                     -1.0724940127e+03 stress_13
                     -1.0856614342e+03 stress_14
                     -7.6344595856e+02 stress_15
                     -9.2507373773e+02 stress_16
                     -1.1100291675e+03 stress_17
                     -9.2211798780e+02 stress_18
                     -5.7045914170e+02 stress_19
                     -1.1710709158e+02 stress_20
                      2.9128388529e+02 stress_21
                      5.3867032671e+02 stress_22
                      6.9527180290e+02 stress_23
                      7.6031634464e+02 stress_24
                      4.3743167459e+02 stress_25
                      5.6071129458e+02 stress_26
                      6.9984519697e+02 stress_27
                      7.3733707133e+02 stress_28
                      6.1899977144e+02 stress_29
                      4.0815942849e+02 stress_30
                      1.1373252610e+02 stress_31
                     -2.4810397255e+02 stress_32
                     -6.1698093917e+02 stress_33
                     -9.0689841571e+02 stress_34
                     -1.1581321927e+03 stress_35
                     -1.4000124949e+03 stress_36
                     -1.6299607839e+03 stress_37
                     -1.8396753895e+03 stress_38
                     -2.0207065053e+03 stress_39
                     -2.1655031248e+03 stress_40
                     -2.2681174314e+03 stress_41
                     -2.3242575141e+03 stress_42
                     -2.3093741184e+03 stress_43
                     -1.9263786397e+03 stress_44
                     -1.5979071705e+03 stress_45
                     -1.7963415705e+03 stress_46
                     -2.1587380488e+03 stress_47
                     -1.8689738627e+03 stress_48
                     -1.9680270627e+03 stress_49
                     -2.1226330535e+03 stress_50
                     -2.3513201788e+03 stress_51
                     -2.1873473016e+03 stress_52
                     -1.8369926444e+03 stress_53
                     -1.4054966229e+03 stress_54
                     -1.0274128576e+03 stress_55
                     -7.7746320874e+02 stress_56
                     -6.7472420218e+02 stress_57
                     -7.5785178218e+02 stress_58
                     -1.0693195801e+03 stress_59
                     -1.5189694333e+03 stress_60
                     -1.9702692594e+03 stress_61
                     -2.2434703130e+03 stress_62
                     -2.3136500644e+03 stress_63
                     -2.0527107173e+03 stress_64
                     -1.6103662549e+03 stress_65
                     -1.4625754691e+03 stress_66
                     -1.7256980689e+03 stress_67
                     -2.1822642060e+03 stress_68
                     -2.4128406879e+03 stress_69
                     -2.4162431486e+03 stress_70
                     -2.3243885678e+03 stress_71
                     -2.1561339386e+03 stress_72
                     -1.9174134682e+03 stress_73
                     -1.6206288844e+03 stress_74
                     -1.2892661506e+03 stress_75
                     -9.5370870130e+02 stress_76
                     -6.3528905058e+02 stress_77
                     -3.3863200092e+02 stress_78
                     -6.0056834277e+01 stress_79
                      2.0335443627e+02 stress_80
                      4.5133643591e+02 stress_81
                      6.8121231337e+02 stress_82
                      8.8906518870e+02 stress_83
                      1.0706387345e+03 stress_84
                      1.2217922928e+03 stress_85
                      1.3389385285e+03 stress_86
                      1.4192225451e+03 stress_87
                      1.4605880407e+03 stress_88
                      1.3896312531e+03 stress_89
                      9.5021255506e+02 stress_90
                      6.8342487501e+02 stress_91
                      9.6292419500e+02 stress_92
                      1.3675940397e+03 stress_93
                      1.3807784927e+03 stress_94
                      1.3228386483e+03 stress_95
                      1.2183799291e+03 stress_96
                      1.0693285546e+03 stress_97
                      8.7969260271e+02 stress_98
                      6.5669659367e+02 stress_99
                      4.1067680964e+02 stress_100
                      1.5280555144e+02 stress_101
                     -1.0797769616e+02 stress_102
                     -3.6688492806e+02 stress_103
                     -6.2279186177e+02 stress_104
                     -8.7638278732e+02 stress_105
                     -1.1287137856e+03 stress_106
                     -1.3803704051e+03 stress_107
                     -1.6312511458e+03 stress_108
                     -1.8806276744e+03 stress_109
                     -2.1272989379e+03 stress_110
                     -2.3697221329e+03 stress_111
                     -2.6061161291e+03 stress_112
                     -2.8346056436e+03 stress_113
                     -3.0532659097e+03 stress_114
                     -3.2601684381e+03 stress_115
                     -3.4534460783e+03 stress_116
                     -3.6313009307e+03 stress_117
                     -3.7920958002e+03 stress_118
                     -3.9343186790e+03 stress_119
                     -4.0565905632e+03 stress_120
                     -4.1577761089e+03 stress_121
                     -4.2368952111e+03 stress_122
                     -4.2931783311e+03 stress_123
                     -4.3261057793e+03 stress_124
                     -4.3349516175e+03 stress_125
                     -4.2369630490e+03 stress_126
                     -4.0004571858e+03 stress_127
                     -3.6775683143e+03 stress_128
                     -3.3266899217e+03 stress_129
                     -2.9933017991e+03 stress_130
                     -2.7095030667e+03 stress_131
                     -2.4985371700e+03 stress_132
                     -2.3770743219e+03 stress_133
                     -2.3697228999e+03 stress_134
                     -2.7678461047e+03 stress_135
                     -2.7909044152e+03 stress_136
                     -2.6100197984e+03 stress_137
                     -2.6447979984e+03 stress_138
                     -2.8119699819e+03 stress_139
                     -3.1308760339e+03 stress_140
                     -3.5477540668e+03 stress_141
                     -3.9436796503e+03 stress_142
                     -4.2059762969e+03 stress_143
                     -4.3746538904e+03 stress_144
                     -4.4596189360e+03 stress_145
                     -4.4400018334e+03 stress_146
                     -4.2135520736e+03 stress_147
                     -3.8554722557e+03 stress_148
                     -3.4762355377e+03 stress_149
                     -3.1650715446e+03 stress_150
                     -2.9782673038e+03 stress_151
                     -2.9500673857e+03 stress_152
                     -3.1588885848e+03 stress_153
                     -3.5486444107e+03 stress_154
                     -3.9892946879e+03 stress_155
                     -4.2646897572e+03 stress_156
                     -4.3687722564e+03 stress_157
                     -4.2512933523e+03 stress_158
                     -3.8501449955e+03 stress_159
                     -3.6183853004e+03 stress_160
                     -3.7789781004e+03 stress_161
                     -4.1994254462e+03 stress_162
                     -4.4402428190e+03 stress_163
                     -4.4681431319e+03 stress_164
                     -4.4280263852e+03 stress_165
                     -4.3495019755e+03 stress_166
                     -4.2348571727e+03 stress_167
                     -4.0876500777e+03 stress_168
                     -3.9126086080e+03 stress_169
                     -3.7148183945e+03 stress_170
                     -3.4992199095e+03 stress_171
                     -3.2700903095e+03 stress_172
                     -3.0308135272e+03 stress_173
                     -2.7839697028e+03 stress_174
                     -2.5313654934e+03 stress_175
                     -2.2743223215e+03 stress_176
                     -2.0138665072e+03 stress_177
                     -1.7508526502e+03 stress_178
                     -1.4861249009e+03 stress_179
                     -1.2205507288e+03 stress_180
                     -9.5505256476e+02 stress_181
                     -6.9065779422e+02 stress_182
                     -4.2845787851e+02 stress_183
                     -1.6963077340e+02 stress_184
                      8.4600655998e+01 stress_185
                      3.3296432527e+02 stress_186
                      5.7416525646e+02 stress_187
                      8.0690970825e+02 stress_188
                      1.0298997769e+03 stress_189
                      1.2418746189e+03 stress_190
                      1.4416140557e+03 stress_191
                      1.6279235182e+03 stress_192
                      1.7997215472e+03 stress_193
                      1.9559690821e+03 stress_194
                      2.0956973012e+03 stress_195
                      2.2180791920e+03 stress_196
                      2.3223366252e+03 stress_197
                      2.4078460549e+03 stress_198
                      2.4740787835e+03 stress_199
                      2.5206024212e+03 stress_200
                      2.5471440573e+03 stress_201
                      2.5484440490e+03 stress_202
                      2.2159339406e+03 stress_203
                      1.8671815880e+03 stress_204
                      1.9719997880e+03 stress_205
                      2.4089570035e+03 stress_206
                      2.4322709139e+03 stress_207
                      2.3705954656e+03 stress_208
                      2.2620382127e+03 stress_209
                      2.1131057468e+03 stress_210
                      1.9312385817e+03 stress_211
                      1.7235400712e+03 stress_212
                      1.4959277209e+03 stress_213
                      1.2531202562e+03 stress_214
                      9.9871201928e+02 stress_215
                      7.3550920126e+02 stress_216
                      4.6587841286e+02 stress_217
                      1.9192963345e+02 stress_218
                     -8.4298088267e+01 stress_219
                     -3.6073165982e+02 stress_220
                     -6.3525133824e+02 stress_221
                     -9.0565972973e+02 stress_222
                     -1.1697091302e+03 stress_223
                     -1.4251106882e+03 stress_224
                     -1.6695903926e+03 stress_225
                     -1.9009010658e+03 stress_226
                     -2.1168610404e+03 stress_227
                     -2.3154239750e+03 stress_228
                     -2.4946197138e+03 stress_229
                     -2.6527053784e+03 stress_230
                     -2.7881083301e+03 stress_231
                     -2.8994296441e+03 stress_232
                     -2.9855837129e+03 stress_233
                     -3.0456857900e+03 stress_234
                     -3.0790965916e+03 stress_235
                     -3.0728497949e+03 stress_236
                     -2.7260950661e+03 stress_237
                     -2.4155360263e+03 stress_238
                     -2.6308672838e+03 stress_239
                     -2.9464803004e+03 stress_240
                     -2.6289655378e+03 stress_241
                     -2.4420956139e+03 stress_242
                     -2.7768828794e+03 stress_243
                     -2.9361106518e+03 stress_244
                     -3.1352429238e+03 stress_245
                     -2.9584388843e+03 stress_246
                     -2.6207446550e+03 stress_247
                     -2.2301479603e+03 stress_248
                     -1.8839359514e+03 stress_249
                     -1.6457383263e+03 stress_250
                     -1.5518958580e+03 stress_251
                     -1.6534036568e+03 stress_252
                     -1.9743720538e+03 stress_253
                     -2.4063396021e+03 stress_254
                     -2.7886862581e+03 stress_255
                     -3.0218485043e+03 stress_256
                     -3.0823022601e+03 stress_257
                     -2.8167885028e+03 stress_258
                     -2.4048463929e+03 stress_259
                     -2.2233057416e+03 stress_260
                     -2.4313817661e+03 stress_261
                     -2.8552358628e+03 stress_262
                     -3.1681201698e+03 stress_263
                     -3.2329123424e+03 stress_264
                     -3.1924995322e+03 stress_265
                     -3.1023543212e+03 stress_266
                     -2.9655794773e+03 stress_267
                     -2.7875608097e+03 stress_268
                     -2.5753961846e+03 stress_269
                     -2.3369722854e+03 stress_270
                     -2.0797410941e+03 stress_271
                     -1.8098190618e+03 stress_272
                     -1.5319293431e+03 stress_273
                     -1.2493889392e+03 stress_274
                     -9.6455251081e+02 stress_275
                     -6.7925398281e+02 stress_276
                     -3.9505473014e+02 stress_277
                     -1.1349092692e+02 stress_278
                      1.6383341841e+02 stress_279
                      4.3520394675e+02 stress_280
                      6.9879405733e+02 stress_281
                      9.5269206319e+02 stress_282
                      1.1949287453e+03 stress_283
                      1.4235429459e+03 stress_284
                      1.6365809382e+03 stress_285
                      1.8321867203e+03 stress_286
                      2.0086028336e+03 stress_287
                      2.1641865353e+03 stress_288
                      2.2975034250e+03 stress_289
                      2.4072902596e+03 stress_290
                      2.4924836130e+03 stress_291
                      2.5522839079e+03 stress_292
                      2.5860975286e+03 stress_293
                      2.5865967707e+03 stress_294
                      2.2422654903e+03 stress_295
                      1.8994458030e+03 stress_296
                      2.0251430030e+03 stress_297
                      2.4554269470e+03 stress_298
                      2.4750057236e+03 stress_299
                      2.4334260932e+03 stress_300
                      2.3599384126e+03 stress_301
                      2.2573357201e+03 stress_302
                      2.1291779435e+03 stress_303
                      1.9791075635e+03 stress_304
                      1.8107145054e+03 stress_305
                      1.6270677583e+03 stress_306
                      1.4306983853e+03 stress_307
                      1.2236634842e+03 stress_308
                      1.0075080437e+03 stress_309
                      7.8347481988e+02 stress_310
                      5.5255691401e+02 stress_311
                      3.1558266318e+02 stress_312
                      7.3341166733e+01 stress_313
                     -1.7342907642e+02 stress_314
                     -4.2397768483e+02 stress_315
                     -6.7751587342e+02 stress_316
                     -9.3322577269e+02 stress_317
                     -1.1902377980e+03 stress_318
                     -1.4476396370e+03 stress_319
                     -1.7044882130e+03 stress_320
                     -1.9597948528e+03 stress_321
                     -2.2125572103e+03 stress_322
                     -2.4617402986e+03 stress_323
                     -2.7063076960e+03 stress_324
                     -2.9452311039e+03 stress_325
                     -3.1774610879e+03 stress_326
                     -3.4019950926e+03 stress_327
                     -3.6178065939e+03 stress_328
                     -3.8239454540e+03 stress_329
                     -4.0194748682e+03 stress_330
                     -4.2034843839e+03 stress_331
                     -4.3751395170e+03 stress_332
                     -4.5336286900e+03 stress_333
                     -4.6782199845e+03 stress_334
                     -4.8082499623e+03 stress_335
                     -4.9230673774e+03 stress_336
                     -5.0221658318e+03 stress_337
                     -5.1050599449e+03 stress_338
                     -5.1713525591e+03 stress_339
                     -5.2207418749e+03 stress_340
                     -5.2529862645e+03 stress_341
                     -5.2679262166e+03 stress_342


Active response data for evaluation 6:
Active set vector = { 1 1 1 1 1 1 1 1 1 1 1 1 1 1 1 1 1 1 1 1 1 1 1 1 1 1 1 1 1 1 1 1 1 1 1 1 1 1 1 1 1 1 1 1 1 1 1 1 1 1 1 1 1 1 1 1 1 1 1 1 1 1 1 1 1 1 1 1 1 1 1 1 1 1 1 1 1 1 1 1 1 1 1 1 1 1 1 1 1 1 1 1 1 1 1 1 1 1 1 1 1 1 1 1 1 1 1 1 1 1 1 1 1 1 1 1 1 1 1 1 1 1 1 1 1 1 1 1 1 1 1 1 1 1 1 1 1 1 1 1 1 1 1 1 1 1 1 1 1 1 1 1 1 1 1 1 1 1 1 1 1 1 1 1 1 1 1 1 1 1 1 1 1 1 1 1 1 1 1 1 1 1 1 1 1 1 1 1 1 1 1 1 1 1 1 1 1 1 1 1 1 1 1 1 1 1 1 1 1 1 1 1 1 1 1 1 1 1 1 1 1 1 1 1 1 1 1 1 1 1 1 1 1 1 1 1 1 1 1 1 1 1 1 1 1 1 1 1 1 1 1 1 1 1 1 1 1 1 1 1 1 1 1 1 1 1 1 1 1 1 1 1 1 1 1 1 1 1 1 1 1 1 1 1 1 1 1 1 1 1 1 1 1 1 1 1 1 1 1 1 1 1 1 1 1 1 1 1 1 1 1 1 1 1 1 1 1 1 1 1 1 1 1 1 1 1 1 1 1 1 1 1 1 1 1 1 1 1 1 1 1 1 }
                      2.3306474000e+00 stress_1
                     -2.4222053783e+02 stress_2
                     -6.5419139097e+02 stress_3
                     -6.9487770920e+02 stress_4
                     -3.7742620920e+02 stress_5
                      9.8647942662e+01 stress_6
                      4.2988191660e+02 stress_7
                      4.3288796910e+02 stress_8
                      1.9233624510e+02 stress_9
                     -2.1850134536e+02 stress_10
                     -6.8473840771e+02 stress_11
                     -9.2883087181e+02 stress_12
                     -1.0724940158e+03 stress_13
                     -1.0856614367e+03 stress_14
                     -7.6344595939e+02 stress_15
                     -9.2507373856e+02 stress_16
                     -1.1100300669e+03 stress_17
                     -9.2211888721e+02 stress_18
                     -5.7045990227e+02 stress_19
                     -1.1708668723e+02 stress_20
                      2.9137749404e+02 stress_21
                      5.3870446313e+02 stress_22
                      6.9528501395e+02 stress_23
                      7.6032527954e+02 stress_24
                      4.3744059836e+02 stress_25
                      5.6072021835e+02 stress_26
                      6.9985411918e+02 stress_27
                      7.3734582924e+02 stress_28
                      6.1900852935e+02 stress_29
                      4.0816817196e+02 stress_30
                      1.1373959299e+02 stress_31
                     -2.4813311650e+02 stress_32
                     -6.1712482547e+02 stress_33
                     -9.0698913346e+02 stress_34
                     -1.1581627638e+03 stress_35
                     -1.4000230853e+03 stress_36
                     -1.6299650417e+03 stress_37
                     -1.8396774042e+03 stress_38
                     -2.0207076216e+03 stress_39
                     -2.1655038437e+03 stress_40
                     -2.2681179660e+03 stress_41
                     -2.3242579710e+03 stress_42
                     -2.3093745749e+03 stress_43
                     -1.9263376082e+03 stress_44
                     -1.5976450475e+03 stress_45
                     -1.7960794475e+03 stress_46
                     -2.1584760277e+03 stress_47
                     -1.8686951340e+03 stress_48
                     -1.9677483340e+03 stress_49
                     -2.1223543250e+03 stress_50
                     -2.3510450033e+03 stress_51
                     -2.1870703293e+03 stress_52
                     -1.8366356791e+03 stress_53
                     -1.4047608385e+03 stress_54
                     -1.0262646440e+03 stress_55
                     -7.7618678973e+02 stress_56
                     -6.7344432484e+02 stress_57
                     -7.5657190484e+02 stress_58
                     -1.0680397029e+03 stress_59
                     -1.5176910354e+03 stress_60
                     -1.9691752959e+03 stress_61
                     -2.2431262919e+03 stress_62
                     -2.3134859026e+03 stress_63
                     -2.0525424285e+03 stress_64
                     -1.6100698386e+03 stress_65
                     -1.4621720890e+03 stress_66
                     -1.7252946888e+03 stress_67
                     -2.1818891321e+03 stress_68
                     -2.4128220260e+03 stress_69
                     -2.4162263294e+03 stress_70
                     -2.3243716211e+03 stress_71
                     -2.1561115889e+03 stress_72
                     -1.9173442214e+03 stress_73
                     -1.6203802257e+03 stress_74
                     -1.2886549294e+03 stress_75
                     -9.5271527497e+02 stress_76
                     -6.3412603350e+02 stress_77
                     -3.3752662852e+02 stress_78
                     -5.9112946509e+01 stress_79
                      2.0412709814e+02 stress_80
                      4.5196490952e+02 stress_81
                      6.8172975864e+02 stress_82
                      8.8950046034e+02 stress_83
                      1.0710145201e+03 stress_84
                      1.2221259841e+03 stress_85
                      1.3392435856e+03 stress_86
                      1.4195097586e+03 stress_87
                      1.4608665795e+03 stress_88
                      1.3899089952e+03 stress_89
                      9.5028079492e+02 stress_90
                      6.8311379376e+02 stress_91
                      9.6261311375e+02 stress_92
                      1.3672856263e+03 stress_93
                      1.3804713599e+03 stress_94
                      1.3225311115e+03 stress_95
                      1.2180644439e+03 stress_96
                      1.0689687508e+03 stress_97
                      8.7919727288e+02 stress_98
                      6.5592417923e+02 stress_99
                      4.0949924187e+02 stress_100
                      1.5119659574e+02 stress_101
                     -1.0991474586e+02 stress_102
                     -3.6897622411e+02 stress_103
                     -6.2487374715e+02 stress_104
                     -8.7834476284e+02 stress_105
                     -1.1305007556e+03 stress_106
                     -1.3819668841e+03 stress_107
                     -1.6326643467e+03 stress_108
                     -1.8818754126e+03 stress_109
                     -2.1284024798e+03 stress_110
                     -2.3707025143e+03 stress_111
                     -2.6069925279e+03 stress_112
                     -2.8353948250e+03 stress_113
                     -3.0539822233e+03 stress_114
                     -3.2608240492e+03 stress_115
                     -3.4540512709e+03 stress_116
                     -3.6318644224e+03 stress_117
                     -3.7926250165e+03 stress_118
                     -3.9348200074e+03 stress_119
                     -4.0570695708e+03 stress_120
                     -4.1582377111e+03 stress_121
                     -4.2373438323e+03 stress_122
                     -4.2936180370e+03 stress_123
                     -4.3265403879e+03 stress_124
                     -4.3353848713e+03 stress_125
                     -4.2373369865e+03 stress_126
                     -4.0002788168e+03 stress_127
                     -3.6761108266e+03 stress_128
                     -3.3236979024e+03 stress_129
                     -2.9890430794e+03 stress_130
                     -2.7044109456e+03 stress_131
                     -2.4929773351e+03 stress_132
                     -2.3712998126e+03 stress_133
                     -2.3639365980e+03 stress_134
                     -2.7620599889e+03 stress_135
                     -2.7851183999e+03 stress_136
                     -2.6041290097e+03 stress_137
                     -2.6389072097e+03 stress_138
                     -2.8060791965e+03 stress_139
                     -3.1249898755e+03 stress_140
                     -3.5422255318e+03 stress_141
                     -3.9410477648e+03 stress_142
                     -4.2054674349e+03 stress_143
                     -4.3745322745e+03 stress_144
                     -4.4595626151e+03 stress_145
                     -4.4399440009e+03 stress_146
                     -4.2132265414e+03 stress_147
                     -3.8540436208e+03 stress_148
                     -3.4732829999e+03 stress_149
                     -3.1609193580e+03 stress_150
                     -2.9734838799e+03 stress_151
                     -2.9451958524e+03 stress_152
                     -3.1540170517e+03 stress_153
                     -3.5437790229e+03 stress_154
                     -3.9854565599e+03 stress_155
                     -4.2639554277e+03 stress_156
                     -4.3685585071e+03 stress_157
                     -4.2510243884e+03 stress_158
                     -3.8489513835e+03 stress_159
                     -3.6163512523e+03 stress_160
                     -3.7769440523e+03 stress_161
                     -4.1975697587e+03 stress_162
                     -4.4402062127e+03 stress_163
                     -4.4681265448e+03 stress_164
                     -4.4280029403e+03 stress_165
                     -4.3494214581e+03 stress_166
                     -4.2345969385e+03 stress_167
                     -4.0870213697e+03 stress_168
                     -3.9113970840e+03 stress_169
                     -3.7128381938e+03 stress_170
                     -3.4963572160e+03 stress_171
                     -3.2663208569e+03 stress_172
                     -3.0261942083e+03 stress_173
                     -2.7786147863e+03 stress_174
                     -2.5254185963e+03 stress_175
                     -2.2679329664e+03 stress_176
                     -2.0071741193e+03 stress_177
                     -1.7439778132e+03 stress_178
                     -1.4791662113e+03 stress_179
                     -1.2135851406e+03 stress_180
                     -9.4813764057e+02 stress_181
                     -6.8383471124e+02 stress_182
                     -4.2175452525e+02 stress_183
                     -1.6306457332e+02 stress_184
                      9.1020318023e+01 stress_185
                      3.3923412326e+02 stress_186
                      5.8028634468e+02 stress_187
                      8.1288648793e+02 stress_188
                      1.0357389653e+03 stress_189
                      1.2475845342e+03 stress_190
                      1.4472040903e+03 stress_191
                      1.6334037704e+03 stress_192
                      1.8051025156e+03 stress_193
                      1.9612614912e+03 stress_194
                      2.1009119767e+03 stress_195
                      2.2232269491e+03 stress_196
                      2.3274282458e+03 stress_197
                      2.4128922377e+03 stress_198
                      2.4790901476e+03 stress_199
                      2.5255895242e+03 stress_200
                      2.5521173922e+03 stress_201
                      2.5534167109e+03 stress_202
                      2.2196169199e+03 stress_203
                      1.8685132659e+03 stress_204
                      1.9733314659e+03 stress_205
                      2.4102886883e+03 stress_206
                      2.4336025814e+03 stress_207
                      2.3718629498e+03 stress_208
                      2.2629913445e+03 stress_209
                      2.1133791392e+03 stress_210
                      1.9304821658e+03 stress_211
                      1.7215211131e+03 stress_212
                      1.4925654974e+03 stress_213
                      1.2484670832e+03 stress_214
                      9.9290879802e+02 stress_215
                      7.2874027123e+02 stress_216
                      4.5833725600e+02 stress_217
                      1.8379728480e+02 stress_218
                     -9.2863868003e+01 stress_219
                     -3.6959998887e+02 stress_220
                     -6.4431763279e+02 stress_221
                     -9.1484298105e+02 stress_222
                     -1.1789484098e+03 stress_223
                     -1.4343616004e+03 stress_224
                     -1.6788218462e+03 stress_225
                     -1.9100924982e+03 stress_226
                     -2.1260001210e+03 stress_227
                     -2.3245047373e+03 stress_228
                     -2.5036410907e+03 stress_229
                     -2.6616700152e+03 stress_230
                     -2.7970216731e+03 stress_231
                     -2.9082992369e+03 stress_232
                     -2.9944185974e+03 stress_233
                     -3.0544960700e+03 stress_234
                     -3.0878930659e+03 stress_235
                     -3.0816461176e+03 stress_236
                     -2.7341673183e+03 stress_237
                     -2.4220641300e+03 stress_238
                     -2.6373930684e+03 stress_239
                     -2.9528228221e+03 stress_240
                     -2.6347583614e+03 stress_241
                     -2.4471356119e+03 stress_242
                     -2.7819059486e+03 stress_243
                     -2.9410362699e+03 stress_244
                     -3.1397232545e+03 stress_245
                     -2.9627719345e+03 stress_246
                     -2.6240605692e+03 stress_247
                     -2.2316334205e+03 stress_248
                     -1.8837161235e+03 stress_249
                     -1.6444596264e+03 stress_250
                     -1.5502391200e+03 stress_251
                     -1.6517471262e+03 stress_252
                     -1.9727581171e+03 stress_253
                     -2.4051473661e+03 stress_254
                     -2.7882809167e+03 stress_255
                     -3.0219053848e+03 stress_256
                     -3.0824541068e+03 stress_257
                     -2.8167005457e+03 stress_258
                     -2.4036052025e+03 stress_259
                     -2.2214038176e+03 stress_260
                     -2.4294865521e+03 stress_261
                     -2.8537634399e+03 stress_262
                     -3.1675225464e+03 stress_263
                     -3.2324878752e+03 stress_264
                     -3.1920705129e+03 stress_265
                     -3.1018743927e+03 stress_266
                     -2.9649151800e+03 stress_267
                     -2.7864930794e+03 stress_268
                     -2.5736767636e+03 stress_269
                     -2.3344037074e+03 stress_270
                     -2.0762346044e+03 stress_271
                     -1.8054057680e+03 stress_272
                     -1.5267328898e+03 stress_273
                     -1.2435816309e+03 stress_274
                     -9.5831598878e+02 stress_275
                     -6.7275330253e+02 stress_276
                     -3.8842579493e+02 stress_277
                     -1.0683762318e+02 stress_278
                      1.7043668003e+02 stress_279
                      4.4170738607e+02 stress_280
                      7.0516724863e+02 stress_281
                      9.5891914896e+02 stress_282
                      1.2010044862e+03 stress_283
                      1.4294696213e+03 stress_284
                      1.6423660407e+03 stress_285
                      1.8378412421e+03 stress_286
                      2.0141400623e+03 stress_287
                      2.1696212269e+03 stress_288
                      2.3028512040e+03 stress_289
                      2.4125672545e+03 stress_290
                      2.4977062264e+03 stress_291
                      2.5574686532e+03 stress_292
                      2.5912609769e+03 stress_293
                      2.5917599052e+03 stress_294
                      2.2461213907e+03 stress_295
                      1.9010210158e+03 stress_296
                      2.0267182158e+03 stress_297
                      2.4570020833e+03 stress_298
                      2.4765807517e+03 stress_299
                      2.4349716721e+03 stress_300
                      2.3613305057e+03 stress_301
                      2.2583655914e+03 stress_302
                      2.1295982233e+03 stress_303
                      1.9786868786e+03 stress_304
                      1.8092806456e+03 stress_305
                      1.6245274984e+03 stress_306
                      1.4270370512e+03 stress_307
                      1.2189313621e+03 stress_308
                      1.0018005633e+03 stress_309
                      7.7691354272e+02 stress_310
                      5.4527360470e+02 stress_311
                      3.0770776240e+02 stress_312
                      6.4996522224e+01 stress_313
                     -1.8213434440e+02 stress_314
                     -4.3294884690e+02 stress_315
                     -6.8667268900e+02 stress_316
                     -9.4250166737e+02 stress_317
                     -1.1995785320e+03 stress_318
                     -1.4570017867e+03 stress_319
                     -1.7138376378e+03 stress_320
                     -1.9691052535e+03 stress_321
                     -2.2218088309e+03 stress_322
                     -2.4709187942e+03 stress_323
                     -2.7154031582e+03 stress_324
                     -2.9542372348e+03 stress_325
                     -3.1863745243e+03 stress_326
                     -3.4108148249e+03 stress_327
                     -3.6265335176e+03 stress_328
                     -3.8325819677e+03 stress_329
                     -4.0280245716e+03 stress_330
                     -4.2119518331e+03 stress_331
                     -4.3835300086e+03 stress_332
                     -4.5419481114e+03 stress_333
                     -4.6864746735e+03 stress_334
                     -4.8164466002e+03 stress_335
                     -4.9312129313e+03 stress_336
                     -5.0302674557e+03 stress_337
                     -5.1131249519e+03 stress_338
                     -5.1793883753e+03 stress_339
                     -5.2287560005e+03 stress_340
                     -5.2609862564e+03 stress_341
                     -5.2759196674e+03 stress_342


Active response data for evaluation 7:
Active set vector = { 1 1 1 1 1 1 1 1 1 1 1 1 1 1 1 1 1 1 1 1 1 1 1 1 1 1 1 1 1 1 1 1 1 1 1 1 1 1 1 1 1 1 1 1 1 1 1 1 1 1 1 1 1 1 1 1 1 1 1 1 1 1 1 1 1 1 1 1 1 1 1 1 1 1 1 1 1 1 1 1 1 1 1 1 1 1 1 1 1 1 1 1 1 1 1 1 1 1 1 1 1 1 1 1 1 1 1 1 1 1 1 1 1 1 1 1 1 1 1 1 1 1 1 1 1 1 1 1 1 1 1 1 1 1 1 1 1 1 1 1 1 1 1 1 1 1 1 1 1 1 1 1 1 1 1 1 1 1 1 1 1 1 1 1 1 1 1 1 1 1 1 1 1 1 1 1 1 1 1 1 1 1 1 1 1 1 1 1 1 1 1 1 1 1 1 1 1 1 1 1 1 1 1 1 1 1 1 1 1 1 1 1 1 1 1 1 1 1 1 1 1 1 1 1 1 1 1 1 1 1 1 1 1 1 1 1 1 1 1 1 1 1 1 1 1 1 1 1 1 1 1 1 1 1 1 1 1 1 1 1 1 1 1 1 1 1 1 1 1 1 1 1 1 1 1 1 1 1 1 1 1 1 1 1 1 1 1 1 1 1 1 1 1 1 1 1 1 1 1 1 1 1 1 1 1 1 1 1 1 1 1 1 1 1 1 1 1 1 1 1 1 1 1 1 1 1 1 1 1 1 1 1 1 1 1 1 1 1 1 1 1 1 }
                      2.3306474000e+00 stress_1
                     -2.4222053783e+02 stress_2
                     -6.5423917904e+02 stress_3
                     -6.9493647888e+02 stress_4
                     -3.7748497888e+02 stress_5
                      9.8589171650e+01 stress_6
                      4.2982538470e+02 stress_7
                      4.3283159038e+02 stress_8
                      1.9227986638e+02 stress_9
                     -2.1855772386e+02 stress_10
                     -6.8480020197e+02 stress_11
                     -9.2890624496e+02 stress_12
                     -1.0725695007e+03 stress_13
                     -1.0857369229e+03 stress_14
                     -7.6352144593e+02 stress_15
                     -9.2514922510e+02 stress_16
                     -1.1101081750e+03 stress_17
                     -9.2219699526e+02 stress_18
                     -5.7053803423e+02 stress_19
                     -1.1716687875e+02 stress_20
                      2.9132407081e+02 stress_21
                      5.3869133408e+02 stress_22
                      6.9528045832e+02 stress_23
                      7.6032229137e+02 stress_24
                      4.3743761184e+02 stress_25
                      5.6071723183e+02 stress_26
                      6.9985113016e+02 stress_27
                      7.3734287241e+02 stress_28
                      6.1900557252e+02 stress_29
                      4.0816521725e+02 stress_30
                      1.1373683804e+02 stress_31
                     -2.4813388752e+02 stress_32
                     -6.1714905764e+02 stress_33
                     -9.0707724092e+02 stress_34
                     -1.1582766610e+03 stress_35
                     -1.4001436814e+03 stress_36
                     -1.6300875393e+03 stress_37
                     -1.8398005353e+03 stress_38
                     -2.0208309969e+03 stress_39
                     -2.1656273245e+03 stress_40
                     -2.2682414950e+03 stress_41
                     -2.3243815201e+03 stress_42
                     -2.3094981240e+03 stress_43
                     -1.9264653292e+03 stress_44
                     -1.5977935857e+03 stress_45
                     -1.7962279857e+03 stress_46
                     -2.1586245460e+03 stress_47
                     -1.8688453485e+03 stress_48
                     -1.9678985485e+03 stress_49
                     -2.1225045394e+03 stress_50
                     -2.3511955015e+03 stress_51
                     -2.1872210159e+03 stress_52
                     -1.8367943626e+03 stress_53
                     -1.4049534523e+03 stress_54
                     -1.0264836915e+03 stress_55
                     -7.7640214458e+02 stress_56
                     -6.7365240586e+02 stress_57
                     -7.5677998586e+02 stress_58
                     -1.0682477839e+03 stress_59
                     -1.5178990293e+03 stress_60
                     -1.9693766703e+03 stress_61
                     -2.2433217901e+03 stress_62
                     -2.3136859006e+03 stress_63
                     -2.0527428419e+03 stress_64
                     -1.6102817687e+03 stress_65
                     -1.4623926036e+03 stress_66
                     -1.7255152034e+03 stress_67
                     -2.1821080045e+03 stress_68
                     -2.4130363537e+03 stress_69
                     -2.4164407552e+03 stress_70
                     -2.3245860593e+03 stress_71
                     -2.1563265313e+03 stress_72
                     -1.9175632620e+03 stress_73
                     -1.6206132221e+03 stress_74
                     -1.2889098573e+03 stress_75
                     -9.5297860529e+02 stress_76
                     -6.3436756118e+02 stress_77
                     -3.3772674475e+02 stress_78
                     -5.9270213967e+01 stress_79
                      2.0400510191e+02 stress_80
                      4.5186926341e+02 stress_81
                      6.8165304097e+02 stress_82
                      8.8943714003e+02 stress_83
                      1.0709606086e+03 stress_84
                      1.2220785919e+03 stress_85
                      1.3392005640e+03 stress_86
                      1.4194694347e+03 stress_87
                      1.4608275599e+03 stress_88
                      1.3898700374e+03 stress_89
                      9.5025672848e+02 stress_90
                      6.8311415123e+02 stress_91
                      9.6261347122e+02 stress_92
                      1.3672858095e+03 stress_93
                      1.3804714845e+03 stress_94
                      1.3225312681e+03 stress_95
                      1.2180652123e+03 stress_96
                      1.0689728052e+03 stress_97
                      8.7921083689e+02 stress_98
                      6.5595558102e+02 stress_99
                      4.0955308281e+02 stress_100
                      1.5126766365e+02 stress_101
                     -1.0984101835e+02 stress_102
                     -3.6891674640e+02 stress_103
                     -6.2484102878e+02 stress_104
                     -8.7834470516e+02 stress_105
                     -1.1305339281e+03 stress_106
                     -1.3820307529e+03 stress_107
                     -1.6327550673e+03 stress_108
                     -1.8819889071e+03 stress_109
                     -2.1285349635e+03 stress_110
                     -2.3708506929e+03 stress_111
                     -2.6071536261e+03 stress_112
                     -2.8355665452e+03 stress_113
                     -3.0541626761e+03 stress_114
                     -3.2610116817e+03 stress_115
                     -3.4542448026e+03 stress_116
                     -3.6320627900e+03 stress_117
                     -3.7928273296e+03 stress_118
                     -3.9350255114e+03 stress_119
                     -4.0572776161e+03 stress_120
                     -4.1584477304e+03 stress_121
                     -4.2375553194e+03 stress_122
                     -4.2938305299e+03 stress_123
                     -4.3267534551e+03 stress_124
                     -4.3355980910e+03 stress_125
                     -4.2375531909e+03 stress_126
                     -4.0005223313e+03 stress_127
                     -3.6764154736e+03 stress_128
                     -3.3240719199e+03 stress_129
                     -2.9894696832e+03 stress_130
                     -2.7048680931e+03 stress_131
                     -2.4934489494e+03 stress_132
                     -2.3717769121e+03 stress_133
                     -2.3644139683e+03 stress_134
                     -2.7625373496e+03 stress_135
                     -2.7855957555e+03 stress_136
                     -2.6046125929e+03 stress_137
                     -2.6393907929e+03 stress_138
                     -2.8065627795e+03 stress_139
                     -3.1254732416e+03 stress_140
                     -3.5426951853e+03 stress_141
                     -3.9414398723e+03 stress_142
                     -4.2058364396e+03 stress_143
                     -4.3749067872e+03 stress_144
                     -4.4599397897e+03 stress_145
                     -4.4403212493e+03 stress_146
                     -4.2136164551e+03 stress_147
                     -3.8544829138e+03 stress_148
                     -3.4737848292e+03 stress_149
                     -3.1614648387e+03 stress_150
                     -2.9740494837e+03 stress_151
                     -2.9457640551e+03 stress_152
                     -3.1545852544e+03 stress_153
                     -3.5443468750e+03 stress_154
                     -3.9859748672e+03 stress_155
                     -4.2643525553e+03 stress_156
                     -4.3689426780e+03 stress_157
                     -4.2514112660e+03 stress_158
                     -3.8493811346e+03 stress_159
                     -3.6168175423e+03 stress_160
                     -3.7774103423e+03 stress_161
                     -4.1980270131e+03 stress_162
                     -4.4405908503e+03 stress_163
                     -4.4685108400e+03 stress_164
                     -4.4283875674e+03 stress_165
                     -4.3498088109e+03 stress_166
                     -4.2349927054e+03 stress_167
                     -4.0874339470e+03 stress_168
                     -3.9118353744e+03 stress_169
                     -3.7133089446e+03 stress_170
                     -3.4968631196e+03 stress_171
                     -3.2668600935e+03 stress_172
                     -3.0267612723e+03 stress_173
                     -2.7792019623e+03 stress_174
                     -2.5260174725e+03 stress_175
                     -2.2685355810e+03 stress_176
                     -2.0077736445e+03 stress_177
                     -1.7445688377e+03 stress_178
                     -1.4797447480e+03 stress_179
                     -1.2141484785e+03 stress_180
                     -9.4868413075e+02 stress_181
                     -6.8436354526e+02 stress_182
                     -4.2226553054e+02 stress_183
                     -1.6355804246e+02 stress_184
                      9.0543765810e+01 stress_185
                      3.3877364809e+02 stress_186
                      5.7984096605e+02 stress_187
                      8.1245514379e+02 stress_188
                      1.0353205531e+03 stress_189
                      1.2471779404e+03 stress_190
                      1.4468082102e+03 stress_191
                      1.6330175187e+03 stress_192
                      1.8047248366e+03 stress_193
                      1.9608913598e+03 stress_194
                      2.1005483989e+03 stress_195
                      2.2228689628e+03 stress_196
                      2.3270749161e+03 stress_197
                      2.4125426553e+03 stress_198
                      2.4787434238e+03 stress_199
                      2.5252447859e+03 stress_200
                      2.5517737783e+03 stress_201
                      2.5530731520e+03 stress_202
                      2.2193247036e+03 stress_203
                      1.8683117372e+03 stress_204
                      1.9731299372e+03 stress_205
                      2.4100871516e+03 stress_206
                      2.4334010418e+03 stress_207
                      2.3716640599e+03 stress_208
                      2.2628053274e+03 stress_209
                      2.1132205600e+03 stress_210
                      1.9303643180e+03 stress_211
                      1.7214518577e+03 stress_212
                      1.4925461165e+03 stress_213
                      1.2484934239e+03 stress_214
                      9.9297339023e+02 stress_215
                      7.2883433798e+02 stress_216
                      4.5845215410e+02 stress_217
                      1.8392533925e+02 stress_218
                     -9.2729008746e+01 stress_219
                     -3.6946330100e+02 stress_220
                     -6.4418282848e+02 stress_221
                     -9.1471269034e+02 stress_222
                     -1.1788243773e+03 stress_223
                     -1.4342448685e+03 stress_224
                     -1.6787129134e+03 stress_225
                     -1.9099914487e+03 stress_226
                     -2.1259067282e+03 stress_227
                     -2.3244185453e+03 stress_228
                     -2.5035614741e+03 stress_229
                     -2.6615962280e+03 stress_230
                     -2.7969528827e+03 stress_231
                     -2.9082345485e+03 stress_232
                     -2.9943570760e+03 stress_233
                     -3.0544367527e+03 stress_234
                     -3.0878349716e+03 stress_235
                     -3.0815880306e+03 stress_236
                     -2.7341430193e+03 stress_237
                     -2.4221089529e+03 stress_238
                     -2.6374378587e+03 stress_239
                     -2.9528718516e+03 stress_240
                     -2.6348333614e+03 stress_241
                     -2.4472449252e+03 stress_242
                     -2.7820150346e+03 stress_243
                     -2.9411470110e+03 stress_244
                     -3.1398509400e+03 stress_245
                     -2.9629068511e+03 stress_246
                     -2.6242435558e+03 stress_247
                     -2.2318978432e+03 stress_248
                     -1.8840503948e+03 stress_249
                     -1.6448334243e+03 stress_250
                     -1.5506260757e+03 stress_251
                     -1.6521340621e+03 stress_252
                     -1.9731413059e+03 stress_253
                     -2.4054985413e+03 stress_254
                     -2.7885878623e+03 stress_255
                     -3.0222002317e+03 stress_256
                     -3.0827491082e+03 stress_257
                     -2.8170080718e+03 stress_258
                     -2.4039700711e+03 stress_259
                     -2.2217998492e+03 stress_260
                     -2.4298820309e+03 stress_261
                     -2.8541336761e+03 stress_262
                     -3.1678678540e+03 stress_263
                     -3.2328337485e+03 stress_264
                     -3.1924166252e+03 stress_265
                     -3.1022231511e+03 stress_266
                     -2.9652733577e+03 stress_267
                     -2.7868713792e+03 stress_268
                     -2.5740865217e+03 stress_269
                     -2.3348526515e+03 stress_270
                     -2.0767241664e+03 stress_271
                     -1.8059310901e+03 stress_272
                     -1.5272848250e+03 stress_273
                     -1.2441493743e+03 stress_274
                     -9.5888920454e+02 stress_275
                     -6.7332336101e+02 stress_276
                     -3.8898621935e+02 stress_277
                     -1.0738402342e+02 stress_278
                      1.6990692322e+02 stress_279
                      4.4119551011e+02 stress_280
                      7.0467347602e+02 stress_281
                      9.5844299318e+02 stress_282
                      1.2005449879e+03 stress_283
                      1.4290255239e+03 stress_284
                      1.6419359114e+03 stress_285
                      1.8374235576e+03 stress_286
                      2.0137332633e+03 stress_287
                      2.1692237502e+03 stress_288
                      2.3024615040e+03 stress_289
                      2.4121838114e+03 stress_290
                      2.4973275468e+03 stress_291
                      2.5570932693e+03 stress_292
                      2.5908874393e+03 stress_293
                      2.5913863947e+03 stress_294
                      2.2458010206e+03 stress_295
                      1.9007909633e+03 stress_296
                      2.0264881633e+03 stress_297
                      2.4567720348e+03 stress_298
                      2.4763507139e+03 stress_299
                      2.4347428710e+03 stress_300
                      2.3611081330e+03 stress_301
                      2.2581582784e+03 stress_302
                      2.1294159824e+03 stress_303
                      1.9785387310e+03 stress_304
                      1.8091728193e+03 stress_305
                      1.6244626865e+03 stress_306
                      1.4270145655e+03 stress_307
                      1.2189478426e+03 stress_308
                      1.0018509157e+03 stress_309
                      7.7699180310e+02 stress_310
                      5.4537363189e+02 stress_311
                      3.0782371430e+02 stress_312
                      6.5123135929e+01 stress_313
                     -1.8200161595e+02 stress_314
                     -4.3281380314e+02 stress_315
                     -6.8653841325e+02 stress_316
                     -9.4237059316e+02 stress_317
                     -1.1994525247e+03 stress_318
                     -1.4568822280e+03 stress_319
                     -1.7137255060e+03 stress_320
                     -1.9690011958e+03 stress_321
                     -2.2217132263e+03 stress_322
                     -2.4708318066e+03 stress_323
                     -2.7153247813e+03 stress_324
                     -2.9541673295e+03 stress_325
                     -3.1863128472e+03 stress_326
                     -3.4107610538e+03 stress_327
                     -3.6264872690e+03 stress_328
                     -3.8325428142e+03 stress_329
                     -4.0279920527e+03 stress_330
                     -4.2119254644e+03 stress_331
                     -4.3835092898e+03 stress_332
                     -4.5419325309e+03 stress_333
                     -4.6864637132e+03 stress_334
                     -4.8164397387e+03 stress_335
                     -4.9312096444e+03 stress_336
                     -5.0302672200e+03 stress_337
                     -5.1131272442e+03 stress_338
                     -5.1793926734e+03 stress_339
                     -5.2287617837e+03 stress_340
                     -5.2609930048e+03 stress_341
                     -5.2759268620e+03 stress_342


Active response data for evaluation 8:
Active set vector = { 1 1 1 1 1 1 1 1 1 1 1 1 1 1 1 1 1 1 1 1 1 1 1 1 1 1 1 1 1 1 1 1 1 1 1 1 1 1 1 1 1 1 1 1 1 1 1 1 1 1 1 1 1 1 1 1 1 1 1 1 1 1 1 1 1 1 1 1 1 1 1 1 1 1 1 1 1 1 1 1 1 1 1 1 1 1 1 1 1 1 1 1 1 1 1 1 1 1 1 1 1 1 1 1 1 1 1 1 1 1 1 1 1 1 1 1 1 1 1 1 1 1 1 1 1 1 1 1 1 1 1 1 1 1 1 1 1 1 1 1 1 1 1 1 1 1 1 1 1 1 1 1 1 1 1 1 1 1 1 1 1 1 1 1 1 1 1 1 1 1 1 1 1 1 1 1 1 1 1 1 1 1 1 1 1 1 1 1 1 1 1 1 1 1 1 1 1 1 1 1 1 1 1 1 1 1 1 1 1 1 1 1 1 1 1 1 1 1 1 1 1 1 1 1 1 1 1 1 1 1 1 1 1 1 1 1 1 1 1 1 1 1 1 1 1 1 1 1 1 1 1 1 1 1 1 1 1 1 1 1 1 1 1 1 1 1 1 1 1 1 1 1 1 1 1 1 1 1 1 1 1 1 1 1 1 1 1 1 1 1 1 1 1 1 1 1 1 1 1 1 1 1 1 1 1 1 1 1 1 1 1 1 1 1 1 1 1 1 1 1 1 1 1 1 1 1 1 1 1 1 1 1 1 1 1 1 1 1 1 1 1 1 }
                      2.3306474000e+00 stress_1
                     -2.4222053783e+02 stress_2
                     -6.5418963101e+02 stress_3
                     -6.9487708623e+02 stress_4
                     -3.7742558623e+02 stress_5
                      9.8648564020e+01 stress_6
                      4.2988542557e+02 stress_7
                      4.3289167453e+02 stress_8
                      1.9233995053e+02 stress_9
                     -2.1849763976e+02 stress_10
                     -6.8473507902e+02 stress_11
                     -9.2883082993e+02 stress_12
                     -1.0724940135e+03 stress_13
                     -1.0856614349e+03 stress_14
                     -7.6344595784e+02 stress_15
                     -9.2507373701e+02 stress_16
                     -1.1100296453e+03 stress_17
                     -9.2211846554e+02 stress_18
                     -5.7045949715e+02 stress_19
                     -1.1708655783e+02 stress_20
                      2.9142453879e+02 stress_21
                      5.3880098714e+02 stress_22
                      6.9539103740e+02 stress_23
                      7.6043298400e+02 stress_24
                      4.3754830461e+02 stress_25
                      5.6082792460e+02 stress_26
                      6.9996185420e+02 stress_27
                      7.3745405377e+02 stress_28
                      6.1911675388e+02 stress_29
                      4.0827639878e+02 stress_30
                      1.1384804421e+02 stress_31
                     -2.4802190971e+02 stress_32
                     -6.1703160941e+02 stress_33
                     -9.0695474463e+02 stress_34
                     -1.1581531670e+03 stress_35
                     -1.4000200447e+03 stress_36
                     -1.6299638798e+03 stress_37
                     -1.8396768716e+03 stress_38
                     -2.0207073326e+03 stress_39
                     -2.1655036601e+03 stress_40
                     -2.2681178306e+03 stress_41
                     -2.3242578558e+03 stress_42
                     -2.3093744597e+03 stress_43
                     -1.9263409937e+03 stress_44
                     -1.5976644872e+03 stress_45
                     -1.7960988872e+03 stress_46
                     -2.1584954360e+03 stress_47
                     -1.8687159721e+03 stress_48
                     -1.9677691721e+03 stress_49
                     -2.1223751630e+03 stress_50
                     -2.3510652854e+03 stress_51
                     -2.1870907768e+03 stress_52
                     -1.8366627342e+03 stress_53
                     -1.4048121134e+03 stress_54
                     -1.0263238883e+03 stress_55
                     -7.7622781522e+02 stress_56
                     -6.7347240206e+02 stress_57
                     -7.5659998206e+02 stress_58
                     -1.0680677802e+03 stress_59
                     -1.5177189919e+03 stress_60
                     -1.9691920670e+03 stress_61
                     -2.2431168143e+03 stress_62
                     -2.3134755552e+03 stress_63
                     -2.0525324921e+03 stress_64
                     -1.6100712349e+03 stress_65
                     -1.4621818808e+03 stress_66
                     -1.7253044806e+03 stress_67
                     -2.1818969461e+03 stress_68
                     -2.4128205029e+03 stress_69
                     -2.4162248755e+03 stress_70
                     -2.3243701795e+03 stress_71
                     -2.1561106512e+03 stress_72
                     -1.9173473794e+03 stress_73
                     -1.6203973268e+03 stress_74
                     -1.2886939278e+03 stress_75
                     -9.5276261921e+02 stress_76
                     -6.3415151498e+02 stress_77
                     -3.3751065205e+02 stress_78
                     -5.9054091272e+01 stress_79
                      2.0422124253e+02 stress_80
                      4.5208541456e+02 stress_81
                      6.8186919839e+02 stress_82
                      8.8965330127e+02 stress_83
                      1.0711767722e+03 stress_84
                      1.2222947570e+03 stress_85
                      1.3394167301e+03 stress_86
                      1.4196856013e+03 stress_87
                      1.4610437268e+03 stress_88
                      1.3900862069e+03 stress_89
                      9.5047389944e+02 stress_90
                      6.8333362064e+02 stress_91
                      9.6283294063e+02 stress_92
                      1.3675055731e+03 stress_93
                      1.3806913961e+03 stress_94
                      1.3227511810e+03 stress_95
                      1.2182851548e+03 stress_96
                      1.0691929394e+03 stress_97
                      8.7943166235e+02 stress_98
                      6.5617811690e+02 stress_99
                      4.0977877193e+02 stress_100
                      1.5149787655e+02 stress_101
                     -1.0960556032e+02 stress_102
                     -3.6867615584e+02 stress_103
                     -6.2459600020e+02 stress_104
                     -8.7809614233e+02 stress_105
                     -1.1302826860e+03 stress_106
                     -1.3817775314e+03 stress_107
                     -1.6325003984e+03 stress_108
                     -1.8817331804e+03 stress_109
                     -2.1282784597e+03 stress_110
                     -2.3705936131e+03 stress_111
                     -2.6068961155e+03 stress_112
                     -2.8353087089e+03 stress_113
                     -3.0539045910e+03 stress_114
                     -3.2607534052e+03 stress_115
                     -3.4539863775e+03 stress_116
                     -3.6318042492e+03 stress_117
                     -3.7925686985e+03 stress_118
                     -3.9347668098e+03 stress_119
                     -4.0570188603e+03 stress_120
                     -4.1581889335e+03 stress_121
                     -4.2372964926e+03 stress_122
                     -4.2935716829e+03 stress_123
                     -4.3264945967e+03 stress_124
                     -4.3353392296e+03 stress_125
                     -4.2372941152e+03 stress_126
                     -4.0002607620e+03 stress_127
                     -3.6761466407e+03 stress_128
                     -3.3237920348e+03 stress_129
                     -2.9891781473e+03 stress_130
                     -2.7045667804e+03 stress_131
                     -2.4931407755e+03 stress_132
                     -2.3714649981e+03 stress_133
                     -2.3641018333e+03 stress_134
                     -2.7622252127e+03 stress_135
                     -2.7852836177e+03 stress_136
                     -2.6042996766e+03 stress_137
                     -2.6390778766e+03 stress_138
                     -2.8062498632e+03 stress_139
                     -3.1251602797e+03 stress_140
                     -3.5423784470e+03 stress_141
                     -3.9410898528e+03 stress_142
                     -4.2054596593e+03 stress_143
                     -4.3745246109e+03 stress_144
                     -4.4595566198e+03 stress_145
                     -4.4399380793e+03 stress_146
                     -4.2132332755e+03 stress_147
                     -3.8540996836e+03 stress_148
                     -3.4734015109e+03 stress_149
                     -3.1610814341e+03 stress_150
                     -2.9736660254e+03 stress_151
                     -2.9453805887e+03 stress_152
                     -3.1542017880e+03 stress_153
                     -3.5439634077e+03 stress_154
                     -3.9855912447e+03 stress_155
                     -4.2639684267e+03 stress_156
                     -4.3685584581e+03 stress_157
                     -4.2510270460e+03 stress_158
                     -3.8489969131e+03 stress_159
                     -3.6164333191e+03 stress_160
                     -3.7770261191e+03 stress_161
                     -4.1976427869e+03 stress_162
                     -4.4402065905e+03 stress_163
                     -4.4681265799e+03 stress_164
                     -4.4280033073e+03 stress_165
                     -4.3494245508e+03 stress_166
                     -4.2346084453e+03 stress_167
                     -4.0870496868e+03 stress_168
                     -3.9114511143e+03 stress_169
                     -3.7129246844e+03 stress_170
                     -3.4964788595e+03 stress_171
                     -3.2664758333e+03 stress_172
                     -3.0263770121e+03 stress_173
                     -2.7788177021e+03 stress_174
                     -2.5256332122e+03 stress_175
                     -2.2681513207e+03 stress_176
                     -2.0073893842e+03 stress_177
                     -1.7441845774e+03 stress_178
                     -1.4793604877e+03 stress_179
                     -1.2137642181e+03 stress_180
                     -9.4829987041e+02 stress_181
                     -6.8397928491e+02 stress_182
                     -4.2188127017e+02 stress_183
                     -1.6317378209e+02 stress_184
                      9.0928026189e+01 stress_185
                      3.3915790847e+02 stress_186
                      5.8022522644e+02 stress_187
                      8.1283940419e+02 stress_188
                      1.0357048135e+03 stress_189
                      1.2475622008e+03 stress_190
                      1.4471924706e+03 stress_191
                      1.6334017791e+03 stress_192
                      1.8051090970e+03 stress_193
                      1.9612756202e+03 stress_194
                      2.1009326594e+03 stress_195
                      2.2232532232e+03 stress_196
                      2.3274591765e+03 stress_197
                      2.4129269157e+03 stress_198
                      2.4791276842e+03 stress_199
                      2.5256290463e+03 stress_200
                      2.5521580387e+03 stress_201
                      2.5534574124e+03 stress_202
                      2.2197107292e+03 stress_203
                      1.8687018156e+03 stress_204
                      1.9735200156e+03 stress_205
                      2.4104772309e+03 stress_206
                      2.4337911227e+03 stress_207
                      2.3720542113e+03 stress_208
                      2.2631958820e+03 stress_209
                      2.1136121175e+03 stress_210
                      1.9307576130e+03 stress_211
                      1.7218475861e+03 stress_212
                      1.4929448095e+03 stress_213
                      1.2488953949e+03 stress_214
                      9.9337874573e+02 stress_215
                      7.2924302049e+02 stress_216
                      4.5886399355e+02 stress_217
                      1.8434009924e+02 stress_218
                     -9.2311595788e+01 stress_219
                     -3.6904350980e+02 stress_220
                     -6.4376092569e+02 stress_221
                     -9.1428892614e+02 stress_222
                     -1.1783989815e+03 stress_223
                     -1.4338180493e+03 stress_224
                     -1.6782848581e+03 stress_225
                     -1.9095623252e+03 stress_226
                     -2.1254766872e+03 stress_227
                     -2.3239877219e+03 stress_228
                     -2.5031299906e+03 stress_229
                     -2.6611641955e+03 stress_230
                     -2.7965204031e+03 stress_231
                     -2.9078017163e+03 stress_232
                     -2.9939239798e+03 stress_233
                     -3.0540034766e+03 stress_234
                     -3.0874015971e+03 stress_235
                     -3.0811546561e+03 stress_236
                     -2.7337093317e+03 stress_237
                     -2.4216744680e+03 stress_238
                     -2.6370033649e+03 stress_239
                     -2.9524368010e+03 stress_240
                     -2.6343980780e+03 stress_241
                     -2.4468092703e+03 stress_242
                     -2.7815792984e+03 stress_243
                     -2.9407108868e+03 stress_244
                     -3.1394133014e+03 stress_245
                     -2.9624691659e+03 stress_246
                     -2.6238054739e+03 stress_247
                     -2.2314588843e+03 stress_248
                     -1.8836104450e+03 stress_249
                     -1.6443927541e+03 stress_250
                     -1.5501851228e+03 stress_251
                     -1.6516931090e+03 stress_252
                     -1.9727003025e+03 stress_253
                     -2.4050568922e+03 stress_254
                     -2.7881445821e+03 stress_255
                     -3.0217556222e+03 stress_256
                     -3.0823041558e+03 stress_257
                     -2.8165630877e+03 stress_258
                     -2.4035248913e+03 stress_259
                     -2.2213545351e+03 stress_260
                     -2.4294367130e+03 stress_261
                     -2.8536880190e+03 stress_262
                     -3.1674212214e+03 stress_263
                     -3.2323868689e+03 stress_264
                     -3.1919697454e+03 stress_265
                     -3.1017762686e+03 stress_266
                     -2.9648264642e+03 stress_267
                     -2.7864244584e+03 stress_268
                     -2.5736395504e+03 stress_269
                     -2.3344056045e+03 stress_270
                     -2.0762770218e+03 stress_271
                     -1.8054838333e+03 stress_272
                     -1.5268374502e+03 stress_273
                     -1.2437018831e+03 stress_274
                     -9.5844160404e+02 stress_275
                     -6.7287566145e+02 stress_276
                     -3.8853843218e+02 stress_277
                     -1.0693616012e+02 stress_278
                      1.7035485192e+02 stress_279
                      4.4164349453e+02 stress_280
                      7.0512150768e+02 stress_281
                      9.5889106473e+02 stress_282
                      1.2009930931e+03 stress_283
                      1.4294736573e+03 stress_284
                      1.6423840684e+03 stress_285
                      1.8378717343e+03 stress_286
                      2.0141814562e+03 stress_287
                      2.1696719564e+03 stress_288
                      2.3029097209e+03 stress_289
                      2.4126320365e+03 stress_290
                      2.4977757781e+03 stress_291
                      2.5575415049e+03 stress_292
                      2.5913356772e+03 stress_293
                      2.5918346326e+03 stress_294
                      2.2462492647e+03 stress_295
                      1.9012392209e+03 stress_296
                      2.0269364209e+03 stress_297
                      2.4572202924e+03 stress_298
                      2.4767989715e+03 stress_299
                      2.4351911288e+03 stress_300
                      2.3615563913e+03 stress_301
                      2.2586065385e+03 stress_302
                      2.1298642456e+03 stress_303
                      1.9789869991e+03 stress_304
                      1.8096210939e+03 stress_305
                      1.6249109690e+03 stress_306
                      1.4274628570e+03 stress_307
                      1.2193961436e+03 stress_308
                      1.0022992267e+03 stress_309
                      7.7744012385e+02 stress_310
                      5.4582196217e+02 stress_311
                      3.0827205364e+02 stress_312
                      6.5571483783e+01 stress_313
                     -1.8155326019e+02 stress_314
                     -4.3236544009e+02 stress_315
                     -6.8609004354e+02 stress_316
                     -9.4192221738e+02 stress_317
                     -1.1990041435e+03 stress_318
                     -1.4564338417e+03 stress_319
                     -1.7132771152e+03 stress_320
                     -1.9685528009e+03 stress_321
                     -2.2212648277e+03 stress_322
                     -2.4703834047e+03 stress_323
                     -2.7148763765e+03 stress_324
                     -2.9537189219e+03 stress_325
                     -3.1858644373e+03 stress_326
                     -3.4103126417e+03 stress_327
                     -3.6260388550e+03 stress_328
                     -3.8320943984e+03 stress_329
                     -4.0275436354e+03 stress_330
                     -4.2114770457e+03 stress_331
                     -4.3830608698e+03 stress_332
                     -4.5414841098e+03 stress_333
                     -4.6860152911e+03 stress_334
                     -4.8159913159e+03 stress_335
                     -4.9307612209e+03 stress_336
                     -5.0298187959e+03 stress_337
                     -5.1126788196e+03 stress_338
                     -5.1789442484e+03 stress_339
                     -5.2283133584e+03 stress_340
                     -5.2605445794e+03 stress_341
                     -5.2754784365e+03 stress_342

>>>>> Total response returned to iterator:

Active set vector = { 2 2 2 2 2 2 2 2 2 2 2 2 2 2 2 2 2 2 2 2 2 2 2 2 2 2 2 2 2 2 2 2 2 2 2 2 2 2 2 2 2 2 2 2 2 2 2 2 2 2 2 2 2 2 2 2 2 2 2 2 2 2 2 2 2 2 2 2 2 2 2 2 2 2 2 2 2 2 2 2 2 2 2 2 2 2 2 2 2 2 2 2 2 2 2 2 2 2 2 2 2 2 2 2 2 2 2 2 2 2 2 2 2 2 2 2 2 2 2 2 2 2 2 2 2 2 2 2 2 2 2 2 2 2 2 2 2 2 2 2 2 2 2 2 2 2 2 2 2 2 2 2 2 2 2 2 2 2 2 2 2 2 2 2 2 2 2 2 2 2 2 2 2 2 2 2 2 2 2 2 2 2 2 2 2 2 2 2 2 2 2 2 2 2 2 2 2 2 2 2 2 2 2 2 2 2 2 2 2 2 2 2 2 2 2 2 2 2 2 2 2 2 2 2 2 2 2 2 2 2 2 2 2 2 2 2 2 2 2 2 2 2 2 2 2 2 2 2 2 2 2 2 2 2 2 2 2 2 2 2 2 2 2 2 2 2 2 2 2 2 2 2 2 2 2 2 2 2 2 2 2 2 2 2 2 2 2 2 2 2 2 2 2 2 2 2 2 2 2 2 2 2 2 2 2 2 2 2 2 2 2 2 2 2 2 2 2 2 2 2 2 2 2 2 2 2 2 2 2 2 2 2 2 2 2 2 2 2 2 2 2 2 } Deriv vars vector = { 1 2 3 4 5 6 7 }
 [  0.0000000000e+00  1.1653237000e-05  0.0000000000e+00  0.0000000000e+00 
    0.0000000000e+00  0.0000000000e+00  0.0000000000e+00 ] stress_1 gradient
 [ -5.9999990754e-08 -1.2111025000e-03  0.0000000000e+00  1.0000007933e-05 
    0.0000000000e+00  0.0000000000e+00  0.0000000000e+00 ] stress_2 gradient
 [ -5.1254020000e-01 -1.9859225000e-03 -7.2829860000e+01  2.2030700000e+00 
   -1.7599600001e+00 -1.9819212000e+02  0.0000000000e+00 ] stress_3 gradient
 [ -6.0002848000e-01 -1.9733651500e-03 -1.4273646000e+02  7.8011000005e-01 
   -6.2296999999e-01 -2.3757060000e+02  0.0000000000e+00 ] stress_4 gradient
 [ -6.0002848000e-01 -3.8610765000e-04 -1.4273646000e+02  7.8010999999e-01 
   -6.2296999999e-01 -2.3757060000e+02  0.0000000000e+00 ] stress_5 gradient
 [ -6.0001200800e-01  1.9942217000e-03 -1.4273286200e+02  7.7981499999e-01 
   -6.2268400001e-01 -2.3757478400e+02 -5.3040000694e-03 ] stress_6 gradient
 [ -5.3683786000e-01  3.4899222000e-03 -1.3784938000e+02  6.1533000002e-01 
   -4.6679999997e-01 -2.2799480000e+02  1.2168680000e+01 ] stress_7 gradient
 [ -5.3307682000e-01  3.4953982000e-03 -1.3757230000e+02  6.0814000000e-01 
   -4.6011999996e-01 -2.2735536000e+02  1.2981240000e+01 ] stress_8 gradient
 [ -5.3307682000e-01  2.2926396000e-03 -1.3757230000e+02  6.0814000000e-01 
   -4.6011999999e-01 -2.2735536000e+02  1.2981240000e+01 ] stress_9 gradient
 [ -5.3307696000e-01  2.3845200000e-04 -1.3757292000e+02  6.0830000001e-01 
   -4.6026999999e-01 -2.2735508000e+02  1.2981320000e+01 ] stress_10 gradient
 [ -5.4940586000e-01 -2.0513209000e-03 -1.6943990000e+02  1.2828700000e+00 
   -1.1449900001e+00 -2.5175700000e+02  8.7348000002e+00 ] stress_11 gradient
 [ -5.7771312000e-01 -3.1998577500e-03 -5.5601870000e+02  2.7729999942e-02 
   -2.5909999977e-02 -3.0159624000e+02  6.3879999743e-02 ] stress_12 gradient
 [ -5.7787840000e-01 -3.9177525000e-03 -8.4303760000e+02  1.5999999050e-03 
   -1.5000000531e-03 -3.0194560000e+02  3.1999998100e-03 ] stress_13 gradient
 [ -5.7788020000e-01 -3.9835850000e-03 -8.6936940000e+02  1.2999998944e-03 
   -1.2000000424e-03 -3.0194960000e+02  2.4000000849e-03 ] stress_14 gradient
 [ -5.7787730000e-01 -2.3725150000e-03 -8.6936922000e+02  1.2999998944e-04 
   -6.9999987318e-04 -3.0194896000e+02  3.4000004234e-03 ] stress_15 gradient
 [ -5.7787730000e-01 -3.1806538500e-03 -8.6936922000e+02  1.3000021681e-04 
   -6.9999987318e-04 -3.0194896000e+02  3.4000004234e-03 ] stress_16 gradient
 [ -5.7955740000e-01 -4.1012250000e-03 -8.7176700000e+02  4.7849999987e-01 
   -4.2090000011e-01 -3.1411600000e+02  2.7999994927e-03 ] stress_17 gradient
 [ -5.7955738000e-01 -3.1616691500e-03 -8.7176700000e+02  4.7850999999e-01 
   -4.2090000011e-01 -3.1411580000e+02  3.0800001696e-03 ] stress_18 gradient
 [ -5.7927388000e-01 -1.4040954500e-03 -8.7175100000e+02  3.8150000000e-01 
   -3.7907000001e-01 -3.1404412000e+02  1.0420000035e-01 ] stress_19 gradient
 [ -5.1207624000e-01  6.9300560000e-04 -8.6585490000e+02 -1.4380800000e+01 
    6.0235500000e+00 -2.9667188000e+02  2.4611800000e+01 ] stress_20 gradient
 [  2.2608380000e-01  8.8674115000e-04 -7.1375706000e+02 -6.5338330000e+01 
    2.8270420000e+01 -1.0061124000e+02  3.0126068000e+02 ] stress_21 gradient
 [  5.5040676000e-01  1.3168355500e-03 -3.4574822000e+02 -2.3827200000e+01 
    1.0309220000e+01 -1.1279320000e+01  4.2733292000e+02 ] stress_22 gradient
 [  5.8102536000e-01  2.0236870500e-03 -4.7014200000e+01 -9.2237300000e+00 
    3.9873200000e+00 -2.2732400002e+00  4.4004308000e+02 ] stress_23 gradient
 [  5.8454086000e-01  2.3401564000e-03  8.0878560000e+01 -6.2388900000e+00 
    2.6960100000e+00 -1.1686399998e+00  4.4160188000e+02 ] stress_24 gradient
 [  5.8452342000e-01  7.2577750000e-04  8.0877780000e+01 -6.2306999999e+00 
    2.6930700001e+00 -1.1737999998e+00  4.4159728000e+02 ] stress_25 gradient
 [  5.8452342000e-01  1.3421756500e-03  8.0877780000e+01 -6.2307000001e+00 
    2.6930700000e+00 -1.1738000003e+00  4.4159728000e+02 ] stress_26 gradient
 [  5.8445812000e-01  2.0380079000e-03  8.0935580000e+01 -6.2259300000e+00 
    2.6962800000e+00 -1.1709599999e+00  4.4172520000e+02 ] stress_27 gradient
 [  5.8336580000e-01  2.2281911500e-03  8.1708600000e+01 -6.0834700000e+00 
    2.6744400000e+00 -1.1295599998e+00  4.4359588000e+02 ] stress_28 gradient
 [  5.8336578000e-01  1.6365046500e-03  8.1708600000e+01 -6.0834700000e+00 
    2.6744400000e+00 -1.1295600002e+00  4.4359588000e+02 ] stress_29 gradient
 [  5.8334298000e-01  5.8236115000e-04  8.1707600000e+01 -6.0728300000e+00 
    2.6706400000e+00 -1.1362799999e+00  4.4358984000e+02 ] stress_30 gradient
 [  5.8024606000e-01 -8.8192205000e-04  8.1512100000e+01 -4.8398100000e+00 
    2.2270800000e+00 -2.1114799999e+00  4.4271320000e+02 ] stress_31 gradient
 [  4.9158102000e-01 -2.4675697000e-03  7.3161520000e+01  2.1754540000e+01 
   -7.3894100000e+00 -3.2641720000e+01  4.1526952000e+02 ] stress_32 gradient
 [ -6.3486660000e-02 -2.9218198000e-03 -3.3295000000e+01  1.0587433000e+02 
   -3.8011970000e+01 -2.4897656000e+02  2.2081636000e+02 ] stress_33 gradient
 [ -4.9200468000e-01 -3.3038478000e-03 -3.7510120000e+02  6.6696920000e+01 
   -2.4020830000e+01 -4.4851316000e+02  4.1472000000e+01 ] stress_34 gradient
 [ -5.5030920000e-01 -4.4147980000e-03 -8.3305360000e+02  2.2481900000e+01 
   -8.0892000001e+00 -4.8794560000e+02  6.0303999999e+00 ] stress_35 gradient
 [ -5.5260220000e-01 -5.6184600000e-03 -1.3083952000e+03  7.7905999999e+00 
   -2.7998000000e+00 -4.9358360000e+02  9.6320000011e-01 ] stress_36 gradient
 [ -5.5131800000e-01 -6.7714025000e-03 -1.7662896000e+03  3.1331000000e+00 
   -1.1247000000e+00 -4.9448920000e+02  1.4879999981e-01 ] stress_37 gradient
 [ -5.5050180000e-01 -7.8220160000e-03 -2.1851258000e+03  1.4829000002e+00 
   -5.3179999986e-01 -4.9465160000e+02  3.2000007195e-03 ] stress_38 gradient
 [ -5.5009060000e-01 -8.7282010000e-03 -2.5469772000e+03  8.2180000027e-01 
   -2.9450000011e-01 -4.9467920000e+02 -2.2000000172e-02 ] stress_39 gradient
 [ -5.4988560000e-01 -9.4526980000e-03 -2.8364848000e+03  5.2929999993e-01 
   -1.8959999989e-01 -4.9468160000e+02 -2.4000000849e-02 ] stress_40 gradient
 [ -5.4978400000e-01 -9.9660245000e-03 -3.0416756000e+03  3.9359999982e-01 
   -1.4099999999e-01 -4.9468000000e+02 -2.2400001399e-02 ] stress_41 gradient
 [ -5.4973960000e-01 -1.0246836500e-02 -3.1539404000e+03  3.3639999992e-01 
   -1.2049999987e-01 -4.9467840000e+02 -2.1199999537e-02 ] stress_42 gradient
 [ -5.4973940000e-01 -1.0172419500e-02 -3.1539402000e+03  3.3609999991e-01 
   -1.2040000001e-01 -4.9467800000e+02 -2.0800000129e-02 ] stress_43 gradient
 [ -5.3133420000e-01 -8.3036100000e-03 -3.1515826000e+03 -3.6076800000e+01 
    4.9547000001e+00 -4.9106520000e+02  6.2768000007e+00 ] stress_44 gradient
 [ -4.1818940000e-01 -6.9443905000e-03 -3.1301824000e+03 -2.2994320000e+02 
    3.2179800000e+01 -4.6543360000e+02  5.0960400000e+01 ] stress_45 gradient
 [ -4.1818940000e-01 -7.9365625000e-03 -3.1301824000e+03 -2.2994320000e+02 
    3.2179800000e+01 -4.6543360000e+02  5.0960400000e+01 ] stress_46 gradient
 [ -4.1826940000e-01 -9.7483445000e-03 -3.1302118000e+03 -2.2987440000e+02 
    3.2146700000e+01 -4.6548640000e+02  5.0953599999e+01 ] stress_47 gradient
 [ -4.1088240000e-01 -8.3180610000e-03 -3.1293294000e+03 -2.4452700000e+02 
    3.4201700000e+01 -4.6405120000e+02  5.3454400000e+01 ] stress_48 gradient
 [ -4.1088240000e-01 -8.8133270000e-03 -3.1293294000e+03 -2.4452700000e+02 
    3.4201700000e+01 -4.6405120000e+02  5.3454399999e+01 ] stress_49 gradient
 [ -4.1088240000e-01 -9.5863565000e-03 -3.1293294000e+03 -2.4452690000e+02 
    3.4201600000e+01 -4.6405120000e+02  5.3454400000e+01 ] stress_50 gradient
 [ -4.1329500000e-01 -1.0723731500e-02 -3.1299222000e+03 -2.4166010000e+02 
    3.3515400000e+01 -4.6793120000e+02  5.2933200001e+01 ] stress_51 gradient
 [ -4.1257100000e-01 -9.9056875000e-03 -3.1298528000e+03 -2.4323710000e+02 
    3.3735200000e+01 -4.6780560000e+02  5.3150799999e+01 ] stress_52 gradient
 [ -3.7560940000e-01 -8.2464975000e-03 -3.1241978000e+03 -3.1334150000e+02 
    4.3623800000e+01 -4.6023880000e+02  6.6274800001e+01 ] stress_53 gradient
 [ -1.6093580000e-01 -6.6254525000e-03 -3.0699798000e+03 -6.4500990000e+02 
    9.0774500000e+01 -4.0735720000e+02  1.5799840000e+02 ] stress_54 gradient
 [  1.7139220000e-01 -5.5641615000e-03 -2.9142226000e+03 -1.0058726000e+03 
    1.4234100000e+02 -3.0682600000e+02  3.3238680000e+02 ] stress_55 gradient
 [  3.8395560000e-01 -4.8445338500e-03 -2.7227411800e+03 -1.1180011500e+03 
    1.5841786000e+02 -2.2774796000e+02  4.6956948000e+02 ] stress_56 gradient
 [  4.5533092000e-01 -4.5089082000e-03 -2.6206416600e+03 -1.1210112500e+03 
    1.5886609000e+02 -1.9685972000e+02  5.2315548000e+02 ] stress_57 gradient
 [  4.5533092000e-01 -4.9245461000e-03 -2.6206416600e+03 -1.1210112500e+03 
    1.5886609000e+02 -1.9685972000e+02  5.2315548000e+02 ] stress_58 gradient
 [  4.5533080000e-01 -6.4818850000e-03 -2.6206416000e+03 -1.1210111000e+03 
    1.5886610000e+02 -1.9685960000e+02  5.2315520000e+02 ] stress_59 gradient
 [  4.5417820000e-01 -8.7271995000e-03 -2.6206972000e+03 -1.1197745000e+03 
    1.5862340000e+02 -1.9748200000e+02  5.2266760000e+02 ] stress_60 gradient
 [  3.0771540000e-01 -1.0614394000e-02 -2.6328040000e+03 -9.6305920000e+02 
    1.3090430000e+02 -2.8188040000e+02  4.5653280000e+02 ] stress_61 gradient
 [ -2.9991540000e-01 -1.0462211500e-02 -2.7501864000e+03 -3.1304590000e+02 
    3.0975200000e+01 -6.5809200000e+02  1.6181120000e+02 ] stress_62 gradient
 [ -4.4817280000e-01 -1.0444889000e-02 -2.8308992000e+03 -1.5346020000e+02 
    1.0701600000e+01 -7.5718560000e+02  8.4196000000e+01 ] stress_63 gradient
 [ -4.4628340000e-01 -9.1449450000e-03 -2.8307098000e+03 -1.5703150000e+02 
    1.1257300000e+01 -7.5662440000e+02  8.4774800000e+01 ] stress_64 gradient
 [ -3.7801280000e-01 -7.1043510000e-03 -2.8195768000e+03 -2.6765910000e+02 
    2.8757200000e+01 -7.3269160000e+02  1.0944360000e+02 ] stress_65 gradient
 [ -3.1434320000e-01 -6.5247630000e-03 -2.8060328000e+03 -3.5989390000e+02 
    4.3486200000e+01 -7.0811360000e+02  1.3477760000e+02 ] stress_66 gradient
 [ -3.1434340000e-01 -7.8403760000e-03 -2.8060328000e+03 -3.5989390000e+02 
    4.3486200000e+01 -7.0811360000e+02  1.3477760000e+02 ] stress_67 gradient
 [ -3.3382060000e-01 -1.0074340000e-02 -2.8088490000e+03 -3.3564240000e+02 
    3.9431500000e+01 -7.1776360000e+02  1.2647000000e+02 ] stress_68 gradient
 [ -5.7461880000e-01 -1.0627231500e-02 -2.9704654000e+03 -1.8204300000e+01 
    4.5760000012e-01 -8.5548040000e+02  7.9227999995e+00 ] stress_69 gradient
 [ -5.7582080000e-01 -1.0641263000e-02 -2.9764762000e+03 -1.6471000000e+01 
    3.4820000019e-01 -8.5631040000e+02  7.2084000003e+00 ] stress_70 gradient
 [ -5.7576840000e-01 -1.0182122500e-02 -2.9764724000e+03 -1.6582400000e+01 
    3.6430000000e-01 -8.5629560000e+02  7.2235999996e+00 ] stress_71 gradient
 [ -5.7338240000e-01 -9.3468475000e-03 -2.9762334000e+03 -2.1295000000e+01 
    1.0547000002e+00 -8.5555080000e+02  7.9695999993e+00 ] stress_72 gradient
 [ -5.5085960000e-01 -8.2097355000e-03 -2.9732140000e+03 -6.2160300000e+01 
    7.0865000000e+00 -8.4781640000e+02  1.5714000000e+01 ] stress_73 gradient
 [ -4.5434980000e-01 -6.9674075000e-03 -2.9554658000e+03 -2.1837000000e+02 
    3.0288700000e+01 -8.1083080000e+02  5.2750400000e+01 ] stress_74 gradient
 [ -2.2338300000e-01 -5.8877890000e-03 -2.8924676000e+03 -5.3380850000e+02 
    7.7412700000e+01 -7.1006080000e+02  1.5365720000e+02 ] stress_75 gradient
 [  1.0200424000e-01 -5.0221161000e-03 -2.7426448000e+03 -8.6609773000e+02 
    1.2732860000e+02 -5.4400688000e+02  3.1993744000e+02 ] stress_76 gradient
 [  3.8665546000e-01 -4.1401903000e-03 -2.4847448800e+03 -1.0133506100e+03 
    1.4966647000e+02 -3.6744484000e+02  4.9673996000e+02 ] stress_77 gradient
 [  5.5768992000e-01 -3.0840085000e-03 -2.1334900400e+03 -9.6298264000e+02 
    1.4238976000e+02 -2.3090588000e+02  6.3346492000e+02 ] stress_78 gradient
 [  6.3573129200e-01 -1.8865466750e-03 -1.7216725800e+03 -8.2232493200e+02 
    1.2156283600e+02 -1.4281848800e+02  7.2167229200e+02 ] stress_79 gradient
 [  6.6298186000e-01 -6.3819415000e-04 -1.2811655400e+03 -6.7321352000e+02 
    9.9448350000e+01 -9.0191520000e+01  7.7437096000e+02 ] stress_80 gradient
 [  6.6774314000e-01  5.8926040000e-04 -8.3732352000e+02 -5.4764216000e+02 
    8.0831450000e+01 -5.9258640000e+01  8.0534596000e+02 ] stress_81 gradient
 [  6.6407342000e-01  1.7473747500e-03 -4.0990348000e+02 -4.5093995000e+02 
    6.6505320000e+01 -4.0849400000e+01  8.2378028000e+02 ] stress_82 gradient
 [  6.5808416000e-01  2.8012877500e-03 -1.4800980000e+01 -3.7936210000e+02 
    5.5909540000e+01 -2.9643080000e+01  8.3500188000e+02 ] stress_83 gradient
 [  6.5220860000e-01  3.7236125000e-03  3.3494420000e+02 -3.2754180000e+02 
    4.8243800000e+01 -2.2670800000e+01  8.4198360000e+02 ] stress_84 gradient
 [  6.4731720000e-01  4.4914485000e-03  6.2847180000e+02 -2.9086930000e+02 
    4.2822000000e+01 -1.8280800000e+01  8.4637960000e+02 ] stress_85 gradient
 [  6.4365280000e-01  5.0862335000e-03  8.5711000000e+02 -2.6592170000e+02 
    3.9135400000e+01 -1.5544800000e+01  8.4911960000e+02 ] stress_86 gradient
 [  6.4123320000e-01  5.4936370000e-03  1.0142814000e+03 -2.5037480000e+02 
    3.6838700000e+01 -1.3940800000e+01  8.5072560000e+02 ] stress_87 gradient
 [  6.4001900000e-01  5.7034670000e-03  1.0953958000e+03 -2.4281660000e+02 
    3.5722200000e+01 -1.3189599999e+01  8.5147800000e+02 ] stress_88 gradient
 [  6.3979260000e-01  5.3492520000e-03  1.0953754000e+03 -2.4209740000e+02 
    3.5644700000e+01 -1.3252400000e+01  8.5142560000e+02 ] stress_89 gradient
 [  5.7108126000e-01  3.3239126500e-03  1.0835392000e+03 -5.3418720000e+01 
    1.4821140000e+01 -3.6981200000e+01  8.3170264000e+02 ] stress_90 gradient
 [  4.3279640000e-01  2.3350785500e-03  1.0493927000e+03  2.8786479000e+02 
   -2.3216460000e+01 -9.1435960000e+01  7.8644168000e+02 ] stress_91 gradient
 [  4.3279640000e-01  3.7325751500e-03  1.0493927000e+03  2.8786479000e+02 
   -2.3216460000e+01 -9.1435960000e+01  7.8644168000e+02 ] stress_92 gradient
 [  4.3439860000e-01  5.7519090000e-03  1.0500306000e+03  2.8553970000e+02 
   -2.2873700000e+01 -9.0762000001e+01  7.8829240000e+02 ] stress_93 gradient
 [  4.3514600000e-01  5.8159570000e-03  1.0503070000e+03  2.8440240000e+02 
   -2.2730400000e+01 -9.0423199999e+01  7.8922320000e+02 ] stress_94 gradient
 [  4.3503120000e-01  5.5265470000e-03  1.0502968000e+03  2.8476670000e+02 
   -2.2770100000e+01 -9.0454000000e+01  7.8919760000e+02 ] stress_95 gradient
 [  4.3264320000e-01  5.0102345000e-03  1.0500116000e+03  2.9192560000e+02 
   -2.3559600000e+01 -9.1164800000e+01  7.8860520000e+02 ] stress_96 gradient
 [  4.1852820000e-01  4.3002760000e-03  1.0478570000e+03  3.3180850000e+02 
   -2.7995300000e+01 -9.5763600000e+01  7.8477320000e+02 ] stress_97 gradient
 [  3.7229340000e-01  3.4675737000e-03  1.0388193600e+03  4.5368039000e+02 
   -4.1649440000e+01 -1.1234172000e+02  7.7096012000e+02 ] stress_98 gradient
 [  2.6922618000e-01  2.6097470500e-03  1.0123435200e+03  7.0267239000e+02 
   -6.9742050000e+01 -1.5336104000e+02  7.3678248000e+02 ] stress_99 gradient
 [  1.0003592000e-01  1.8014244000e-03  9.5247396000e+02  1.0664827900e+03 
   -1.1108498000e+02 -2.2897616000e+02  6.7378032000e+02 ] stress_100 gradient
 [ -1.1283814000e-01  1.0424665000e-03  8.4205678000e+02  1.4535257900e+03 
   -1.5542991000e+02 -3.3744800000e+02  5.8340360000e+02 ] stress_101 gradient
 [ -3.2507990000e-01  2.6734405000e-04  6.6920478000e+02  1.7475204700e+03 
   -1.8952923000e+02 -4.6320688000e+02  4.7862524000e+02 ] stress_102 gradient
 [ -4.9907542000e-01 -5.9344515000e-04  4.3110346000e+02  1.8852539100e+03 
   -2.0604214000e+02 -5.8625772000e+02  3.7610452000e+02 ] stress_103 gradient
 [ -6.2064062000e-01 -1.5695264500e-03  1.3289474000e+02  1.8760037600e+03 
   -2.0588162000e+02 -6.9265300000e+02  2.8746132000e+02 ] stress_104 gradient
 [ -6.9472756000e-01 -2.6520815000e-03 -2.1588120000e+02  1.7675730700e+03 
   -1.9440245000e+02 -7.7737908000e+02  2.1687224000e+02 ] stress_105 gradient
 [ -7.3393020000e-01 -3.8151675000e-03 -6.0460600000e+02  1.6097406000e+03 
   -1.7722940000e+02 -8.4160760000e+02  1.6336080000e+02 ] stress_106 gradient
 [ -7.5058260000e-01 -5.0311010000e-03 -1.0232316000e+03  1.4380833000e+03 
   -1.5839570000e+02 -8.8905800000e+02  1.2382800000e+02 ] stress_107 gradient
 [ -7.5393540000e-01 -6.2763875000e-03 -1.4628152000e+03  1.2729828000e+03 
   -1.4021810000e+02 -9.2375480000e+02  9.4920800000e+01 ] stress_108 gradient
 [ -7.5007940000e-01 -7.5322320000e-03 -1.9154980000e+03  1.1239544000e+03 
   -1.2378380000e+02 -9.4911320000e+02  7.3793600000e+01 ] stress_109 gradient
 [ -7.4272720000e-01 -8.7833735000e-03 -2.3743210000e+03  9.9408950000e+02 
   -1.0945240000e+02 -9.6774440000e+02  5.8270800000e+01 ] stress_110 gradient
 [ -7.3402620000e-01 -1.0016737000e-02 -2.8329966000e+03  8.8317250000e+02 
   -9.7208900000e+01 -9.8155000000e+02  4.6769200000e+01 ] stress_111 gradient
 [ -7.2516100000e-01 -1.1220446500e-02 -3.2857144000e+03  7.8952710000e+02 
   -8.6871700000e+01 -9.9187960000e+02  3.8162800000e+01 ] stress_112 gradient
 [ -7.1674720000e-01 -1.2383578000e-02 -3.7271352000e+03  7.1097950000e+02 
   -7.8201900000e+01 -9.9968840000e+02  3.1656800000e+01 ] stress_113 gradient
 [ -7.0907560000e-01 -1.3495768000e-02 -4.1522802000e+03  6.4535390000e+02 
   -7.0959700000e+01 -1.0056500000e+03  2.6690400000e+01 ] stress_114 gradient
 [ -7.0225740000e-01 -1.4547088500e-02 -4.5564826000e+03  5.9068340000e+02 
   -6.4927700000e+01 -1.0102408000e+03  2.2865200001e+01 ] stress_115 gradient
 [ -6.9630720000e-01 -1.5528157000e-02 -4.9354200000e+03  5.4527390000e+02 
   -5.9918700000e+01 -1.0138016000e+03  1.9898800001e+01 ] stress_116 gradient
 [ -6.9119280000e-01 -1.6430058500e-02 -5.2850680000e+03  5.0771510000e+02 
   -5.5776600000e+01 -1.0165768000e+03  1.7586399999e+01 ] stress_117 gradient
 [ -6.8685920000e-01 -1.7244736500e-02 -5.6018338000e+03  4.7684370000e+02 
   -5.2372600000e+01 -1.0187428000e+03  1.5781599999e+01 ] stress_118 gradient
 [ -6.8324760000e-01 -1.7964775500e-02 -5.8824592000e+03  4.5172490000e+02 
   -4.9603500001e+01 -1.0204300000e+03  1.4376399999e+01 ] stress_119 gradient
 [ -6.8030200000e-01 -1.8583417500e-02 -6.1240122000e+03  4.3162000000e+02 
   -4.7387600000e+01 -1.0217316000e+03  1.3291600000e+01 ] stress_120 gradient
 [ -6.7797060000e-01 -1.9095109000e-02 -6.3240920000e+03  4.1594240000e+02 
   -4.5659800000e+01 -1.0227164000e+03  1.2471200000e+01 ] stress_121 gradient
 [ -6.7621260000e-01 -1.9495052000e-02 -6.4806448000e+03  4.0424990000e+02 
   -4.4371300000e+01 -1.0234336000e+03  1.1873599997e+01 ] stress_122 gradient
 [ -6.7499540000e-01 -1.9779477500e-02 -6.5920648000e+03  3.9621950000e+02 
   -4.3486400000e+01 -1.0239172000e+03  1.1470800000e+01 ] stress_123 gradient
 [ -6.7429620000e-01 -1.9945845000e-02 -6.6572688000e+03  3.9162800000e+02 
   -4.2980599999e+01 -1.0241912000e+03  1.1242400000e+01 ] stress_124 gradient
 [ -6.7410980000e-01 -1.9990535000e-02 -6.6747880000e+03  3.9040770000e+02 
   -4.2846100000e+01 -1.0242632000e+03  1.1182399998e+01 ] stress_125 gradient
 [ -6.6515040000e-01 -1.9522844500e-02 -6.6733204000e+03  3.3451390000e+02 
   -3.9423600000e+01 -1.0225120000e+03  1.3790800000e+01 ] stress_126 gradient
 [ -5.7569160000e-01 -1.8562179000e-02 -6.6511304000e+03 -1.8538910000e+02 
   -7.0201000003e+00 -1.0021384000e+03  4.4138800000e+01 ] stress_127 gradient
 [ -3.5185360000e-01 -1.7502420500e-02 -6.5661150000e+03 -1.3885397000e+03 
    6.8948000000e+01 -9.4279600000e+02  1.3253560000e+02 ] stress_128 gradient
 [ -5.8474200000e-02 -1.6474885000e-02 -6.3928176000e+03 -2.8311290000e+03 
    1.6089030000e+02 -8.5250880000e+02  2.6703160000e+02 ] stress_129 gradient
 [  2.0975560000e-01 -1.5472697000e-02 -6.1490064000e+03 -4.0214507000e+03 
    2.3726900000e+02 -7.5733920000e+02  4.0880440000e+02 ] stress_130 gradient
 [  4.0768940000e-01 -1.4544566000e-02 -5.8845278000e+03 -4.8043437000e+03 
    2.8777740000e+02 -6.7748040000e+02  5.2777040000e+02 ] stress_131 gradient
 [  5.3266060000e-01 -1.3799897000e-02 -5.6573102000e+03 -5.2435804000e+03 
    3.1625450000e+02 -6.2143920000e+02  6.1125640000e+02 ] stress_132 gradient
 [  5.9598120000e-01 -1.3349837000e-02 -5.5157612000e+03 -5.4451326000e+03 
    3.2937670000e+02 -5.9089120000e+02  6.5676480000e+02 ] stress_133 gradient
 [  5.9961660000e-01 -1.3322110500e-02 -5.5069574000e+03 -5.4562031000e+03 
    3.3009880000e+02 -5.8908600000e+02  6.5945400000e+02 ] stress_134 gradient
 [  5.9957060000e-01 -1.5312610000e-02 -5.5069594000e+03 -5.4560326000e+03 
    3.3008320000e+02 -5.8911000000e+02  6.5943760000e+02 ] stress_135 gradient
 [  5.9954580000e-01 -1.5427838500e-02 -5.5069606000e+03 -5.4559404000e+03 
    3.3007490000e+02 -5.8912280000e+02  6.5942840000e+02 ] stress_136 gradient
 [  6.2288020000e-01 -1.4581472000e-02 -5.5003974000e+03 -5.5528960000e+03 
    3.3789270000e+02 -5.8276200000e+02  6.6890320000e+02 ] stress_137 gradient
 [  6.2288020000e-01 -1.4755363000e-02 -5.5003974000e+03 -5.5528960000e+03 
    3.3789270000e+02 -5.8276200000e+02  6.6890320000e+02 ] stress_138 gradient
 [  6.2287940000e-01 -1.5591221000e-02 -5.5003974000e+03 -5.5528930000e+03 
    3.3789240000e+02 -5.8276240000e+02  6.6890280000e+02 ] stress_139 gradient
 [  6.2175980000e-01 -1.7182922500e-02 -5.5004568000e+03 -5.5486357000e+03 
    3.3752270000e+02 -5.8337360000e+02  6.6847400000e+02 ] stress_140 gradient
 [  5.3743060000e-01 -1.9055846000e-02 -5.5074674000e+03 -5.2173665000e+03 
    3.1116850000e+02 -6.3394000000e+02  6.3301320000e+02 ] stress_141 gradient
 [ -1.2026100000e-01 -1.9400038500e-02 -5.6227610000e+03 -2.5095892000e+03 
    1.2229630000e+02 -1.0792448000e+03  3.2083320000e+02 ] stress_142 gradient
 [ -5.7109840000e-01 -1.9598315500e-02 -5.9345960000e+03 -4.9911870000e+02 
    9.7433000001e+00 -1.4370456000e+03  7.0075600001e+01 ] stress_143 gradient
 [ -6.4165600000e-01 -2.0268010000e-02 -6.2324478000e+03 -1.2439760000e+02 
   -2.7817000000e+00 -1.5091776000e+03  1.9527600001e+01 ] stress_144 gradient
 [ -6.5134540000e-01 -2.0669036500e-02 -6.3942132000e+03 -5.9761300000e+01 
   -3.4403999998e+00 -1.5224600000e+03  1.0219600001e+01 ] stress_145 gradient
 [ -6.5111960000e-01 -2.0571513000e-02 -6.3941874000e+03 -6.1184599999e+01 
   -3.3520999996e+00 -1.5224020000e+03  1.0278000002e+01 ] stress_146 gradient
 [ -6.0750500000e-01 -1.9547551500e-02 -6.3853262000e+03 -3.1283330000e+02 
    1.2698900000e+01 -1.5088592000e+03  2.3859200002e+01 ] stress_147 gradient
 [ -4.1346040000e-01 -1.8238336000e-02 -6.3235464000e+03 -1.3489317000e+03 
    7.9703200000e+01 -1.4383592000e+03  9.4561600001e+01 ] stress_148 gradient
 [ -1.2188580000e-01 -1.7064817500e-02 -6.1785360000e+03 -2.7795213000e+03 
    1.7301650000e+02 -1.3152512000e+03  2.1802200000e+02 ] stress_149 gradient
 [  1.2841300000e-01 -1.6129388500e-02 -5.9932524000e+03 -3.9054005000e+03 
    2.4678610000e+02 -1.1947784000e+03  3.3884000000e+02 ] stress_150 gradient
 [  2.7022340000e-01 -1.5546962500e-02 -5.8533858000e+03 -4.4977507000e+03 
    2.8567320000e+02 -1.1197224000e+03  4.1411080000e+02 ] stress_151 gradient
 [  2.9075060000e-01 -1.5456866000e-02 -5.8304528000e+03 -4.5804292000e+03 
    2.9110410000e+02 -1.1083944000e+03  4.2547120000e+02 ] stress_152 gradient
 [  2.9075060000e-01 -1.6500972000e-02 -5.8304528000e+03 -4.5804290000e+03 
    2.9110410000e+02 -1.1083944000e+03  4.2547120000e+02 ] stress_153 gradient
 [  2.8942780000e-01 -1.8446413500e-02 -5.8305266000e+03 -4.5747508000e+03 
    2.9063700000e+02 -1.1088604000e+03  4.2500880000e+02 ] stress_154 gradient
 [  7.7968800000e-02 -2.0121295500e-02 -5.8524358000e+03 -3.6179938000e+03 
    2.2013420000e+02 -1.1926924000e+03  3.4179760000e+02 ] stress_155 gradient
 [ -5.3202280000e-01 -1.9988131000e-02 -6.0521910000e+03 -7.0367450000e+02 
    3.0655000000e+01 -1.4658904000e+03  7.0624000000e+01 ] stress_156 gradient
 [ -6.2433040000e-01 -2.0281340000e-02 -6.2211078000e+03 -2.0836530000e+02 
    5.3840000000e+00 -1.5151476000e+03  2.1731999997e+01 ] stress_157 gradient
 [ -6.1540580000e-01 -1.9716133000e-02 -6.2196718000e+03 -2.6022160000e+02 
    8.7422999995e+00 -1.5125412000e+03  2.4338799998e+01 ] stress_158 gradient
 [ -4.5208440000e-01 -1.8115675500e-02 -6.1746928000e+03 -1.1276209000e+03 
    6.5991100000e+01 -1.4550400000e+03  8.1846000001e+01 ] stress_159 gradient
 [ -2.9289320000e-01 -1.7351636000e-02 -6.1112770000e+03 -1.9155717000e+03 
    1.1847640000e+02 -1.3912544000e+03  1.4563840000e+02 ] stress_160 gradient
 [ -2.9289300000e-01 -1.8154600000e-02 -6.1112768000e+03 -1.9155717000e+03 
    1.1847640000e+02 -1.3912544000e+03  1.4563840000e+02 ] stress_161 gradient
 [ -3.2696080000e-01 -2.0171668500e-02 -6.1151228000e+03 -1.7492220000e+03 
    1.0646550000e+02 -1.4031556000e+03  1.3374920000e+02 ] stress_162 gradient
 [ -6.4893400000e-01 -2.0578362000e-02 -6.3464026000e+03 -3.5497600000e+01 
    1.1087000003e+00 -1.5341156000e+03  2.9236000009e+00 ] stress_163 gradient
 [ -6.5174640000e-01 -2.0710949000e-02 -6.4007022000e+03 -1.6214300001e+01 
    3.7279999924e-01 -1.5356896000e+03  1.3507999975e+00 ] stress_164 gradient
 [ -6.5070600000e-01 -2.0512953500e-02 -6.4005672000e+03 -2.2670200000e+01 
    7.7469999997e-01 -1.5354096000e+03  1.6307999977e+00 ] stress_165 gradient
 [ -6.4170060000e-01 -2.0142706000e-02 -6.3990532000e+03 -7.6357500000e+01 
    4.1599000006e+00 -1.5327716000e+03  4.2687999994e+00 ] stress_166 gradient
 [ -6.1228500000e-01 -1.9642498000e-02 -6.3928398000e+03 -2.4532610000e+02 
    1.4908100000e+01 -1.5234352000e+03  1.3605199998e+01 ] stress_167 gradient
 [ -5.4970320000e-01 -1.9061702500e-02 -6.3763696000e+03 -5.9162220000e+02 
    3.7085800000e+01 -1.5019660000e+03  3.5074800000e+01 ] stress_168 gradient
 [ -4.4675960000e-01 -1.8441733500e-02 -6.3424610000e+03 -1.1391817000e+03 
    7.2342300000e+01 -1.4637924000e+03  7.3248000001e+01 ] stress_169 gradient
 [ -3.0503080000e-01 -1.7804073500e-02 -6.2834250000e+03 -1.8611752000e+03 
    1.1902550000e+02 -1.4069012000e+03  1.3013960000e+02 ] stress_170 gradient
 [ -1.3426820000e-01 -1.7149276000e-02 -6.1923308000e+03 -2.6899187000e+03 
    1.7277480000e+02 -1.3325152000e+03  2.0452520000e+02 ] stress_171 gradient
 [  5.1239400000e-02 -1.6463383000e-02 -6.0639668000e+03 -3.5413501000e+03 
    2.2810250000e+02 -1.2445364000e+03  2.9250440000e+02 ] stress_172 gradient
 [  2.3697040000e-01 -1.5727413000e-02 -5.8952972000e+03 -4.3393188000e+03 
    2.8000010000e+02 -1.1482556000e+03  3.8878520000e+02 ] stress_173 gradient
 [  4.1121560000e-01 -1.4925318000e-02 -5.6855118000e+03 -5.0300067000e+03 
    3.2490980000e+02 -1.0490648000e+03  4.8797600000e+02 ] stress_174 gradient
 [  5.6646100000e-01 -1.4047544000e-02 -5.4356152000e+03 -5.5858934000e+03 
    3.6100370000e+02 -9.5149000000e+02  5.8555120000e+02 ] stress_175 gradient
 [  6.9915340000e-01 -1.3091889000e-02 -5.1480246000e+03 -6.0014462000e+03 
    3.8790890000e+02 -8.5882280000e+02  6.7821840000e+02 ] stress_176 gradient
 [  8.0878900000e-01 -1.2062203000e-02 -4.8261252000e+03 -6.2861406000e+03 
    4.0624730000e+02 -7.7311160000e+02  7.6392960000e+02 ] stress_177 gradient
 [  8.9684140000e-01 -1.0966366000e-02 -4.4738580000e+03 -6.4576528000e+03 
    4.1718420000e+02 -6.9536120000e+02  8.4168000000e+02 ] stress_178 gradient
 [  9.6581220000e-01 -9.8147500000e-03 -4.0955106000e+03 -6.5366099000e+03 
    4.2207970000e+02 -6.2582800000e+02  9.1121320000e+02 ] stress_179 gradient
 [  1.0185846000e+00 -8.6187935000e-03 -3.6954908000e+03 -6.5433170000e+03 
    4.2227120000e+02 -5.6426680000e+02  9.7277480000e+02 ] stress_180 gradient
 [  1.0580093000e+00 -7.3901374000e-03 -3.2781976000e+03 -6.4959692100e+03 
    4.1895498000e+02 -5.1014080000e+02  1.0269005600e+03 ] stress_181 gradient
 [  1.0866785600e+00 -6.1403152500e-03 -2.8480075000e+03 -6.4099430000e+03 
    4.1313998000e+02 -4.6277616000e+02  1.0742652400e+03 ] stress_182 gradient
 [  1.1068403200e+00 -4.8803360000e-03 -2.4091712600e+03 -6.2977107300e+03 
    4.0564253000e+02 -4.2145104000e+02  1.1155904400e+03 ] stress_183 gradient
 [  1.1203771400e+00 -3.6207421000e-03 -1.9658423200e+03 -6.1690962700e+03 
    3.9710381000e+02 -3.8546132000e+02  1.1515801600e+03 ] stress_184 gradient
 [  1.1288319140e+00 -2.3714642850e-03 -1.5220176460e+03 -6.0316470880e+03 
    3.8801493700e+02 -3.5414910400e+02  1.1828924120e+03 ] stress_185 gradient
 [  1.1334478800e+00 -1.1419405000e-03 -1.0815638800e+03 -5.8910531400e+03 
    3.7874485000e+02 -3.2692128000e+02  1.2101202400e+03 ] stress_186 gradient
 [  1.1352156600e+00  5.8900100000e-05 -6.4819460000e+02 -5.7515228800e+03 
    3.6956534000e+02 -3.0325316000e+02  1.2337884000e+03 ] stress_187 gradient
 [  1.1349177000e+00  1.2226484000e-03 -2.2544984000e+02 -5.6161071800e+03 
    3.6067250000e+02 -2.8268656000e+02  1.2543550400e+03 ] stress_188 gradient
 [  1.1331680000e+00  2.3412905000e-03  1.8327260000e+02 -5.4869830000e+03 
    3.5220540000e+02 -2.6482720000e+02  1.2722144000e+03 ] stress_189 gradient
 [  1.1304462000e+00  3.4073315000e-03  5.7477260000e+02 -5.3656556000e+03 
    3.4425970000e+02 -2.4933640000e+02  1.2877052000e+03 ] stress_190 gradient
 [  1.1271250000e+00  4.4137435000e-03  9.4603900000e+02 -5.2531358000e+03 
    3.3689880000e+02 -2.3592520000e+02  1.3011164000e+03 ] stress_191 gradient
 [  1.1234932000e+00  5.3538325000e-03  1.2942052000e+03 -5.1500884000e+03 
    3.3016380000e+02 -2.2435160000e+02  1.3126900000e+03 ] stress_192 gradient
 [  1.1197736000e+00  6.2216370000e-03  1.6167024000e+03 -5.0568910000e+03 
    3.2407740000e+02 -2.1440640000e+02  1.3226352000e+03 ] stress_193 gradient
 [  1.1161380000e+00  7.0115335000e-03  1.9111164000e+03 -4.9737570000e+03 
    3.1865210000e+02 -2.0591720000e+02  1.3311244000e+03 ] stress_194 gradient
 [  1.1127182000e+00  7.7183470000e-03  2.1752314000e+03 -4.9007830000e+03 
    3.1389250000e+02 -1.9874120000e+02  1.3383008000e+03 ] stress_195 gradient
 [  1.1096134000e+00  8.3376950000e-03  2.4071590000e+03 -4.8379599000e+03 
    3.0979720000e+02 -1.9275640000e+02  1.3442852000e+03 ] stress_196 gradient
 [  1.1069004000e+00  8.8654940000e-03  2.6051558000e+03 -4.7852576000e+03 
    3.0636300000e+02 -1.8786680000e+02  1.3491748000e+03 ] stress_197 gradient
 [  1.1046348000e+00  9.2984865000e-03  2.7678212000e+03 -4.7425986000e+03 
    3.0358420000e+02 -1.8399280000e+02  1.3530488000e+03 ] stress_198 gradient
 [  1.1028578000e+00  9.6339250000e-03  2.8939786000e+03 -4.7099087000e+03 
    3.0145540000e+02 -1.8107360000e+02  1.3559680000e+03 ] stress_199 gradient
 [  1.1015992000e+00  9.8695730000e-03  2.9826774000e+03 -4.6871307000e+03 
    2.9997230000e+02 -1.7906400000e+02  1.3579776000e+03 ] stress_200 gradient
 [  1.1008778000e+00  1.0004018500e-02  3.0333096000e+03 -4.6742041000e+03 
    2.9913080000e+02 -1.7793240000e+02  1.3591092000e+03 ] stress_201 gradient
 [  1.1008422000e+00  1.0010603500e-02  3.0357898000e+03 -4.6735724000e+03 
    2.9908950000e+02 -1.7787760000e+02  1.3591640000e+03 ] stress_202 gradient
 [  9.4349700000e-01  8.7365960000e-03  2.9927218000e+03 -3.4463420000e+03 
    2.3663730000e+02 -2.2231600000e+02  1.3217864000e+03 ] stress_203 gradient
 [  6.3651760000e-01  7.7502955000e-03  2.8544852000e+03 -1.2112344000e+03 
    1.2044350000e+02 -3.2434080000e+02  1.2359728000e+03 ] stress_204 gradient
 [  6.3651760000e-01  8.2743865000e-03  2.8544852000e+03 -1.2112344000e+03 
    1.2044350000e+02 -3.2434080000e+02  1.2359728000e+03 ] stress_205 gradient
 [  6.3653980000e-01  1.0459117000e-02  2.8544940000e+03 -1.2112322000e+03 
    1.2045260000e+02 -3.2433640000e+02  1.2359808000e+03 ] stress_206 gradient
 [  6.3655860000e-01  1.0575639000e-02  2.8545022000e+03 -1.2112096000e+03 
    1.2045790000e+02 -3.2432680000e+02  1.2359968000e+03 ] stress_207 gradient
 [  6.2907860000e-01  1.0285760000e-02  2.8531754000e+03 -1.1501197000e+03 
    1.1736450000e+02 -3.2610160000e+02  1.2345040000e+03 ] stress_208 gradient
 [  5.9085080000e-01  9.8374135000e-03  2.8439764000e+03 -8.5117780000e+02 
    1.0195400000e+02 -3.3625240000e+02  1.2259660000e+03 ] stress_209 gradient
 [  5.0490700000e-01  9.3049470000e-03  2.8166190000e+03 -2.0518850000e+02 
    6.8203900000e+01 -3.6150120000e+02  1.2047288000e+03 ] stress_210 gradient
 [  3.6960000000e-01  8.7295735000e-03  2.7598856000e+03  7.7295360000e+02 
    1.6537700000e+01 -4.0524040000e+02  1.1679396000e+03 ] stress_211 gradient
 [  1.9697640000e-01  8.1170975000e-03  2.6642394000e+03  1.9715884000e+03 
   -4.7369700000e+01 -4.6650040000e+02  1.1164132000e+03 ] stress_212 gradient
 [  5.3042000000e-03  7.4521025000e-03  2.5232884000e+03  3.2463223000e+03 
   -1.1590120000e+02 -5.4112840000e+02  1.0536436000e+03 ] stress_213 gradient
 [ -1.8779600000e-01  6.7147895000e-03  2.3342266000e+03  4.4709211000e+03 
   -1.8225190000e+02 -6.2364480000e+02  9.8423920000e+02 ] stress_214 gradient
 [ -3.6926372000e-01  5.8909586000e-03  2.0973932000e+03  5.5614196300e+03 
   -2.4180163000e+02 -7.0883768000e+02  9.1258432000e+02 ] stress_215 gradient
 [ -5.3140002000e-01  4.9756577000e-03  1.8155603200e+03  6.4767175000e+03 
   -2.9221253000e+02 -7.9258312000e+02  8.4214692000e+02 ] stress_216 gradient
 [ -6.7097520000e-01  3.9727297000e-03  1.4932471600e+03  7.2082472200e+03 
   -3.3290964000e+02 -8.7204616000e+02  7.7531164000e+02 ] stress_217 gradient
 [ -7.8786690000e-01  2.8923813000e-03  1.1360549400e+03  7.7679046900e+03 
   -3.6444396000e+02 -9.4555804000e+02  7.1348192000e+02 ] stress_218 gradient
 [ -8.8375416200e-01  1.7489025300e-03  7.5023993000e+02  8.1778368920e+03 
   -3.8794284400e+02 -1.0123343480e+03  6.5731748400e+02 ] stress_219 gradient
 [ -9.6116568000e-01  5.5885205000e-04  3.4242032000e+02  8.4635923600e+03 
   -4.0473669000e+02 -1.0721952800e+03  6.0696952000e+02 ] stress_220 gradient
 [ -1.0228803600e+00 -6.6035420000e-04 -8.0677380000e+01  8.6501541600e+03 
   -4.1614039000e+02 -1.1253443200e+03  5.6226684000e+02 ] stress_221 gradient
 [ -1.0715732800e+00 -1.8911594000e-03 -5.1233020000e+02  8.7599116700e+03 
   -4.2333965000e+02 -1.1721957600e+03  5.2286104000e+02 ] stress_222 gradient
 [ -1.1096502000e+00 -3.1164125000e-03 -9.4594160000e+02  8.8119310000e+03 
   -4.2734860000e+02 -1.2132644000e+03  4.8831880000e+02 ] stress_223 gradient
 [ -1.1391824000e+00 -4.3195730000e-03 -1.3750896000e+03  8.8219076000e+03 
   -4.2900460000e+02 -1.2490908000e+03  4.5818600000e+02 ] stress_224 gradient
 [ -1.1619082000e+00 -5.4849925000e-03 -1.7936286000e+03  8.8024701000e+03 
   -4.2898350000e+02 -1.2802028000e+03  4.3201840000e+02 ] stress_225 gradient
 [ -1.1792578000e+00 -6.5979145000e-03 -2.1957024000e+03  8.7636108000e+03 
   -4.2782160000e+02 -1.3070884000e+03  4.0940560000e+02 ] stress_226 gradient
 [ -1.1923910000e+00 -7.6445695000e-03 -2.5757956000e+03  8.7131419000e+03 
   -4.2593870000e+02 -1.3301836000e+03  3.8998040000e+02 ] stress_227 gradient
 [ -1.2022424000e+00 -8.6124210000e-03 -2.9288430000e+03  8.6571015000e+03 
   -4.2366080000e+02 -1.3498752000e+03  3.7341840000e+02 ] stress_228 gradient
 [ -1.2095538000e+00 -9.4897885000e-03 -3.2501068000e+03  8.6001380000e+03 
   -4.2123890000e+02 -1.3664892000e+03  3.5944480000e+02 ] stress_229 gradient
 [ -1.2149136000e+00 -1.0266504500e-02 -3.5354314000e+03  8.5457727000e+03 
   -4.1886410000e+02 -1.3803076000e+03  3.4782240000e+02 ] stress_230 gradient
 [ -1.2187802000e+00 -1.0933572500e-02 -3.7811308000e+03  8.4966621000e+03 
   -4.1668090000e+02 -1.3915620000e+03  3.3835640000e+02 ] stress_231 gradient
 [ -1.2215058000e+00 -1.1483128000e-02 -3.9839828000e+03  8.4547952000e+03 
   -4.1479760000e+02 -1.4004368000e+03  3.3089200000e+02 ] stress_232 gradient
 [ -1.2233560000e+00 -1.1909085500e-02 -4.1414738000e+03  8.4215925000e+03 
   -4.1329200000e+02 -1.4070824000e+03  3.2530240000e+02 ] stress_233 gradient
 [ -1.2245210000e+00 -1.2206551500e-02 -4.2515890000e+03  8.3980607000e+03 
   -4.1221930000e+02 -1.4116080000e+03  3.2149640000e+02 ] stress_234 gradient
 [ -1.2251258000e+00 -1.2372019000e-02 -4.3128878000e+03  8.3848586000e+03 
   -4.1161570000e+02 -1.4140856000e+03  3.1941240000e+02 ] stress_235 gradient
 [ -1.2251060000e+00 -1.2340835000e-02 -4.3128862000e+03  8.3847154000e+03 
   -4.1160730000e+02 -1.4140812000e+03  3.1941680000e+02 ] stress_236 gradient
 [ -1.1204814000e+00 -1.0866395000e-02 -4.2915396000e+03  7.7017704000e+03 
   -3.7048180000e+02 -1.3847312000e+03  3.5001920000e+02 ] stress_237 gradient
 [ -8.8778860000e-01 -9.8894985000e-03 -4.2198556000e+03  6.2454305000e+03 
   -2.8267320000e+02 -1.3099844000e+03  4.2795520000e+02 ] stress_238 gradient
 [ -8.8823360000e-01 -1.0965023000e-02 -4.2199538000e+03  6.2430020000e+03 
   -2.8278260000e+02 -1.3102916000e+03  4.2768360000e+02 ] stress_239 gradient
 [ -9.0362340000e-01 -1.2503544500e-02 -4.2281212000e+03  6.0591572000e+03 
   -2.8336450000e+02 -1.3295760000e+03  4.1062640000e+02 ] stress_240 gradient
 [ -8.2254020000e-01 -1.1116972000e-02 -4.2112426000e+03  5.5412024000e+03 
   -2.5162120000e+02 -1.3064848000e+03  4.3464880000e+02 ] stress_241 gradient
 [ -7.0738420000e-01 -1.0467734500e-02 -4.1780382000e+03  4.8318995000e+03 
   -2.0809850000e+02 -1.2696472000e+03  4.7297240000e+02 ] stress_242 gradient
 [ -7.1196700000e-01 -1.2130058000e-02 -4.1791496000e+03  4.8139105000e+03 
   -2.0915870000e+02 -1.2729788000e+03  4.6996600000e+02 ] stress_243 gradient
 [ -7.2836460000e-01 -1.2884515000e-02 -4.1853632000e+03  4.7141418000e+03 
   -2.1147630000e+02 -1.2888696000e+03  4.5562720000e+02 ] stress_244 gradient
 [ -7.7141960000e-01 -1.3769879500e-02 -4.2156640000e+03  4.2702966000e+03 
   -2.1003410000e+02 -1.3508784000e+03  3.9967600000e+02 ] stress_245 gradient
 [ -7.4961220000e-01 -1.2939980000e-02 -4.2118876000e+03  4.1317046000e+03 
   -2.0134560000e+02 -1.3450488000e+03  4.0569200000e+02 ] stress_246 gradient
 [ -5.9100720000e-01 -1.1644436500e-02 -4.1690002000e+03  3.1750173000e+03 
   -1.4089690000e+02 -1.2955340000e+03  4.5679360000e+02 ] stress_247 gradient
 [ -2.8989780000e-01 -1.0436633500e-02 -4.0406424000e+03  1.4533719000e+03 
   -3.2088300000e+01 -1.1860440000e+03  5.6979160000e+02 ] stress_248 gradient
 [  6.0246000003e-03 -9.4376050000e-03 -3.8463540000e+03 -1.5114780000e+02 
    6.8680100000e+01 -1.0623648000e+03  6.9743440000e+02 ] stress_249 gradient
 [  1.9868140000e-01 -8.7231905000e-03 -3.6679302000e+03 -1.1480138000e+03 
    1.3068610000e+02 -9.7244720000e+02  7.9023360000e+02 ] stress_250 gradient
 [  2.6958140000e-01 -8.4293825000e-03 -3.5879124000e+03 -1.5040726000e+03 
    1.5266540000e+02 -9.3716120000e+02  8.2665040000e+02 ] stress_251 gradient
 [  2.6951420000e-01 -8.9367525000e-03 -3.5879178000e+03 -1.5038906000e+03 
    1.5264000000e+02 -9.3718360000e+02  8.2662880000e+02 ] stress_252 gradient
 [  2.5484760000e-01 -1.0504823500e-02 -3.5898236000e+03 -1.4664811000e+03 
    1.4745560000e+02 -9.4293280000e+02  8.2108080000e+02 ] stress_253 gradient
 [  9.8737200000e-02 -1.2274439000e-02 -3.6231296000e+03 -1.0952177000e+03 
    9.7018300000e+01 -1.0166276000e+03  7.4996880000e+02 ] stress_254 gradient
 [ -2.2257900000e-01 -1.3384742000e-02 -3.7486400000e+03 -3.9908780000e+02 
    6.2536000000e+00 -1.2027680000e+03  5.7035280000e+02 ] stress_255 gradient
 [ -4.3660520000e-01 -1.4017275000e-02 -3.9077096000e+03  1.3121400000e+01 
   -4.3759100000e+01 -1.3544240000e+03  4.2401400000e+02 ] stress_256 gradient
 [ -4.8527020000e-01 -1.4198302000e-02 -3.9616254000e+03  9.8462100000e+01 
   -5.3384600000e+01 -1.3935440000e+03  3.8626560000e+02 ] stress_257 gradient
 [ -4.4443180000e-01 -1.2972197500e-02 -3.9534244000e+03 -1.2567610000e+02 
   -3.7719000000e+01 -1.3809804000e+03  3.9895600000e+02 ] stress_258 gradient
 [ -2.3191980000e-01 -1.1439748000e-02 -3.8839888000e+03 -1.2021280000e+03 
    3.9062400000e+01 -1.3032248000e+03  4.7749440000e+02 ] stress_259 gradient
 [ -1.0243980000e-01 -1.0853134500e-02 -3.8247920000e+03 -1.8183617000e+03 
    8.3562300000e+01 -1.2498772000e+03  5.3137920000e+02 ] stress_260 gradient
 [ -1.0436460000e-01 -1.1888690000e-02 -3.8250180000e+03 -1.8123685000e+03 
    8.2845500000e+01 -1.2505332000e+03  5.3073840000e+02 ] stress_261 gradient
 [ -2.2826460000e-01 -1.3698802500e-02 -3.8544072000e+03 -1.4294827000e+03 
    4.2940200000e+01 -1.3091840000e+03  4.7344440000e+02 ] stress_262 gradient
 [ -4.8943180000e-01 -1.4613446000e-02 -3.9933192000e+03 -6.2176190000e+02 
   -2.4138500000e+01 -1.4777844000e+03  3.0874600000e+02 ] stress_263 gradient
 [ -5.4181960000e-01 -1.4807232500e-02 -4.0466884000e+03 -4.5871100000e+02 
   -3.4243800000e+01 -1.5204684000e+03  2.6705000000e+02 ] stress_264 gradient
 [ -5.4108740000e-01 -1.4606992000e-02 -4.0465974000e+03 -4.6297340000e+02 
   -3.3954100000e+01 -1.5202656000e+03  2.6725360000e+02 ] stress_265 gradient
 [ -5.3255400000e-01 -1.4177487000e-02 -4.0451948000e+03 -5.1059080000e+02 
   -3.0662300000e+01 -1.5176828000e+03  2.6984720000e+02 ] stress_266 gradient
 [ -5.0040240000e-01 -1.3573487500e-02 -4.0384316000e+03 -6.8289030000e+02 
   -1.8593000000e+01 -1.5070828000e+03  2.8049120000e+02 ] stress_267 gradient
 [ -4.2709060000e-01 -1.2865391000e-02 -4.0187940000e+03 -1.0596230000e+03 
    8.1072999997e+00 -1.4807700000e+03  3.0691320000e+02 ] stress_268 gradient
 [ -3.0320160000e-01 -1.2111961000e-02 -3.9761462000e+03 -1.6677318000e+03 
    5.1689200000e+01 -1.4322756000e+03  3.5560960000e+02 ] stress_269 gradient
 [ -1.3329580000e-01 -1.1341279500e-02 -3.8997708000e+03 -2.4595094000e+03 
    1.0906860000e+02 -1.3595020000e+03  4.2868600000e+02 ] stress_270 gradient
 [  6.5966400000e-02 -1.0549330500e-02 -3.7806782000e+03 -3.3333511000e+03 
    1.7313860000e+02 -1.2656936000e+03  5.2288480000e+02 ] stress_271 gradient
 [  2.7313060000e-01 -9.7136035000e-03 -3.6131784000e+03 -4.1774481000e+03 
    2.3584570000e+02 -1.1579056000e+03  6.3112160000e+02 ] stress_272 gradient
 [  4.6914720000e-01 -8.8105805000e-03 -3.3955178000e+03 -4.9056315000e+03 
    2.9082180000e+02 -1.0444536000e+03  7.4504560000e+02 ] stress_273 gradient
 [  6.4151660000e-01 -7.8259095000e-03 -3.1293872000e+03 -5.4727220000e+03 
    3.3458630000e+02 -9.3262840000e+02  8.5733640000e+02 ] stress_274 gradient
 [  7.8463884000e-01 -6.7574749000e-03 -2.8190770000e+03 -5.8702108700e+03 
    3.6631116000e+02 -8.2761840000e+02  9.6278360000e+02 ] stress_275 gradient
 [  8.9815134000e-01 -5.6134974500e-03 -2.4706072200e+03 -6.1137265100e+03 
    3.8695377000e+02 -7.3241884000e+02  1.0583794000e+03 ] stress_276 gradient
 [  9.8483902000e-01 -4.4086221500e-03 -2.0908991600e+03 -6.2305698300e+03 
    3.9836538000e+02 -6.4823616000e+02  1.1429125200e+03 ] stress_277 gradient
 [  1.0488679200e+00 -3.1607931000e-03 -1.6872867000e+03 -6.2506724600e+03 
    4.0263128000e+02 -5.7507584000e+02  1.2163773600e+03 ] stress_278 gradient
 [  1.0946583400e+00 -1.8889343500e-03 -1.2671556800e+03 -6.2015649300e+03 
    4.0169669000e+02 -5.1224048000e+02  1.2794743200e+03 ] stress_279 gradient
 [  1.1262762000e+00 -6.1165835000e-04 -8.3774164000e+02 -6.1062374600e+03 
    3.9720186000e+02 -4.5869640000e+02  1.3332412800e+03 ] stress_280 gradient
 [  1.1471817000e+00  6.5335000000e-04 -4.0601910000e+02 -5.9827457100e+03 
    3.9044559000e+02 -4.1330808000e+02  1.3788185600e+03 ] stress_281 gradient
 [  1.1601829400e+00  1.8895857500e-03  2.1366600000e+01 -5.8446730000e+03 
    3.8241277000e+02 -3.7497204000e+02  1.4173141600e+03 ] stress_282 gradient
 [  1.1674890000e+00  3.0817330000e-03  4.3812260000e+02 -5.7019139000e+03 
    3.7382700000e+02 -3.4268520000e+02  1.4497356000e+03 ] stress_283 gradient
 [  1.1708028000e+00  4.2157670000e-03  8.3837900000e+02 -5.5614698000e+03 
    3.6520560000e+02 -3.1556720000e+02  1.4769664000e+03 ] stress_284 gradient
 [  1.1714162000e+00  5.2787125000e-03  1.2166378000e+03 -5.4281913000e+03 
    3.5691120000e+02 -2.9287240000e+02  1.4997556000e+03 ] stress_285 gradient
 [  1.1703006000e+00  6.2588785000e-03  1.5678874000e+03 -5.3053305000e+03 
    3.4919130000e+02 -2.7397280000e+02  1.5187340000e+03 ] stress_286 gradient
 [  1.1681792000e+00  7.1456805000e-03  1.8875630000e+03 -5.1950175000e+03 
    3.4221120000e+02 -2.5835120000e+02  1.5344204000e+03 ] stress_287 gradient
 [  1.1655866000e+00  7.9295740000e-03  2.1715392000e+03 -5.0986122000e+03 
    3.3607940000e+02 -2.4558920000e+02  1.5472356000e+03 ] stress_288 gradient
 [  1.1629150000e+00  8.6024100000e-03  2.4162726000e+03 -5.0169158000e+03 
    3.3086320000e+02 -2.3534720000e+02  1.5575204000e+03 ] stress_289 gradient
 [  1.1604478000e+00  9.1571645000e-03  2.6187106000e+03 -4.9503916000e+03 
    3.2660330000e+02 -2.2735920000e+02  1.5655412000e+03 ] stress_290 gradient
 [  1.1583880000e+00  9.5880145000e-03  2.7763274000e+03 -4.8992893000e+03 
    3.2332410000e+02 -2.2142200000e+02  1.5715032000e+03 ] stress_291 gradient
 [  1.1568736000e+00  9.8906165000e-03  2.8872268000e+03 -4.8637077000e+03 
    3.2103760000e+02 -2.1738520000e+02  1.5755572000e+03 ] stress_292 gradient
 [  1.1559944000e+00  1.0061779500e-02  2.9500268000e+03 -4.8436977000e+03 
    3.1975060000e+02 -2.1514800000e+02  1.5778036000e+03 ] stress_293 gradient
 [  1.1559812000e+00  1.0064306500e-02  2.9509544000e+03 -4.8434029000e+03 
    3.1973160000e+02 -2.1511560000e+02  1.5778360000e+03 ] stress_294 gradient
 [  9.9486340000e-01  8.7405910000e-03  2.9074126000e+03 -3.6002246000e+03 
    2.5567580000e+02 -2.5877720000e+02  1.5341992000e+03 ] stress_295 gradient
 [  6.9473460000e-01  7.7671820000e-03  2.7758730000e+03 -1.4336186000e+03 
    1.4159420000e+02 -3.5383320000e+02  1.4391972000e+03 ] stress_296 gradient
 [  6.9473460000e-01  8.3956680000e-03  2.7758730000e+03 -1.4336186000e+03 
    1.4159420000e+02 -3.5383320000e+02  1.4391972000e+03 ] stress_297 gradient
 [  6.9475580000e-01  1.0547034500e-02  2.7758882000e+03 -1.4335403000e+03 
    1.4159600000e+02 -3.5381000000e+02  1.4392204000e+03 ] stress_298 gradient
 [  6.9477040000e-01  1.0644891000e-02  2.7759010000e+03 -1.4334356000e+03 
    1.4159250000e+02 -3.5378120000e+02  1.4392492000e+03 ] stress_299 gradient
 [  6.9134400000e-01  1.0445471000e-02  2.7753518000e+03 -1.4054131000e+03 
    1.4016580000e+02 -3.5454120000e+02  1.4384900000e+03 ] stress_300 gradient
 [  6.7282100000e-01  1.0123820000e-02  2.7714838000e+03 -1.2594842000e+03 
    1.3260890000e+02 -3.5905520000e+02  1.4339780000e+03 ] stress_301 gradient
 [  6.2768420000e-01  9.7223085000e-03  2.7596030000e+03 -9.1531140000e+02 
    1.1455990000e+02 -3.7101240000e+02  1.4220280000e+03 ] stress_302 gradient
 [  5.4937020000e-01  9.2748980000e-03  2.7338902000e+03 -3.3639660000e+02 
    8.3883200000e+01 -3.9343080000e+02  1.3996220000e+03 ] stress_303 gradient
 [  4.3798600000e-01  8.7995080000e-03  2.6883022000e+03  4.6188340000e+02 
    4.1198500000e+01 -4.2779640000e+02  1.3652760000e+03 ] stress_304 gradient
 [  2.9950760000e-01  8.2993445000e-03  2.6174452000e+03  1.4232377000e+03 
   -1.0622100000e+01 -4.7379360000e+02  1.3193048000e+03 ] stress_305 gradient
 [  1.4318720000e-01  7.7669520000e-03  2.5170590000e+03  2.4726507000e+03 
   -6.7609200000e+01 -5.2968440000e+02  1.2634456000e+03 ] stress_306 gradient
 [ -2.0970800000e-02  7.1903440000e-03  2.3842652000e+03  3.5355971000e+03 
   -1.2573700000e+02 -5.9289080000e+02  1.2002752000e+03 ] stress_307 gradient
 [ -1.8404440000e-01  6.5578345000e-03  2.2176008000e+03  4.5504994000e+03 
   -1.8162270000e+02 -6.6056880000e+02  1.1326352000e+03 ] stress_308 gradient
 [ -3.3925520000e-01  5.8604515000e-03  2.0167736000e+03  5.4746055000e+03 
   -2.3287490000e+02 -7.3009000000e+02  1.0631540000e+03 ] stress_309 gradient
 [ -4.8209234000e-01  5.0932882000e-03  1.7825090400e+03  6.2832034100e+03 
   -2.7807375000e+02 -7.9925348000e+02  9.9402952000e+02 ] stress_310 gradient
 [ -6.1010062000e-01  4.2552467500e-03  1.5162761400e+03  6.9666842800e+03 
   -3.1662503000e+02 -8.6639136000e+02  9.2692976000e+02 ] stress_311 gradient
 [ -7.2242582000e-01  3.3483438000e-03  1.2200649200e+03  7.5263611700e+03 
   -3.4853961000e+02 -9.3035084000e+02  8.6300652000e+02 ] stress_312 gradient
 [ -8.1931054400e-01  2.3770996950e-03  8.9628764400e+02  7.9704295250e+03 
   -3.7421498400e+02 -9.9040511600e+02  8.0298630000e+02 ] stress_313 gradient
 [ -9.0171308000e-01  1.3475454000e-03  5.4757632000e+02  8.3109949200e+03 
   -3.9427306000e+02 -1.0461784400e+03  7.4724460000e+02 ] stress_314 gradient
 [ -9.7097382000e-01  2.6671500000e-04  1.7672316000e+02  8.5617313100e+03 
   -4.0943076000e+02 -1.0975480000e+03  6.9590420000e+02 ] stress_315 gradient
 [ -1.0285909200e+00 -8.5777405000e-04 -2.1337482000e+02  8.7363982900e+03 
   -4.2041729000e+02 -1.1445661600e+03  6.4891268000e+02 ] stress_316 gradient
 [ -1.0760782800e+00 -2.0181160000e-03 -6.1979168000e+02  8.8479696900e+03 
   -4.2792499000e+02 -1.1874031200e+03  6.0610000000e+02 ] stress_317 gradient
 [ -1.1148722000e+00 -3.2064340000e-03 -1.0395762000e+03  8.9081525000e+03 
   -4.3258150000e+02 -1.2262968000e+03  5.6722800000e+02 ] stress_318 gradient
 [ -1.1462868000e+00 -4.4149385000e-03 -1.4697864000e+03  8.9272102000e+03 
   -4.3493950000e+02 -1.2615232000e+03  5.3202200000e+02 ] stress_319 gradient
 [ -1.1714922000e+00 -5.6360325000e-03 -1.9075190000e+03  8.9139504000e+03 
   -4.3547440000e+02 -1.2933704000e+03  5.0019280000e+02 ] stress_320 gradient
 [ -1.1915112000e+00 -6.8622570000e-03 -2.3498870000e+03  8.8758118000e+03 
   -4.3458890000e+02 -1.3221248000e+03  4.7145480000e+02 ] stress_321 gradient
 [ -1.2072272000e+00 -8.0864250000e-03 -2.7940724000e+03  8.8190005000e+03 
   -4.3262010000e+02 -1.3480620000e+03  4.4553240000e+02 ] stress_322 gradient
 [ -1.2193942000e+00 -9.3015040000e-03 -3.2372870000e+03  8.7486482000e+03 
   -4.2984740000e+02 -1.3714392000e+03  4.2216840000e+02 ] stress_323 gradient
 [ -1.2286518000e+00 -1.0500733000e-02 -3.6768218000e+03  8.6689619000e+03 
   -4.2650030000e+02 -1.3924936000e+03  4.0112560000e+02 ] stress_324 gradient
 [ -1.2355410000e+00 -1.1677639000e-02 -4.1100592000e+03  8.5833644000e+03 
   -4.2276650000e+02 -1.4114448000e+03  3.8218560000e+02 ] stress_325 gradient
 [ -1.2405142000e+00 -1.2825855000e-02 -4.5344110000e+03  8.4946379000e+03 
   -4.1879850000e+02 -1.4284856000e+03  3.6515400000e+02 ] stress_326 gradient
 [ -1.2439524000e+00 -1.3939429500e-02 -4.9474382000e+03  8.4050126000e+03 
   -4.1471970000e+02 -1.4437944000e+03  3.4985400000e+02 ] stress_327 gradient
 [ -1.2461726000e+00 -1.5012445000e-02 -5.3467144000e+03  8.3162939000e+03 
   -4.1062980000e+02 -1.4575248000e+03  3.3613120000e+02 ] stress_328 gradient
 [ -1.2474400000e+00 -1.6039495000e-02 -5.7300048000e+03  8.2299057000e+03 
   -4.0660800000e+02 -1.4698180000e+03  3.2384520000e+02 ] stress_329 gradient
 [ -1.2479752000e+00 -1.7015350500e-02 -6.0951478000e+03  8.1469853000e+03 
   -4.0271810000e+02 -1.4807968000e+03  3.1287240000e+02 ] stress_330 gradient
 [ -1.2479614000e+00 -1.7935004500e-02 -6.4400722000e+03  8.0684383000e+03 
   -3.9901090000e+02 -1.4905688000e+03  3.0310600000e+02 ] stress_331 gradient
 [ -1.2475510000e+00 -1.8793908000e-02 -6.7628882000e+03  7.9949653000e+03 
   -3.9552630000e+02 -1.4992300000e+03  2.9445000000e+02 ] stress_332 gradient
 [ -1.2468700000e+00 -1.9587690000e-02 -7.0617840000e+03  7.9271254000e+03 
   -3.9229600000e+02 -1.5068620000e+03  2.8682240000e+02 ] stress_333 gradient
 [ -1.2460222000e+00 -2.0312432500e-02 -7.3351304000e+03  7.8653443000e+03 
   -3.8934470000e+02 -1.5135376000e+03  2.8015080000e+02 ] stress_334 gradient
 [ -1.2450934000e+00 -2.0964607000e-02 -7.5814586000e+03  7.8099466000e+03 
   -3.8669130000e+02 -1.5193192000e+03  2.7437200000e+02 ] stress_335 gradient
 [ -1.2441536000e+00 -2.1540782000e-02 -7.7993496000e+03  7.7612024000e+03 
   -3.8435150000e+02 -1.5242584000e+03  2.6943560000e+02 ] stress_336 gradient
 [ -1.2432596000e+00 -2.2038285000e-02 -7.9876862000e+03  7.7192879000e+03 
   -3.8233600000e+02 -1.5284012000e+03  2.6529520000e+02 ] stress_337 gradient
 [ -1.2424568000e+00 -2.2454576000e-02 -8.1454154000e+03  7.6843532000e+03 
   -3.8065380000e+02 -1.5317844000e+03  2.6191400000e+02 ] stress_338 gradient
 [ -1.2417808000e+00 -2.2787580500e-02 -8.2716758000e+03  7.6565049000e+03 
   -3.7931130000e+02 -1.5344376000e+03  2.5926240000e+02 ] stress_339 gradient
 [ -1.2412586000e+00 -2.3035723000e-02 -8.3658102000e+03  7.6358125000e+03 
   -3.7831310000e+02 -1.5363852000e+03  2.5731600000e+02 ] stress_340 gradient
 [ -1.2409092000e+00 -2.3197746500e-02 -8.4272976000e+03  7.6223296000e+03 
   -3.7766230000e+02 -1.5376428000e+03  2.5605880000e+02 ] stress_341 gradient
 [ -1.2407450000e+00 -2.3272822500e-02 -8.4557948000e+03  7.6160899000e+03 
   -3.7736090000e+02 -1.5382220000e+03  2.5548000000e+02 ] stress_342 gradient



---------------------
Begin Evaluation    9
---------------------
Parameters for evaluation 9:
                      4.9973517342e+02 fy
                      1.9997853558e+05 E
                      4.9994506193e-01 b
                      1.0000083846e+00 cR1
                      9.9983181649e-01 cR2
                      2.4968035820e-01 a1
                      2.5000497148e-01 a3

blocking fork: workflow_driver1 paramsDakota.in results.out

Active response data for evaluation 9:
Active set vector = { 1 1 1 1 1 1 1 1 1 1 1 1 1 1 1 1 1 1 1 1 1 1 1 1 1 1 1 1 1 1 1 1 1 1 1 1 1 1 1 1 1 1 1 1 1 1 1 1 1 1 1 1 1 1 1 1 1 1 1 1 1 1 1 1 1 1 1 1 1 1 1 1 1 1 1 1 1 1 1 1 1 1 1 1 1 1 1 1 1 1 1 1 1 1 1 1 1 1 1 1 1 1 1 1 1 1 1 1 1 1 1 1 1 1 1 1 1 1 1 1 1 1 1 1 1 1 1 1 1 1 1 1 1 1 1 1 1 1 1 1 1 1 1 1 1 1 1 1 1 1 1 1 1 1 1 1 1 1 1 1 1 1 1 1 1 1 1 1 1 1 1 1 1 1 1 1 1 1 1 1 1 1 1 1 1 1 1 1 1 1 1 1 1 1 1 1 1 1 1 1 1 1 1 1 1 1 1 1 1 1 1 1 1 1 1 1 1 1 1 1 1 1 1 1 1 1 1 1 1 1 1 1 1 1 1 1 1 1 1 1 1 1 1 1 1 1 1 1 1 1 1 1 1 1 1 1 1 1 1 1 1 1 1 1 1 1 1 1 1 1 1 1 1 1 1 1 1 1 1 1 1 1 1 1 1 1 1 1 1 1 1 1 1 1 1 1 1 1 1 1 1 1 1 1 1 1 1 1 1 1 1 1 1 1 1 1 1 1 1 1 1 1 1 1 1 1 1 1 1 1 1 1 1 1 1 1 1 1 1 1 1 1 }
                      2.3303972701e+00 stress_1
                     -2.4219454220e+02 stress_2
                     -6.5394318234e+02 stress_3
                     -6.9459183699e+02 stress_4
                     -3.7717440654e+02 stress_5
                      9.8848649330e+01 stress_6
                      4.3003010030e+02 stress_7
                      4.3303480154e+02 stress_8
                      1.9250889405e+02 stress_9
                     -2.1828460431e+02 stress_10
                     -6.8445780582e+02 stress_11
                     -9.2848222416e+02 stress_12
                     -1.0721140655e+03 stress_13
                     -1.0852786254e+03 stress_14
                     -7.6309773041e+02 stress_15
                     -9.2470816334e+02 stress_16
                     -1.1096397577e+03 stress_17
                     -9.2174874500e+02 stress_18
                     -5.7012763471e+02 stress_19
                     -1.1683076832e+02 stress_20
                      2.9133738912e+02 stress_21
                      5.3854284132e+02 stress_22
                      6.9508843868e+02 stress_23
                      7.6011514814e+02 stress_24
                      4.3726512854e+02 stress_25
                      5.6053151790e+02 stress_26
                      6.9965049320e+02 stress_27
                      7.3713839021e+02 stress_28
                      6.1881379053e+02 stress_29
                      4.0799607261e+02 stress_30
                      1.1360060339e+02 stress_31
                     -2.4819282263e+02 stress_32
                     -6.1691692978e+02 stress_33
                     -9.0659501464e+02 stress_34
                     -1.1577108481e+03 stress_35
                     -1.3995231489e+03 stress_36
                     -1.6294172569e+03 stress_37
                     -1.8390849334e+03 stress_38
                     -2.0200762062e+03 stress_39
                     -2.1648411530e+03 stress_40
                     -2.2674330711e+03 stress_41
                     -2.3235609184e+03 stress_42
                     -2.3086791197e+03 stress_43
                     -1.9256946613e+03 stress_44
                     -1.5971039441e+03 stress_45
                     -1.7955170477e+03 stress_46
                     -2.1578746601e+03 stress_47
                     -1.8681294556e+03 stress_48
                     -1.9671720250e+03 stress_49
                     -2.1217614232e+03 stress_50
                     -2.3504249406e+03 stress_51
                     -2.1864683319e+03 stress_52
                     -1.8360939413e+03 stress_53
                     -1.4043881829e+03 stress_54
                     -1.0261058799e+03 stress_55
                     -7.7615451915e+02 stress_56
                     -6.7345388524e+02 stress_57
                     -7.5657254382e+02 stress_58
                     -1.0680069145e+03 stress_59
                     -1.5176092456e+03 stress_60
                     -1.9689526426e+03 stress_61
                     -2.2424982801e+03 stress_62
                     -2.3127585221e+03 stress_63
                     -2.0518443224e+03 stress_64
                     -1.6094632439e+03 stress_65
                     -1.4616213321e+03 stress_66
                     -1.7247156930e+03 stress_67
                     -2.1812488545e+03 stress_68
                     -2.4120057380e+03 stress_69
                     -2.4154086903e+03 stress_70
                     -2.3235638760e+03 stress_71
                     -2.1553235043e+03 stress_72
                     -1.9165965427e+03 stress_73
                     -1.6197259319e+03 stress_74
                     -1.2881780096e+03 stress_75
                     -9.5246472806e+02 stress_76
                     -6.3406675591e+02 stress_77
                     -3.3758854461e+02 stress_78
                     -5.9246002933e+01 stress_79
                      2.0394638216e+02 stress_80
                      4.5174528209e+02 stress_81
                      6.8147452308e+02 stress_82
                      8.8921193888e+02 stress_83
                      1.0706957417e+03 stress_84
                      1.2217811564e+03 stress_85
                      1.3388780576e+03 stress_86
                      1.4191298021e+03 stress_87
                      1.4604791160e+03 stress_88
                      1.3895293129e+03 stress_89
                      9.4999692416e+02 stress_90
                      6.8295424453e+02 stress_91
                      9.6242356806e+02 stress_92
                      1.3670516485e+03 stress_93
                      1.3802355122e+03 stress_94
                      1.3223015665e+03 stress_95
                      1.2178478405e+03 stress_96
                      1.0687782317e+03 stress_97
                      8.7905962468e+02 stress_98
                      6.5588162122e+02 stress_99
                      4.0959740216e+02 stress_100
                      1.5146276993e+02 stress_101
                     -1.0948430975e+02 stress_102
                     -3.6840897382e+02 stress_103
                     -6.2420375251e+02 stress_104
                     -8.7760040340e+02 stress_105
                     -1.1297008567e+03 stress_106
                     -1.3811219733e+03 stress_107
                     -1.6317793560e+03 stress_108
                     -1.8809520739e+03 stress_109
                     -2.1274409841e+03 stress_110
                     -2.3697025317e+03 stress_111
                     -2.6059537897e+03 stress_112
                     -2.8343174236e+03 stress_113
                     -3.0528667562e+03 stress_114
                     -3.2596716744e+03 stress_115
                     -3.4528637066e+03 stress_116
                     -3.6306439251e+03 stress_117
                     -3.7913743313e+03 stress_118
                     -3.9335423213e+03 stress_119
                     -4.0557684638e+03 stress_120
                     -4.1569170867e+03 stress_121
                     -4.2360078662e+03 stress_122
                     -4.2922711160e+03 stress_123
                     -4.3251870425e+03 stress_124
                     -4.3340297981e+03 stress_125
                     -4.2359994191e+03 stress_126
                     -3.9990353620e+03 stress_127
                     -3.6750714386e+03 stress_128
                     -3.3229154558e+03 stress_129
                     -2.9884954394e+03 stress_130
                     -2.7040406162e+03 stress_131
                     -2.4927229665e+03 stress_132
                     -2.3711061787e+03 stress_133
                     -2.3637465040e+03 stress_134
                     -2.7618271301e+03 stress_135
                     -2.7848830464e+03 stress_136
                     -2.6039303093e+03 stress_137
                     -2.6387047768e+03 stress_138
                     -2.8058588217e+03 stress_139
                     -3.1247343692e+03 stress_140
                     -3.5418572911e+03 stress_141
                     -3.9401071033e+03 stress_142
                     -4.2041252173e+03 stress_143
                     -4.3731002059e+03 stress_144
                     -4.4581049965e+03 stress_145
                     -4.4384886702e+03 stress_146
                     -4.2118303617e+03 stress_147
                     -3.8528395072e+03 stress_148
                     -3.4723490077e+03 stress_149
                     -3.1602154032e+03 stress_150
                     -2.9729116446e+03 stress_151
                     -2.9446428433e+03 stress_152
                     -3.1534416314e+03 stress_153
                     -3.5431607457e+03 stress_154
                     -3.9846280372e+03 stress_155
                     -4.2626256912e+03 stress_156
                     -4.3671396898e+03 stress_157
                     -4.2496253272e+03 stress_158
                     -3.8477246905e+03 stress_159
                     -3.6152746162e+03 stress_160
                     -3.7758501810e+03 stress_161
                     -4.1964041366e+03 stress_162
                     -4.4387552422e+03 stress_163
                     -4.4666674854e+03 stress_164
                     -4.4265490256e+03 stress_165
                     -4.3479831964e+03 stress_166
                     -4.2331944640e+03 stress_167
                     -4.0856844224e+03 stress_168
                     -3.9101603766e+03 stress_169
                     -3.7117344542e+03 stress_170
                     -3.4954109032e+03 stress_171
                     -3.2655448837e+03 stress_172
                     -3.0255900612e+03 stress_173
                     -2.7781749397e+03 stress_174
                     -2.5251299007e+03 stress_175
                     -2.2677797341e+03 stress_176
                     -2.0071404264e+03 stress_177
                     -1.7440489373e+03 stress_178
                     -1.4793293172e+03 stress_179
                     -1.2138294791e+03 stress_180
                     -9.4845444472e+02 stress_181
                     -6.8421693150e+02 stress_182
                     -4.2219652202e+02 stress_183
                     -1.6356180310e+02 stress_184
                      9.0471579747e+01 stress_185
                      3.3863702225e+02 stress_186
                      5.7964364283e+02 stress_187
                      8.1220071667e+02 stress_188
                      1.0350125478e+03 stress_189
                      1.2468198729e+03 stress_190
                      1.4464036322e+03 stress_191
                      1.6325700570e+03 stress_192
                      1.8042382039e+03 stress_193
                      1.9603693755e+03 stress_194
                      2.0999949978e+03 stress_195
                      2.2222881833e+03 stress_196
                      2.3264709060e+03 stress_197
                      2.4119196513e+03 stress_198
                      2.4781057424e+03 stress_199
                      2.5245968119e+03 stress_200
                      2.5511199386e+03 stress_201
                      2.5524190251e+03 stress_202
                      2.2187877750e+03 stress_203
                      1.8679807217e+03 stress_204
                      1.9727876724e+03 stress_205
                      2.4096979823e+03 stress_206
                      2.4330093599e+03 stress_207
                      2.3712826821e+03 stress_208
                      2.2624550140e+03 stress_209
                      2.1129312683e+03 stress_210
                      1.9301679001e+03 stress_211
                      1.7213749371e+03 stress_212
                      1.4926063189e+03 stress_213
                      1.2486989856e+03 stress_214
                      9.9332494796e+02 stress_215
                      7.2932737750e+02 stress_216
                      4.5907920786e+02 stress_217
                      1.8467763331e+02 stress_218
                     -9.1860519209e+01 stress_219
                     -3.6848737194e+02 stress_220
                     -6.4310767667e+02 stress_221
                     -9.1354594869e+02 stress_222
                     -1.1775731510e+03 stress_223
                     -1.4329158443e+03 stress_224
                     -1.6773124741e+03 stress_225
                     -1.9085257882e+03 stress_226
                     -2.1243819492e+03 stress_227
                     -2.3228407273e+03 stress_228
                     -2.5019367462e+03 stress_229
                     -2.6599307895e+03 stress_230
                     -2.7952530301e+03 stress_231
                     -2.9065066919e+03 stress_232
                     -2.9926077142e+03 stress_233
                     -3.0526724709e+03 stress_234
                     -3.0860624239e+03 stress_235
                     -3.0798161627e+03 stress_236
                     -2.7324608665e+03 stress_237
                     -2.4205824505e+03 stress_238
                     -2.6358879747e+03 stress_239
                     -2.9512749419e+03 stress_240
                     -2.6333113180e+03 stress_241
                     -2.4458031807e+03 stress_242
                     -2.7805344133e+03 stress_243
                     -2.9396369447e+03 stress_244
                     -3.1382776383e+03 stress_245
                     -2.9613632585e+03 stress_246
                     -2.6228182595e+03 stress_247
                     -2.2306797575e+03 stress_248
                     -1.8830429251e+03 stress_249
                     -1.6439715786e+03 stress_250
                     -1.5498202762e+03 stress_251
                     -1.6513173355e+03 stress_252
                     -1.9722824639e+03 stress_253
                     -2.4045050850e+03 stress_254
                     -2.7873521150e+03 stress_255
                     -3.0207879233e+03 stress_256
                     -3.0812926350e+03 stress_257
                     -2.8156008085e+03 stress_258
                     -2.4027216954e+03 stress_259
                     -2.2206443957e+03 stress_260
                     -2.4287032819e+03 stress_261
                     -2.8528384606e+03 stress_262
                     -3.1663628722e+03 stress_263
                     -3.2312806408e+03 stress_264
                     -3.1908682138e+03 stress_265
                     -3.1006887118e+03 stress_266
                     -2.9637702450e+03 stress_267
                     -2.7854264959e+03 stress_268
                     -2.5727328096e+03 stress_269
                     -2.3336220825e+03 stress_270
                     -2.0756409882e+03 stress_271
                     -1.8050083839e+03 stress_272
                     -1.5265247426e+03 stress_273
                     -1.2435459003e+03 stress_274
                     -9.5843151919e+02 stress_275
                     -6.7299864899e+02 stress_276
                     -3.8878157148e+02 stress_277
                     -1.0728744607e+02 stress_278
                      1.6990611323e+02 stress_279
                      4.4110666467e+02 stress_280
                      7.0450478371e+02 stress_281
                      9.5820171691e+02 stress_282
                      1.2002377101e+03 stress_283
                      1.4286583581e+03 stress_284
                      1.6415146871e+03 stress_285
                      1.8369539509e+03 stress_286
                      2.0132208997e+03 stress_287
                      2.1686742792e+03 stress_288
                      2.3018806318e+03 stress_289
                      2.4115773264e+03 stress_290
                      2.4967013270e+03 stress_291
                      2.5564532654e+03 stress_292
                      2.5902396651e+03 stress_293
                      2.5907385059e+03 stress_294
                      2.2452723542e+03 stress_295
                      1.9004608148e+03 stress_296
                      2.0261445248e+03 stress_297
                      2.4563821993e+03 stress_298
                      2.4759587586e+03 stress_299
                      2.4343570337e+03 stress_300
                      2.3607393468e+03 stress_301
                      2.2578233643e+03 stress_302
                      2.1291354636e+03 stress_303
                      1.9783336573e+03 stress_304
                      1.8090617531e+03 stress_305
                      1.6244598550e+03 stress_306
                      1.4271292028e+03 stress_307
                      1.2191844600e+03 stress_308
                      1.0022101939e+03 stress_309
                      7.7747160669e+02 stress_310
                      5.4596999815e+02 stress_311
                      3.0853166585e+02 stress_312
                      6.5937257363e+01 stress_313
                     -1.8108676477e+02 stress_314
                     -4.3180344469e+02 stress_315
                     -6.8543742770e+02 stress_316
                     -9.4118346634e+02 stress_317
                     -1.1981833550e+03 stress_318
                     -1.4555347606e+03 stress_319
                     -1.7123031818e+03 stress_320
                     -1.9675072125e+03 stress_321
                     -2.2201505929e+03 stress_322
                     -2.4692034017e+03 stress_323
                     -2.7136334002e+03 stress_324
                     -2.9524157242e+03 stress_325
                     -3.1845037702e+03 stress_326
                     -3.4088972794e+03 stress_327
                     -3.6245716291e+03 stress_328
                     -3.8305782046e+03 stress_329
                     -4.0259814528e+03 stress_330
                     -4.2098719492e+03 stress_331
                     -4.3814160294e+03 stress_332
                     -4.5398027989e+03 stress_333
                     -4.6843008808e+03 stress_334
                     -4.8142472699e+03 stress_335
                     -4.9289911021e+03 stress_336
                     -5.0280262419e+03 stress_337
                     -5.1108675448e+03 stress_338
                     -5.1771180309e+03 stress_339
                     -5.2264760243e+03 stress_340
                     -5.2586999950e+03 stress_341
                     -5.2736304946e+03 stress_342



---------------------
Begin Evaluation   10
---------------------
Parameters for evaluation 10:
                      4.9894110307e+02 fy
                      1.9991412742e+05 E
                      4.9978020603e-01 b
                      1.0000334581e+00 cR1
                      9.9932905861e-01 cR2
                      2.4872150643e-01 a1
                      2.5001979142e-01 a3

blocking fork: workflow_driver1 paramsDakota.in results.out

Active response data for evaluation 10:
Active set vector = { 1 1 1 1 1 1 1 1 1 1 1 1 1 1 1 1 1 1 1 1 1 1 1 1 1 1 1 1 1 1 1 1 1 1 1 1 1 1 1 1 1 1 1 1 1 1 1 1 1 1 1 1 1 1 1 1 1 1 1 1 1 1 1 1 1 1 1 1 1 1 1 1 1 1 1 1 1 1 1 1 1 1 1 1 1 1 1 1 1 1 1 1 1 1 1 1 1 1 1 1 1 1 1 1 1 1 1 1 1 1 1 1 1 1 1 1 1 1 1 1 1 1 1 1 1 1 1 1 1 1 1 1 1 1 1 1 1 1 1 1 1 1 1 1 1 1 1 1 1 1 1 1 1 1 1 1 1 1 1 1 1 1 1 1 1 1 1 1 1 1 1 1 1 1 1 1 1 1 1 1 1 1 1 1 1 1 1 1 1 1 1 1 1 1 1 1 1 1 1 1 1 1 1 1 1 1 1 1 1 1 1 1 1 1 1 1 1 1 1 1 1 1 1 1 1 1 1 1 1 1 1 1 1 1 1 1 1 1 1 1 1 1 1 1 1 1 1 1 1 1 1 1 1 1 1 1 1 1 1 1 1 1 1 1 1 1 1 1 1 1 1 1 1 1 1 1 1 1 1 1 1 1 1 1 1 1 1 1 1 1 1 1 1 1 1 1 1 1 1 1 1 1 1 1 1 1 1 1 1 1 1 1 1 1 1 1 1 1 1 1 1 1 1 1 1 1 1 1 1 1 1 1 1 1 1 1 1 1 1 1 1 1 }
                      2.3296467064e+00 stress_1
                     -2.4211653724e+02 stress_2
                     -6.5320208691e+02 stress_3
                     -6.9373596304e+02 stress_4
                     -3.7642076494e+02 stress_5
                      9.9448968353e+01 stress_6
                      4.3047245218e+02 stress_7
                      4.3347306711e+02 stress_8
                      1.9302462710e+02 stress_9
                     -2.1763656478e+02 stress_10
                     -6.8362002155e+02 stress_11
                     -9.2743667131e+02 stress_12
                     -1.0709745278e+03 stress_13
                     -1.0841305039e+03 stress_14
                     -7.6205337828e+02 stress_15
                     -9.2361176047e+02 stress_16
                     -1.1084703072e+03 stress_17
                     -9.2063980961e+02 stress_18
                     -5.6913222980e+02 stress_19
                     -1.1604599127e+02 stress_20
                      2.9129989227e+02 stress_21
                      5.3808869999e+02 stress_22
                      6.9451063493e+02 stress_23
                      7.5949281631e+02 stress_24
                      4.3674679723e+02 stress_25
                      5.5997348553e+02 stress_26
                      6.9904768336e+02 stress_27
                      7.3652407124e+02 stress_28
                      6.1823758101e+02 stress_29
                      4.0748778647e+02 stress_30
                      1.1319039897e+02 stress_31
                     -2.4839293701e+02 stress_32
                     -6.1640469978e+02 stress_33
                     -9.0548447302e+02 stress_34
                     -1.1563795402e+03 stress_35
                     -1.3980319284e+03 stress_36
                     -1.6277774638e+03 stress_37
                     -1.8373093014e+03 stress_38
                     -2.0181830266e+03 stress_39
                     -2.1628538314e+03 stress_40
                     -2.2653789898e+03 stress_41
                     -2.3214703019e+03 stress_42
                     -2.3065932964e+03 stress_43
                     -1.9237513270e+03 stress_44
                     -1.5953850483e+03 stress_45
                     -1.7937342480e+03 stress_46
                     -2.1559750286e+03 stress_47
                     -1.8663308165e+03 stress_48
                     -1.9653414868e+03 stress_49
                     -2.1198810955e+03 stress_50
                     -2.3484650805e+03 stress_51
                     -2.1845620292e+03 stress_52
                     -1.8343390248e+03 stress_53
                     -1.4029996592e+03 stress_54
                     -1.0252041746e+03 stress_55
                     -7.7558357052e+02 stress_56
                     -6.7300687202e+02 stress_57
                     -7.5609876011e+02 stress_58
                     -1.0674328252e+03 stress_59
                     -1.5168887974e+03 stress_60
                     -1.9678894670e+03 stress_61
                     -2.2405177216e+03 stress_62
                     -2.3105424591e+03 stress_63
                     -2.0497144639e+03 stress_64
                     -1.6075560747e+03 stress_65
                     -1.4598379061e+03 stress_66
                     -1.7228475309e+03 stress_67
                     -2.1792087963e+03 stress_68
                     -2.4095556278e+03 stress_69
                     -2.4129548717e+03 stress_70
                     -2.3211396989e+03 stress_71
                     -2.1529562855e+03 stress_72
                     -1.9143327027e+03 stress_73
                     -1.6176733307e+03 stress_74
                     -1.2865169434e+03 stress_75
                     -9.5133302116e+02 stress_76
                     -6.3344110862e+02 stress_77
                     -3.3734764091e+02 stress_78
                     -5.9280673591e+01 stress_79
                      2.0370249252e+02 stress_80
                      4.5132881678e+02 stress_81
                      6.8090823629e+02 stress_82
                      8.8851398490e+02 stress_83
                      1.0698840013e+03 stress_84
                      1.2208749895e+03 stress_85
                      1.3378987209e+03 stress_86
                      1.4181002842e+03 stress_87
                      1.4594237253e+03 stress_88
                      1.3884970422e+03 stress_89
                      9.4919022542e+02 stress_90
                      6.8240706376e+02 stress_91
                      9.6178637710e+02 stress_92
                      1.3662821439e+03 stress_93
                      1.3794608183e+03 stress_94
                      1.3215456677e+03 stress_95
                      1.2171284359e+03 stress_96
                      1.0681239143e+03 stress_97
                      8.7852327397e+02 stress_98
                      6.5554669249e+02 stress_99
                      4.0956088395e+02 stress_100
                      1.5179714176e+02 stress_101
                     -1.0875995337e+02 stress_102
                     -3.6732435614e+02 stress_103
                     -6.2281097266e+02 stress_104
                     -8.7595046649e+02 stress_105
                     -1.1278329960e+03 stress_106
                     -1.3790626792e+03 stress_107
                     -1.6295453278e+03 stress_108
                     -1.8785537032e+03 stress_109
                     -2.1248851375e+03 stress_110
                     -2.3669944778e+03 stress_111
                     -2.6030984402e+03 stress_112
                     -2.8313200599e+03 stress_113
                     -3.0497334562e+03 stress_114
                     -3.2564095444e+03 stress_115
                     -3.4494809725e+03 stress_116
                     -3.6271499587e+03 stress_117
                     -3.7877795841e+03 stress_118
                     -3.9298582599e+03 stress_119
                     -4.0520074885e+03 stress_120
                     -4.1530923734e+03 stress_121
                     -4.2321332606e+03 stress_122
                     -4.2883609898e+03 stress_123
                     -4.3212561249e+03 stress_124
                     -4.3300932936e+03 stress_125
                     -4.2321052513e+03 stress_126
                     -3.9953267739e+03 stress_127
                     -3.6717475989e+03 stress_128
                     -3.3200866066e+03 stress_129
                     -2.9861415460e+03 stress_130
                     -2.7020667723e+03 stress_131
                     -2.4910113221e+03 stress_132
                     -2.3695372423e+03 stress_133
                     -2.3621860136e+03 stress_134
                     -2.7601383602e+03 stress_135
                     -2.7831868143e+03 stress_136
                     -2.6023207008e+03 stress_137
                     -2.6370839683e+03 stress_138
                     -2.8041841758e+03 stress_139
                     -3.1229553620e+03 stress_140
                     -3.5398166961e+03 stress_141
                     -3.9369113274e+03 stress_142
                     -4.2000682139e+03 stress_143
                     -4.3688125627e+03 stress_144
                     -4.4537428592e+03 stress_145
                     -4.4341331365e+03 stress_146
                     -4.2076044833e+03 stress_147
                     -3.8489895543e+03 stress_148
                     -3.4690297498e+03 stress_149
                     -3.1573647533e+03 stress_150
                     -2.9703392622e+03 stress_151
                     -2.9421118079e+03 stress_152
                     -3.1508433471e+03 stress_153
                     -3.5404352157e+03 stress_154
                     -3.9814796626e+03 stress_155
                     -4.2585433954e+03 stress_156
                     -4.3628671834e+03 stress_157
                     -4.2454021165e+03 stress_158
                     -3.8438476827e+03 stress_159
                     -3.6116906796e+03 stress_160
                     -3.7722145270e+03 stress_161
                     -4.1925885912e+03 stress_162
                     -4.4343994548e+03 stress_163
                     -4.4622896662e+03 stress_164
                     -4.4221854519e+03 stress_165
                     -4.3436565202e+03 stress_166
                     -4.2289431263e+03 stress_167
                     -4.0815634654e+03 stress_168
                     -3.9062347250e+03 stress_169
                     -3.7080679183e+03 stress_170
                     -3.4920554863e+03 stress_171
                     -3.2625343935e+03 stress_172
                     -3.0229390900e+03 stress_173
                     -2.7758817835e+03 stress_174
                     -2.5231815337e+03 stress_175
                     -2.2661566847e+03 stress_176
                     -2.0058206794e+03 stress_177
                     -1.7430105964e+03 stress_178
                     -1.4785520675e+03 stress_179
                     -1.2132952437e+03 stress_180
                     -9.4814749439e+02 stress_181
                     -6.8412365176e+02 stress_182
                     -4.2230506941e+02 stress_183
                     -1.6386169069e+02 stress_184
                      8.9989861861e+01 stress_185
                      3.3798235967e+02 stress_186
                      5.7882458881e+02 stress_187
                      8.1122572411e+02 stress_188
                      1.0338901641e+03 stress_189
                      1.2455588715e+03 stress_190
                      1.4450131113e+03 stress_191
                      1.6310595229e+03 stress_192
                      1.8026175771e+03 stress_193
                      1.9586490262e+03 stress_194
                      2.0981857499e+03 stress_195
                      2.2204012624e+03 stress_196
                      2.3245179386e+03 stress_197
                      2.4099125903e+03 stress_198
                      2.4760568252e+03 stress_199
                      2.5225185147e+03 stress_200
                      2.5490248875e+03 stress_201
                      2.5503231536e+03 stress_202
                      2.2170109923e+03 stress_203
                      1.8667455580e+03 stress_204
                      1.9715187530e+03 stress_205
                      2.4082883203e+03 stress_206
                      2.4315921656e+03 stress_207
                      2.3698951433e+03 stress_208
                      2.2611532910e+03 stress_209
                      2.1117939830e+03 stress_210
                      1.9292766515e+03 stress_211
                      1.7207962502e+03 stress_212
                      1.4923828212e+03 stress_213
                      1.2488493021e+03 stress_214
                      9.9384889576e+02 stress_215
                      7.3021248775e+02 stress_216
                      4.6030632787e+02 stress_217
                      1.8622496900e+02 stress_218
                     -9.0014978116e+01 stress_219
                     -3.6636463704e+02 stress_220
                     -6.4072730315e+02 stress_221
                     -9.1092606141e+02 stress_222
                     -1.1747306883e+03 stress_223
                     -1.4298669041e+03 stress_224
                     -1.6740726465e+03 stress_225
                     -1.9051104688e+03 stress_226
                     -2.1208065925e+03 stress_227
                     -2.3191210124e+03 stress_228
                     -2.4980887482e+03 stress_229
                     -2.6559710082e+03 stress_230
                     -2.7911984319e+03 stress_231
                     -2.9023747244e+03 stress_232
                     -2.9884162043e+03 stress_233
                     -3.0484395869e+03 stress_234
                     -3.0818065959e+03 stress_235
                     -3.0755623716e+03 stress_236
                     -2.7284550047e+03 stress_237
                     -2.4169882689e+03 stress_238
                     -2.6322238577e+03 stress_239
                     -2.9474840381e+03 stress_240
                     -2.6297282820e+03 stress_241
                     -2.4424338459e+03 stress_242
                     -2.7770508651e+03 stress_243
                     -2.9360767893e+03 stress_244
                     -3.1345738081e+03 stress_245
                     -2.9577443910e+03 stress_246
                     -2.6195178509e+03 stress_247
                     -2.2279191561e+03 stress_248
                     -1.8808210383e+03 stress_249
                     -1.6421186502e+03 stress_250
                     -1.5481088108e+03 stress_251
                     -1.6495730964e+03 stress_252
                     -1.9704159494e+03 stress_253
                     -2.4022885960e+03 stress_254
                     -2.7845472185e+03 stress_255
                     -3.0175671019e+03 stress_256
                     -3.0779687282e+03 stress_257
                     -2.8124154524e+03 stress_258
                     -2.3999554801e+03 stress_259
                     -2.2181171201e+03 stress_260
                     -2.4261065657e+03 stress_261
                     -2.8499353141e+03 stress_262
                     -3.1629563763e+03 stress_263
                     -3.2277618553e+03 stress_264
                     -3.1873633788e+03 stress_265
                     -3.0972239507e+03 stress_266
                     -2.9603917640e+03 stress_267
                     -2.7822033611e+03 stress_268
                     -2.5697472287e+03 stress_269
                     -2.3309516206e+03 stress_270
                     -2.0733423749e+03 stress_271
                     -1.8031101495e+03 stress_272
                     -1.5250289461e+03 stress_273
                     -1.2424356657e+03 stress_274
                     -9.5767952490e+02 stress_275
                     -6.7257387510e+02 stress_276
                     -3.8865363470e+02 stress_277
                     -1.0742870905e+02 stress_278
                      1.6951989271e+02 stress_279
                      4.4049652566e+02 stress_280
                      7.0368914114e+02 stress_281
                      9.5719704802e+02 stress_282
                      1.1990592120e+03 stress_283
                      1.4273204881e+03 stress_284
                      1.6400316146e+03 stress_285
                      1.8353398587e+03 stress_286
                      2.0114902090e+03 stress_287
                      2.1668417990e+03 stress_288
                      2.2999615957e+03 stress_289
                      2.4095874153e+03 stress_290
                      2.4946566430e+03 stress_291
                      2.5543702423e+03 stress_292
                      2.5881350003e+03 stress_293
                      2.5886335218e+03 stress_294
                      2.2434931266e+03 stress_295
                      1.8992062543e+03 stress_296
                      2.0248494846e+03 stress_297
                      2.4549485533e+03 stress_298
                      2.4745187733e+03 stress_299
                      2.4329348710e+03 stress_300
                      2.3593650908e+03 stress_301
                      2.2565419866e+03 stress_302
                      2.1280007081e+03 stress_303
                      1.9773996472e+03 stress_304
                      1.8083753209e+03 stress_305
                      1.6240561080e+03 stress_306
                      1.4270302177e+03 stress_307
                      1.2194003172e+03 stress_308
                      1.0027414987e+03 stress_309
                      7.7831220768e+02 stress_310
                      5.4710954454e+02 stress_311
                      3.0995764764e+02 stress_312
                      6.7636406115e+01 stress_313
                     -1.7912750652e+02 stress_314
                     -4.2959639091e+02 stress_315
                     -6.8299390902e+02 stress_316
                     -9.3851376393e+02 stress_317
                     -1.1952967723e+03 stress_318
                     -1.4524397543e+03 stress_319
                     -1.7090075178e+03 stress_320
                     -1.9640181463e+03 stress_321
                     -2.2164750247e+03 stress_322
                     -2.4653480371e+03 stress_323
                     -2.7096048757e+03 stress_324
                     -2.9482207128e+03 stress_325
                     -3.1801490935e+03 stress_326
                     -3.4043899595e+03 stress_327
                     -3.6199189770e+03 stress_328
                     -3.8257878304e+03 stress_329
                     -4.0210613090e+03 stress_330
                     -4.2048303580e+03 stress_331
                     -4.3762616691e+03 stress_332
                     -4.5345447208e+03 stress_333
                     -4.6789484836e+03 stress_334
                     -4.8088102774e+03 stress_335
                     -4.9234795743e+03 stress_336
                     -5.0224504969e+03 stress_337
                     -5.1052381593e+03 stress_338
                     -5.1714457950e+03 stress_339
                     -5.2207718901e+03 stress_340
                     -5.2529750472e+03 stress_341
                     -5.2678959063e+03 stress_342



---------------------
Begin Evaluation   11
---------------------
Parameters for evaluation 11:
                      4.9577096582e+02 fy
                      1.9965627005e+05 E
                      4.9912015464e-01 b
                      1.0001325428e+00 cR1
                      9.9734495954e-01 cR2
                      2.4488721002e-01 a1
                      2.5007763651e-01 a3

blocking fork: workflow_driver1 paramsDakota.in results.out

Active response data for evaluation 11:
Active set vector = { 1 1 1 1 1 1 1 1 1 1 1 1 1 1 1 1 1 1 1 1 1 1 1 1 1 1 1 1 1 1 1 1 1 1 1 1 1 1 1 1 1 1 1 1 1 1 1 1 1 1 1 1 1 1 1 1 1 1 1 1 1 1 1 1 1 1 1 1 1 1 1 1 1 1 1 1 1 1 1 1 1 1 1 1 1 1 1 1 1 1 1 1 1 1 1 1 1 1 1 1 1 1 1 1 1 1 1 1 1 1 1 1 1 1 1 1 1 1 1 1 1 1 1 1 1 1 1 1 1 1 1 1 1 1 1 1 1 1 1 1 1 1 1 1 1 1 1 1 1 1 1 1 1 1 1 1 1 1 1 1 1 1 1 1 1 1 1 1 1 1 1 1 1 1 1 1 1 1 1 1 1 1 1 1 1 1 1 1 1 1 1 1 1 1 1 1 1 1 1 1 1 1 1 1 1 1 1 1 1 1 1 1 1 1 1 1 1 1 1 1 1 1 1 1 1 1 1 1 1 1 1 1 1 1 1 1 1 1 1 1 1 1 1 1 1 1 1 1 1 1 1 1 1 1 1 1 1 1 1 1 1 1 1 1 1 1 1 1 1 1 1 1 1 1 1 1 1 1 1 1 1 1 1 1 1 1 1 1 1 1 1 1 1 1 1 1 1 1 1 1 1 1 1 1 1 1 1 1 1 1 1 1 1 1 1 1 1 1 1 1 1 1 1 1 1 1 1 1 1 1 1 1 1 1 1 1 1 1 1 1 1 1 }
                      2.3266418334e+00 stress_1
                     -2.4180424529e+02 stress_2
                     -6.5021269255e+02 stress_3
                     -6.9031105131e+02 stress_4
                     -3.7340513925e+02 stress_5
                      1.0185076912e+02 stress_6
                      4.3222872351e+02 stress_7
                      4.3521216482e+02 stress_8
                      1.9507386498e+02 stress_9
                     -2.1505763950e+02 stress_10
                     -6.8027845308e+02 stress_11
                     -9.2325915428e+02 stress_12
                     -1.0664210130e+03 stress_13
                     -1.0795426500e+03 stress_14
                     -7.5788096532e+02 stress_15
                     -9.1923096290e+02 stress_16
                     -1.1037957017e+03 stress_17
                     -9.1620747559e+02 stress_18
                     -5.6515450402e+02 stress_19
                     -1.1292289892e+02 stress_20
                      2.9112046966e+02 stress_21
                      5.3626914653e+02 stress_22
                      6.9219882845e+02 stress_23
                      7.5700310560e+02 stress_24
                      4.3467345974e+02 stress_25
                      5.5774120524e+02 stress_26
                      6.9663613513e+02 stress_27
                      7.3406641923e+02 stress_28
                      6.1593249975e+02 stress_29
                      4.0545464636e+02 stress_30
                      1.1155087533e+02 stress_31
                     -2.4917544163e+02 stress_32
                     -6.1431753285e+02 stress_33
                     -9.0103875795e+02 stress_34
                     -1.1510569004e+03 stress_35
                     -1.3920699018e+03 stress_36
                     -1.6212211068e+03 stress_37
                     -1.8302095555e+03 stress_38
                     -2.0106130621e+03 stress_39
                     -2.1549072736e+03 stress_40
                     -2.2571653745e+03 stress_41
                     -2.3131105349e+03 stress_42
                     -2.2982527191e+03 stress_43
                     -1.9159835925e+03 stress_44
                     -1.5885238420e+03 stress_45
                     -1.7866172028e+03 stress_46
                     -2.1483902381e+03 stress_47
                     -1.8591513686e+03 stress_48
                     -1.9580343308e+03 stress_49
                     -2.1123746078e+03 stress_50
                     -2.3406387667e+03 stress_51
                     -2.1769502648e+03 stress_52
                     -1.8273369327e+03 stress_53
                     -1.3974720233e+03 stress_54
                     -1.0216213170e+03 stress_55
                     -7.7331635023e+02 stress_56
                     -6.7123222490e+02 stress_57
                     -7.5421693770e+02 stress_58
                     -1.0651494306e+03 stress_59
                     -1.5140186604e+03 stress_60
                     -1.9635976194e+03 stress_61
                     -2.2325428219e+03 stress_62
                     -2.3016519252e+03 stress_63
                     -2.0411694883e+03 stress_64
                     -1.5999118019e+03 stress_65
                     -1.4526948669e+03 stress_66
                     -1.7153652511e+03 stress_67
                     -2.1710356381e+03 stress_68
                     -2.3997572336e+03 stress_69
                     -2.4031418838e+03 stress_70
                     -2.3114453974e+03 stress_71
                     -2.1434905519e+03 stress_72
                     -1.9052843928e+03 stress_73
                     -1.6094803844e+03 stress_74
                     -1.2799017559e+03 stress_75
                     -9.4683484500e+02 stress_76
                     -6.3095610598e+02 stress_77
                     -3.3639167461e+02 stress_78
                     -5.9422149189e+01 stress_79
                      2.0272566473e+02 stress_80
                      4.4966181832e+02 stress_81
                      6.7864166652e+02 stress_82
                      8.8572041046e+02 stress_83
                      1.0666350031e+03 stress_84
                      1.2172480816e+03 stress_85
                      1.3339789961e+03 stress_86
                      1.4139797503e+03 stress_87
                      1.4551996597e+03 stress_88
                      1.3843655984e+03 stress_89
                      9.4597028065e+02 stress_90
                      6.8023514604e+02 stress_91
                      9.5925410459e+02 stress_92
                      1.3632199199e+03 stress_93
                      1.3763776938e+03 stress_94
                      1.3185378190e+03 stress_95
                      1.2142671374e+03 stress_96
                      1.0655251125e+03 stress_97
                      8.7640109804e+02 stress_98
                      6.5423658649e+02 stress_99
                      4.0944854290e+02 stress_100
                      1.5316646060e+02 stress_101
                     -1.0583830069e+02 stress_102
                     -3.6297125754e+02 stress_103
                     -6.1723343880e+02 stress_104
                     -8.6934986463e+02 stress_105
                     -1.1203638669e+03 stress_106
                     -1.3708293414e+03 stress_107
                     -1.6206136160e+03 stress_108
                     -1.8689646836e+03 stress_109
                     -2.1146660490e+03 stress_110
                     -2.3561663138e+03 stress_111
                     -2.5916808393e+03 stress_112
                     -2.8193341698e+03 stress_113
                     -3.0372036220e+03 stress_114
                     -3.2433642262e+03 stress_115
                     -3.4359531053e+03 stress_116
                     -3.6131770564e+03 stress_117
                     -3.7734034751e+03 stress_118
                     -3.9151248288e+03 stress_119
                     -4.0369663513e+03 stress_120
                     -4.1377962468e+03 stress_121
                     -4.2166375370e+03 stress_122
                     -4.2727231658e+03 stress_123
                     -4.3055351248e+03 stress_124
                     -4.3143499432e+03 stress_125
                     -4.2165325639e+03 stress_126
                     -3.9805031896e+03 stress_127
                     -3.6584696821e+03 stress_128
                     -3.3087884136e+03 stress_129
                     -2.9767381931e+03 stress_130
                     -2.6941782580e+03 stress_131
                     -2.4841678460e+03 stress_132
                     -2.3632626617e+03 stress_133
                     -2.3559451059e+03 stress_134
                     -2.7533838459e+03 stress_135
                     -2.7764024049e+03 stress_136
                     -2.5958845575e+03 stress_137
                     -2.6306029859e+03 stress_138
                     -2.7974876551e+03 stress_139
                     -3.1158401946e+03 stress_140
                     -3.5316170924e+03 stress_141
                     -3.9240261522e+03 stress_142
                     -4.1838241855e+03 stress_143
                     -4.3516653987e+03 stress_144
                     -4.4363003309e+03 stress_145
                     -4.4167170984e+03 stress_146
                     -4.1907124341e+03 stress_147
                     -3.8336122191e+03 stress_148
                     -3.4557790660e+03 stress_149
                     -3.1459854552e+03 stress_150
                     -2.9600695577e+03 stress_151
                     -2.9320069048e+03 stress_152
                     -3.1404692132e+03 stress_153
                     -3.5295509072e+03 stress_154
                     -3.9688487559e+03 stress_155
                     -4.2421979793e+03 stress_156
                     -4.3457787920e+03 stress_157
                     -4.2285124620e+03 stress_158
                     -3.8283554878e+03 stress_159
                     -3.5973760113e+03 stress_160
                     -3.7576928085e+03 stress_161
                     -4.1773368715e+03 stress_162
                     -4.4169830877e+03 stress_163
                     -4.4447855701e+03 stress_164
                     -4.4047385964e+03 stress_165
                     -4.3263586856e+03 stress_166
                     -4.2119499868e+03 stress_167
                     -4.0650968257e+03 stress_168
                     -3.8905545726e+03 stress_169
                     -3.6934280664e+03 stress_170
                     -3.4786612988e+03 stress_171
                     -3.2505181904e+03 stress_172
                     -3.0123569108e+03 stress_173
                     -2.7667254801e+03 stress_174
                     -2.5153986617e+03 stress_175
                     -2.2596697598e+03 stress_176
                     -2.0005424745e+03 stress_177
                     -1.7388545287e+03 stress_178
                     -1.4754378674e+03 stress_179
                     -1.2111514809e+03 stress_180
                     -9.4691197360e+02 stress_181
                     -6.8374247779e+02 stress_182
                     -4.2273128582e+02 stress_183
                     -1.6505364463e+02 stress_184
                      8.8070013520e+01 stress_185
                      3.3537003902e+02 stress_186
                      5.7555394582e+02 stress_187
                      8.0733054941e+02 stress_188
                      1.0294046566e+03 stress_189
                      1.2405181546e+03 stress_190
                      1.4394536220e+03 stress_191
                      1.6250193396e+03 stress_192
                      1.7961364409e+03 stress_193
                      1.9517684801e+03 stress_194
                      2.0909491532e+03 stress_195
                      2.2128535817e+03 stress_196
                      2.3167057437e+03 stress_197
                      2.4018837551e+03 stress_198
                      2.4678603625e+03 stress_199
                      2.5142043909e+03 stress_200
                      2.5406436682e+03 stress_201
                      2.5419386485e+03 stress_202
                      2.2099151576e+03 stress_203
                      1.8618219292e+03 stress_204
                      1.9664599835e+03 stress_205
                      2.4026660883e+03 stress_206
                      2.4259397767e+03 stress_207
                      2.3643625041e+03 stress_208
                      2.2559674478e+03 stress_209
                      2.1072704783e+03 stress_210
                      1.9257404908e+03 stress_211
                      1.7185104403e+03 stress_212
                      1.4915145425e+03 stress_213
                      1.2494705801e+03 stress_214
                      9.9595775819e+02 stress_215
                      7.3375890737e+02 stress_216
                      4.6521427927e+02 stress_217
                      1.9240824329e+02 stress_218
                     -8.2643336502e+01 stress_219
                     -3.5788763390e+02 stress_220
                     -6.3122224672e+02 stress_221
                     -9.0046469636e+02 stress_222
                     -1.1633801701e+03 stress_223
                     -1.4176911683e+03 stress_224
                     -1.6611337157e+03 stress_225
                     -1.8914696853e+03 stress_226
                     -2.1065256121e+03 stress_227
                     -2.3042624482e+03 stress_228
                     -2.4827168437e+03 stress_229
                     -2.6401517407e+03 stress_230
                     -2.7749996711e+03 stress_231
                     -2.8858662834e+03 stress_232
                     -2.9716694271e+03 stress_233
                     -3.0315271931e+03 stress_234
                     -3.0648023574e+03 stress_235
                     -3.0585662941e+03 stress_236
                     -2.7124626510e+03 stress_237
                     -2.4026542988e+03 stress_238
                     -2.6176098256e+03 stress_239
                     -2.9323602275e+03 stress_240
                     -2.6154447794e+03 stress_241
                     -2.4290115538e+03 stress_242
                     -2.7631704732e+03 stress_243
                     -2.9218870604e+03 stress_244
                     -3.1198021773e+03 stress_245
                     -2.9433157568e+03 stress_246
                     -2.6063735681e+03 stress_247
                     -2.2169382484e+03 stress_248
                     -1.8719892329e+03 stress_249
                     -1.6347555130e+03 stress_250
                     -1.5413083603e+03 stress_251
                     -1.6426414113e+03 stress_252
                     -1.9629914596e+03 stress_253
                     -2.3934429812e+03 stress_254
                     -2.7733311805e+03 stress_255
                     -3.0046878569e+03 stress_256
                     -3.0646782198e+03 stress_257
                     -2.7996843498e+03 stress_258
                     -2.3889127885e+03 stress_259
                     -2.2080328667e+03 stress_260
                     -2.4157438457e+03 stress_261
                     -2.8383314756e+03 stress_262
                     -3.1493319014e+03 stress_263
                     -3.2136894024e+03 stress_264
                     -3.1733469331e+03 stress_265
                     -3.0833692375e+03 stress_266
                     -2.9468859542e+03 stress_267
                     -2.7693248199e+03 stress_268
                     -2.5578250051e+03 stress_269
                     -2.3202938154e+03 stress_270
                     -2.0641723521e+03 stress_271
                     -1.7955386284e+03 stress_272
                     -1.5190619865e+03 stress_273
                     -1.2380050484e+03 stress_274
                     -9.5467637483e+02 stress_275
                     -6.7087514215e+02 stress_276
                     -3.8813900573e+02 stress_277
                     -1.0798877979e+02 stress_278
                      1.6798114434e+02 stress_279
                      4.3806253837e+02 stress_280
                      7.0043306859e+02 stress_281
                      9.5318446762e+02 stress_282
                      1.1943507148e+03 stress_283
                      1.4219738046e+03 stress_284
                      1.6341033930e+03 stress_285
                      1.8288868494e+03 stress_286
                      2.0045701467e+03 stress_287
                      2.1595139896e+03 stress_288
                      2.2922870572e+03 stress_289
                      2.4016289622e+03 stress_290
                      2.4864787780e+03 stress_291
                      2.5460387965e+03 stress_292
                      2.5797168622e+03 stress_293
                      2.5802141045e+03 stress_294
                      2.2363892367e+03 stress_295
                      1.8942068723e+03 stress_296
                      2.0196880429e+03 stress_297
                      2.4492322030e+03 stress_298
                      2.4687770402e+03 stress_299
                      2.4272650168e+03 stress_300
                      2.3538889580e+03 stress_301
                      2.2514407952e+03 stress_302
                      2.1234897118e+03 stress_303
                      1.9736943115e+03 stress_304
                      1.8056609969e+03 stress_305
                      1.6224709236e+03 stress_306
                      1.4266604236e+03 stress_307
                      1.2202847629e+03 stress_308
                      1.0048818142e+03 stress_309
                      7.8168360906e+02 stress_310
                      5.5167091107e+02 stress_311
                      3.1565951850e+02 stress_312
                      7.4426441233e+01 stress_313
                     -1.7130075647e+02 stress_314
                     -4.2078142577e+02 stress_315
                     -6.7323536158e+02 stress_316
                     -9.2785215600e+02 stress_317
                     -1.1837688076e+03 stress_318
                     -1.4400788390e+03 stress_319
                     -1.6958443766e+03 stress_320
                     -1.9500815348e+03 stress_321
                     -2.2017923379e+03 stress_322
                     -2.4499459432e+03 stress_323
                     -2.6935098088e+03 stress_324
                     -2.9314592872e+03 stress_325
                     -3.1627485456e+03 stress_326
                     -3.3863783490e+03 stress_327
                     -3.6013255372e+03 stress_328
                     -3.8066430039e+03 stress_329
                     -4.0013969196e+03 stress_330
                     -4.1846797145e+03 stress_331
                     -4.3556595124e+03 stress_332
                     -4.5135272881e+03 stress_333
                     -4.6575534048e+03 stress_334
                     -4.7870764855e+03 stress_335
                     -4.9014473489e+03 stress_336
                     -5.0001611518e+03 stress_337
                     -5.0827340430e+03 stress_338
                     -5.1487701100e+03 stress_339
                     -5.1979684880e+03 stress_340
                     -5.2300883102e+03 stress_341
                     -5.2449705696e+03 stress_342



---------------------
Begin Evaluation   12
---------------------
Parameters for evaluation 12:
                      4.8318891549e+02 fy
                      1.9862118006e+05 E
                      4.9646973062e-01 b
                      1.0005093983e+00 cR1
                      9.8984217398e-01 cR2
                      2.2956820853e-01 a1
                      2.5028493616e-01 a3

blocking fork: workflow_driver1 paramsDakota.in results.out

Active response data for evaluation 12:
Active set vector = { 1 1 1 1 1 1 1 1 1 1 1 1 1 1 1 1 1 1 1 1 1 1 1 1 1 1 1 1 1 1 1 1 1 1 1 1 1 1 1 1 1 1 1 1 1 1 1 1 1 1 1 1 1 1 1 1 1 1 1 1 1 1 1 1 1 1 1 1 1 1 1 1 1 1 1 1 1 1 1 1 1 1 1 1 1 1 1 1 1 1 1 1 1 1 1 1 1 1 1 1 1 1 1 1 1 1 1 1 1 1 1 1 1 1 1 1 1 1 1 1 1 1 1 1 1 1 1 1 1 1 1 1 1 1 1 1 1 1 1 1 1 1 1 1 1 1 1 1 1 1 1 1 1 1 1 1 1 1 1 1 1 1 1 1 1 1 1 1 1 1 1 1 1 1 1 1 1 1 1 1 1 1 1 1 1 1 1 1 1 1 1 1 1 1 1 1 1 1 1 1 1 1 1 1 1 1 1 1 1 1 1 1 1 1 1 1 1 1 1 1 1 1 1 1 1 1 1 1 1 1 1 1 1 1 1 1 1 1 1 1 1 1 1 1 1 1 1 1 1 1 1 1 1 1 1 1 1 1 1 1 1 1 1 1 1 1 1 1 1 1 1 1 1 1 1 1 1 1 1 1 1 1 1 1 1 1 1 1 1 1 1 1 1 1 1 1 1 1 1 1 1 1 1 1 1 1 1 1 1 1 1 1 1 1 1 1 1 1 1 1 1 1 1 1 1 1 1 1 1 1 1 1 1 1 1 1 1 1 1 1 1 1 }
                      2.3145796844e+00 stress_1
                     -2.4055064395e+02 stress_2
                     -6.3792923438e+02 stress_3
                     -6.7661495533e+02 stress_4
                     -3.6135199763e+02 stress_5
                      1.1143751938e+02 stress_6
                      4.3803457864e+02 stress_7
                      4.4090295082e+02 stress_8
                      2.0200961439e+02 stress_9
                     -2.0599562683e+02 stress_10
                     -6.6774422295e+02 stress_11
                     -9.0662886769e+02 stress_12
                     -1.0482814983e+03 stress_13
                     -1.0612656693e+03 stress_14
                     -7.4127167163e+02 stress_15
                     -9.0178517262e+02 stress_16
                     -1.0851471068e+03 stress_17
                     -8.9853140609e+02 stress_18
                     -5.4930508932e+02 stress_19
                     -1.0070382437e+02 stress_20
                      2.8996058265e+02 stress_21
                      5.2894693309e+02 stress_22
                      6.8294252469e+02 stress_23
                      7.4703819048e+02 stress_24
                      4.2638012307e+02 stress_25
                      5.4880984107e+02 stress_26
                      6.8698512399e+02 stress_27
                      7.2422990019e+02 stress_28
                      6.0670842977e+02 stress_29
                      3.9732242564e+02 stress_30
                      1.0501670863e+02 stress_31
                     -2.5199486607e+02 stress_32
                     -6.0538543192e+02 stress_33
                     -8.8320895899e+02 stress_34
                     -1.1298091365e+03 stress_35
                     -1.3682681834e+03 stress_36
                     -1.5950412702e+03 stress_37
                     -1.8018555187e+03 stress_38
                     -1.9803776152e+03 stress_39
                     -2.1231649988e+03 stress_40
                     -2.2243545270e+03 stress_41
                     -2.2797148867e+03 stress_42
                     -2.2649341029e+03 stress_43
                     -1.8850052183e+03 stress_44
                     -1.5613131500e+03 stress_45
                     -1.7583795234e+03 stress_46
                     -2.1182747572e+03 stress_47
                     -1.8306804209e+03 stress_48
                     -1.9290507382e+03 stress_49
                     -2.0825908582e+03 stress_50
                     -2.3095429159e+03 stress_51
                     -2.1467179986e+03 stress_52
                     -1.7996114924e+03 stress_53
                     -1.3757807080e+03 stress_54
                     -1.0076608016e+03 stress_55
                     -7.6450119918e+02 stress_56
                     -6.6433826687e+02 stress_57
                     -7.4689275705e+02 stress_58
                     -1.0562132553e+03 stress_59
                     -1.5027098520e+03 stress_60
                     -1.9457054459e+03 stress_61
                     -2.1998812418e+03 stress_62
                     -2.2657258478e+03 stress_63
                     -2.0066384896e+03 stress_64
                     -1.5691501373e+03 stress_65
                     -1.4240383571e+03 stress_66
                     -1.6853469632e+03 stress_67
                     -2.1381956504e+03 stress_68
                     -2.3606045237e+03 stress_69
                     -2.3639339515e+03 stress_70
                     -2.2727142185e+03 stress_71
                     -2.1056864612e+03 stress_72
                     -1.8692164415e+03 stress_73
                     -1.5770030305e+03 stress_74
                     -1.2539109464e+03 stress_75
                     -9.2929029110e+02 stress_76
                     -6.2128530955e+02 stress_77
                     -3.3268297922e+02 stress_78
                     -6.0029077371e+01 stress_79
                      1.9880022016e+02 stress_80
                      4.4297721728e+02 stress_81
                      6.6955389436e+02 stress_82
                      8.7451899016e+02 stress_83
                      1.0536072083e+03 stress_84
                      1.2027051977e+03 stress_85
                      1.3182624906e+03 stress_86
                      1.3974585554e+03 stress_87
                      1.4382636388e+03 stress_88
                      1.3678024919e+03 stress_89
                      9.3320624518e+02 stress_90
                      6.7181958315e+02 stress_91
                      9.4939200696e+02 stress_92
                      1.3512262702e+03 stress_93
                      1.3642978731e+03 stress_94
                      1.3067607134e+03 stress_95
                      1.2030860407e+03 stress_96
                      1.0554298038e+03 stress_97
                      8.6828898737e+02 stress_98
                      6.4947099879e+02 stress_99
                      4.0953095942e+02 stress_100
                      1.5913631156e+02 stress_101
                     -9.3783721943e+01 stress_102
                     -3.4534181462e+02 stress_103
                     -5.9483307740e+02 stress_104
                     -8.4294232155e+02 stress_105
                     -1.0905304189e+03 stress_106
                     -1.3379620834e+03 stress_107
                     -1.5849611239e+03 stress_108
                     -1.8306835315e+03 stress_109
                     -2.0738616880e+03 stress_110
                     -2.3129214700e+03 stress_111
                     -2.5460739398e+03 stress_112
                     -2.7714501740e+03 stress_113
                     -2.9871404531e+03 stress_114
                     -3.1912362874e+03 stress_115
                     -3.3818926522e+03 stress_116
                     -3.5573345913e+03 stress_117
                     -3.7159466873e+03 stress_118
                     -3.8562375703e+03 stress_119
                     -3.9768473477e+03 stress_120
                     -4.0766565836e+03 stress_121
                     -4.1546989731e+03 stress_122
                     -4.2102158530e+03 stress_123
                     -4.2426949108e+03 stress_124
                     -4.2514202761e+03 stress_125
                     -4.1543076066e+03 stress_126
                     -3.9213829298e+03 stress_127
                     -3.6056312502e+03 stress_128
                     -3.2638568357e+03 stress_129
                     -2.9393026994e+03 stress_130
                     -2.6627160082e+03 stress_131
                     -2.4568261331e+03 stress_132
                     -2.3381659926e+03 stress_133
                     -2.3309813838e+03 stress_134
                     -2.7263574577e+03 stress_135
                     -2.7492555634e+03 stress_136
                     -2.5701595265e+03 stress_137
                     -2.6046979621e+03 stress_138
                     -2.7707173926e+03 stress_139
                     -3.0873713316e+03 stress_140
                     -3.4981119698e+03 stress_141
                     -3.8709535809e+03 stress_142
                     -4.1186373026e+03 stress_143
                     -4.2831397631e+03 stress_144
                     -4.3666302263e+03 stress_145
                     -4.3471542628e+03 stress_146
                     -4.1233337822e+03 stress_147
                     -3.7724625914e+03 stress_148
                     -3.4031860844e+03 stress_149
                     -3.1008225066e+03 stress_150
                     -2.9192872844e+03 stress_151
                     -2.8918742510e+03 stress_152
                     -3.0992558133e+03 stress_153
                     -3.4862738999e+03 stress_154
                     -3.9176473864e+03 stress_155
                     -4.1765918193e+03 stress_156
                     -4.2774612918e+03 stress_157
                     -4.1610161520e+03 stress_158
                     -3.7666494828e+03 stress_159
                     -3.5404570956e+03 stress_160
                     -3.6999427527e+03 stress_161
                     -4.1164751471e+03 stress_162
                     -4.3474277232e+03 stress_163
                     -4.3748852568e+03 stress_164
                     -4.3350716988e+03 stress_165
                     -4.2573118630e+03 stress_166
                     -4.1441764070e+03 stress_167
                     -3.9995080491e+03 stress_168
                     -3.8281922551e+03 stress_169
                     -3.6352822348e+03 stress_170
                     -3.4255104635e+03 stress_171
                     -3.2028463064e+03 stress_172
                     -2.9703530672e+03 stress_173
                     -2.7303379511e+03 stress_174
                     -2.4844137812e+03 stress_175
                     -2.2337848502e+03 stress_176
                     -1.9794222087e+03 stress_177
                     -1.7221684729e+03 stress_178
                     -1.4628804798e+03 stress_179
                     -1.2024507388e+03 stress_180
                     -9.4183036059e+02 stress_181
                     -6.8207319128e+02 stress_182
                     -4.2429302596e+02 stress_183
                     -1.6968442547e+02 stress_184
                      8.0518467881e+01 stress_185
                      3.2503750811e+02 stress_186
                      5.6257601782e+02 stress_187
                      7.9184203614e+02 stress_188
                      1.0115424794e+03 stress_189
                      1.2204232683e+03 stress_190
                      1.4172724634e+03 stress_191
                      1.6009050639e+03 stress_192
                      1.7702489471e+03 stress_193
                      1.9242749304e+03 stress_194
                      2.0620240041e+03 stress_195
                      2.1826777286e+03 stress_196
                      2.2854664944e+03 stress_197
                      2.3697736278e+03 stress_198
                      2.4350764197e+03 stress_199
                      2.4809475028e+03 stress_200
                      2.5071170931e+03 stress_201
                      2.5083988666e+03 stress_202
                      2.1817243907e+03 stress_203
                      1.8423960457e+03 stress_204
                      1.9464916186e+03 stress_205
                      2.3804358620e+03 stress_206
                      2.4035884730e+03 stress_207
                      2.3425089524e+03 stress_208
                      2.2355574499e+03 stress_209
                      2.0895797446e+03 stress_210
                      1.9120437173e+03 stress_211
                      1.7098095152e+03 stress_212
                      1.4884265806e+03 stress_213
                      1.2522467171e+03 stress_214
                      1.0045726090e+03 stress_215
                      7.4801150172e+02 stress_216
                      4.8481062023e+02 stress_217
                      2.1701911971e+02 stress_218
                     -5.3348572884e+01 stress_219
                     -3.2422469239e+02 stress_220
                     -5.9348611537e+02 stress_221
                     -8.5893059211e+02 stress_222
                     -1.1183074012e+03 stress_223
                     -1.3693283541e+03 stress_224
                     -1.6097236787e+03 stress_225
                     -1.8372540382e+03 stress_226
                     -2.0497484220e+03 stress_227
                     -2.2451725493e+03 stress_228
                     -2.4215703121e+03 stress_229
                     -2.5772121335e+03 stress_230
                     -2.7105385233e+03 stress_231
                     -2.8201632060e+03 stress_232
                     -2.9050103718e+03 stress_233
                     -2.9642037646e+03 stress_234
                     -2.9971104667e+03 stress_235
                     -2.9909072811e+03 stress_236
                     -2.6490137125e+03 stress_237
                     -2.3460138756e+03 stress_238
                     -2.5598438222e+03 stress_239
                     -2.8725104987e+03 stress_240
                     -2.5590989874e+03 stress_241
                     -2.3762074791e+03 stress_242
                     -2.7085124793e+03 stress_243
                     -2.8659418811e+03 stress_244
                     -3.0614097052e+03 stress_245
                     -2.8863473164e+03 stress_246
                     -2.5547054602e+03 stress_247
                     -2.1739750647e+03 stress_248
                     -1.8375216909e+03 stress_249
                     -1.6060464010e+03 stress_250
                     -1.5147995493e+03 stress_251
                     -1.6156053131e+03 stress_252
                     -1.9339190011e+03 stress_253
                     -2.3583358520e+03 stress_254
                     -2.7284942900e+03 stress_255
                     -2.9532210513e+03 stress_256
                     -3.0115863457e+03 stress_257
                     -2.7489160691e+03 stress_258
                     -2.3450824093e+03 stress_259
                     -2.1680743546e+03 stress_260
                     -2.3746591956e+03 stress_261
                     -2.7920295323e+03 stress_262
                     -3.0948492035e+03 stress_263
                     -3.1574366750e+03 stress_264
                     -3.1173217803e+03 stress_265
                     -3.0280152415e+03 stress_266
                     -2.8929895208e+03 stress_267
                     -2.7180309456e+03 stress_268
                     -2.5104498552e+03 stress_269
                     -2.2780327593e+03 stress_270
                     -2.0278621096e+03 stress_271
                     -1.7655699250e+03 stress_272
                     -1.4954270518e+03 stress_273
                     -1.2204217160e+03 stress_274
                     -9.4271681848e+02 stress_275
                     -6.6406387255e+02 stress_276
                     -3.8601404865e+02 stress_277
                     -1.1013042667e+02 stress_278
                      1.6194224150e+02 stress_279
                      4.2844897991e+02 stress_280
                      6.8752960119e+02 stress_281
                      9.3724823999e+02 stress_282
                      1.1756210177e+03 stress_283
                      1.4006800229e+03 stress_284
                      1.6104716748e+03 stress_285
                      1.8031445014e+03 stress_286
                      1.9769489168e+03 stress_287
                      2.1302522373e+03 stress_288
                      2.2616301924e+03 stress_289
                      2.3698297041e+03 stress_290
                      2.4537966691e+03 stress_291
                      2.5127387297e+03 stress_292
                      2.5460679775e+03 stress_293
                      2.5465600728e+03 stress_294
                      2.2081945383e+03 stress_295
                      1.8745083999e+03 stress_296
                      1.9993390309e+03 stress_297
                      2.4266556473e+03 stress_298
                      2.4460985463e+03 stress_299
                      2.4048839200e+03 stress_300
                      2.3323167407e+03 stress_301
                      2.2314221644e+03 stress_302
                      2.1058877186e+03 stress_303
                      1.9593524073e+03 stress_304
                      1.7952882469e+03 stress_305
                      1.6165837164e+03 stress_306
                      1.4255724333e+03 stress_307
                      1.2241296528e+03 stress_308
                      1.0136550377e+03 stress_309
                      7.9528430319e+02 stress_310
                      5.6993977073e+02 stress_311
                      3.3840822387e+02 stress_312
                      1.0145735141e+02 stress_313
                     -1.4018113276e+02 stress_314
                     -3.8575524795e+02 stress_315
                     -6.3447039765e+02 stress_316
                     -8.8550109935e+02 stress_317
                     -1.1379705245e+03 stress_318
                     -1.3909603970e+03 stress_319
                     -1.6435233863e+03 stress_320
                     -1.8946688418e+03 stress_321
                     -2.1433942968e+03 stress_322
                     -2.3886667974e+03 stress_323
                     -2.6294535224e+03 stress_324
                     -2.8647310805e+03 stress_325
                     -3.0934565582e+03 stress_326
                     -3.3146343593e+03 stress_327
                     -3.5272462913e+03 stress_328
                     -3.7303502993e+03 stress_329
                     -3.9230182456e+03 stress_330
                     -4.1043486317e+03 stress_331
                     -4.2735154076e+03 stress_332
                     -4.4297156102e+03 stress_333
                     -4.5722252300e+03 stress_334
                     -4.7003881445e+03 stress_335
                     -4.8135605916e+03 stress_336
                     -4.9112418855e+03 stress_337
                     -4.9929523321e+03 stress_338
                     -5.0582994455e+03 stress_339
                     -5.1069849640e+03 stress_340
                     -5.1387701497e+03 stress_341
                     -5.1534974101e+03 stress_342



---------------------
Begin Evaluation   13
---------------------
Parameters for evaluation 13:
                      4.5679502337e+02 fy
                      1.9638543062e+05 E
                      4.9074029020e-01 b
                      1.0012091610e+00 cR1
                      9.7615506489e-01 cR2
                      1.9688897411e-01 a1
                      2.5058254804e-01 a3

blocking fork: workflow_driver1 paramsDakota.in results.out

Active response data for evaluation 13:
Active set vector = { 1 1 1 1 1 1 1 1 1 1 1 1 1 1 1 1 1 1 1 1 1 1 1 1 1 1 1 1 1 1 1 1 1 1 1 1 1 1 1 1 1 1 1 1 1 1 1 1 1 1 1 1 1 1 1 1 1 1 1 1 1 1 1 1 1 1 1 1 1 1 1 1 1 1 1 1 1 1 1 1 1 1 1 1 1 1 1 1 1 1 1 1 1 1 1 1 1 1 1 1 1 1 1 1 1 1 1 1 1 1 1 1 1 1 1 1 1 1 1 1 1 1 1 1 1 1 1 1 1 1 1 1 1 1 1 1 1 1 1 1 1 1 1 1 1 1 1 1 1 1 1 1 1 1 1 1 1 1 1 1 1 1 1 1 1 1 1 1 1 1 1 1 1 1 1 1 1 1 1 1 1 1 1 1 1 1 1 1 1 1 1 1 1 1 1 1 1 1 1 1 1 1 1 1 1 1 1 1 1 1 1 1 1 1 1 1 1 1 1 1 1 1 1 1 1 1 1 1 1 1 1 1 1 1 1 1 1 1 1 1 1 1 1 1 1 1 1 1 1 1 1 1 1 1 1 1 1 1 1 1 1 1 1 1 1 1 1 1 1 1 1 1 1 1 1 1 1 1 1 1 1 1 1 1 1 1 1 1 1 1 1 1 1 1 1 1 1 1 1 1 1 1 1 1 1 1 1 1 1 1 1 1 1 1 1 1 1 1 1 1 1 1 1 1 1 1 1 1 1 1 1 1 1 1 1 1 1 1 1 1 1 1 }
                      2.2885259664e+00 stress_1
                     -2.3784291749e+02 stress_2
                     -6.1074536146e+02 stress_3
                     -6.4757645379e+02 stress_4
                     -3.3586220615e+02 stress_5
                      1.3158384933e+02 stress_6
                      4.4557628173e+02 stress_7
                      4.4807981067e+02 stress_8
                      2.1187554115e+02 stress_9
                     -1.9153700902e+02 stress_10
                     -6.4331899527e+02 stress_11
                     -8.7144634713e+02 stress_12
                     -1.0098638343e+03 stress_13
                     -1.0225534435e+03 stress_14
                     -7.0616185694e+02 stress_15
                     -8.6486856155e+02 stress_16
                     -1.0454827627e+03 stress_17
                     -8.6096767768e+02 stress_18
                     -5.1570270969e+02 stress_19
                     -7.6269065563e+01 stress_20
                      2.8547512655e+02 stress_21
                      5.1308426992e+02 stress_22
                      6.6308895405e+02 stress_23
                      7.2568045893e+02 stress_24
                      4.0863482526e+02 stress_25
                      5.2968643156e+02 stress_26
                      6.6630714230e+02 stress_27
                      7.0314882906e+02 stress_28
                      5.8695022425e+02 stress_29
                      3.7992497101e+02 stress_30
                      9.1218350441e+01 stress_31
                     -2.5604384873e+02 stress_32
                     -5.8354943640e+02 stress_33
                     -8.4491691212e+02 stress_34
                     -1.0845859981e+03 stress_35
                     -1.3175911065e+03 stress_36
                     -1.5392683009e+03 stress_37
                     -1.7414245963e+03 stress_38
                     -1.9159163283e+03 stress_39
                     -2.0554757155e+03 stress_40
                     -2.1543760194e+03 stress_41
                     -2.2084835181e+03 stress_42
                     -2.1938691309e+03 stress_43
                     -1.8192494316e+03 stress_44
                     -1.5043857694e+03 stress_45
                     -1.6992338948e+03 stress_46
                     -2.0550718888e+03 stress_47
                     -1.7711383444e+03 stress_48
                     -1.8684013711e+03 stress_49
                     -2.0202131862e+03 stress_50
                     -2.2440449086e+03 stress_51
                     -2.0831013153e+03 stress_52
                     -1.7417529516e+03 stress_53
                     -1.3314866021e+03 stress_54
                     -9.7956522595e+02 stress_55
                     -7.4681845726e+02 stress_56
                     -6.5052884739e+02 stress_57
                     -7.3215407537e+02 stress_58
                     -1.0379926161e+03 stress_59
                     -1.4791670340e+03 stress_60
                     -1.9023724174e+03 stress_61
                     -2.1269111989e+03 stress_62
                     -2.1875187985e+03 stress_63
                     -1.9315020839e+03 stress_64
                     -1.5030700669e+03 stress_65
                     -1.3629900133e+03 stress_66
                     -1.6213572374e+03 stress_67
                     -2.0677512612e+03 stress_68
                     -2.2771143567e+03 stress_69
                     -2.2803362684e+03 stress_70
                     -2.1901489634e+03 stress_71
                     -2.0251909591e+03 stress_72
                     -1.7928479090e+03 stress_73
                     -1.5092467929e+03 stress_74
                     -1.2008216905e+03 stress_75
                     -8.9397917908e+02 stress_76
                     -6.0186114540e+02 stress_77
                     -3.2526247495e+02 stress_78
                     -6.1493760178e+01 stress_79
                      1.9033633119e+02 stress_80
                      4.2860835700e+02 stress_81
                      6.5001111839e+02 stress_82
                      8.5041890164e+02 stress_83
                      1.0255701569e+03 stress_84
                      1.1714044518e+03 stress_85
                      1.2844353032e+03 stress_86
                      1.3618999888e+03 stress_87
                      1.4018127961e+03 stress_88
                      1.3321654563e+03 stress_89
                      9.0659354701e+02 stress_90
                      6.5529558229e+02 stress_91
                      9.2974355386e+02 stress_92
                      1.3269423626e+03 stress_93
                      1.3398104760e+03 stress_94
                      1.2829311302e+03 stress_95
                      1.1805937917e+03 stress_96
                      1.0354714543e+03 stress_97
                      8.5298637657e+02 stress_98
                      6.4179458850e+02 stress_99
                      4.1241325688e+02 stress_100
                      1.7430347597e+02 stress_101
                     -6.6287292299e+01 stress_102
                     -3.0668177369e+02 stress_103
                     -5.4658176660e+02 stress_104
                     -7.8652188775e+02 stress_105
                     -1.0270051400e+03 stress_106
                     -1.2680498683e+03 stress_107
                     -1.5091228324e+03 stress_108
                     -1.7492169783e+03 stress_109
                     -1.9869754532e+03 stress_110
                     -2.2207865380e+03 stress_111
                     -2.4488576765e+03 stress_112
                     -2.6693364656e+03 stress_113
                     -2.8803418697e+03 stress_114
                     -3.0800008207e+03 stress_115
                     -3.2665062982e+03 stress_116
                     -3.4381220664e+03 stress_117
                     -3.5932691395e+03 stress_118
                     -3.7304904194e+03 stress_119
                     -3.8484575783e+03 stress_120
                     -3.9460774155e+03 stress_121
                     -4.0224063032e+03 stress_122
                     -4.0767034207e+03 stress_123
                     -4.1084685633e+03 stress_124
                     -4.1170020986e+03 stress_125
                     -4.0215292750e+03 stress_126
                     -3.7958163961e+03 stress_127
                     -3.4939288368e+03 stress_128
                     -3.1689030626e+03 stress_129
                     -2.8599009243e+03 stress_130
                     -2.5956319326e+03 stress_131
                     -2.3982475226e+03 stress_132
                     -2.2842336028e+03 stress_133
                     -2.2773244938e+03 stress_134
                     -2.6682328377e+03 stress_135
                     -2.6908654447e+03 stress_136
                     -2.5149713792e+03 stress_137
                     -2.5491210382e+03 stress_138
                     -2.7132710943e+03 stress_139
                     -3.0260550794e+03 stress_140
                     -3.4210498368e+03 stress_141
                     -3.7506842541e+03 stress_142
                     -3.9784935422e+03 stress_143
                     -4.1369258951e+03 stress_144
                     -4.2181146631e+03 stress_145
                     -4.1988768397e+03 stress_146
                     -3.9802307646e+03 stress_147
                     -3.6435045340e+03 stress_148
                     -3.2926476951e+03 stress_149
                     -3.0058034114e+03 stress_150
                     -2.8333098247e+03 stress_151
                     -2.8072334853e+03 stress_152
                     -3.0122806558e+03 stress_153
                     -3.3946775455e+03 stress_154
                     -3.8036383021e+03 stress_155
                     -4.0354101099e+03 stress_156
                     -4.1315690244e+03 stress_157
                     -4.0170410041e+03 stress_158
                     -3.6360968960e+03 stress_159
                     -3.4204632996e+03 stress_160
                     -3.5781537295e+03 stress_161
                     -3.9865906096e+03 stress_162
                     -4.1991895741e+03 stress_163
                     -4.2259360421e+03 stress_164
                     -4.1866506327e+03 stress_165
                     -4.1103610169e+03 stress_166
                     -4.0002520194e+03 stress_167
                     -3.8606627567e+03 stress_168
                     -3.6966249461e+03 stress_169
                     -3.5129488360e+03 stress_170
                     -3.3138445836e+03 stress_171
                     -3.1026607666e+03 stress_172
                     -2.8818943710e+03 stress_173
                     -2.6534203427e+03 stress_174
                     -2.4185780039e+03 stress_175
                     -2.1784314493e+03 stress_176
                     -1.9339085150e+03 stress_177
                     -1.6858704201e+03 stress_178
                     -1.4352235101e+03 stress_179
                     -1.1829219386e+03 stress_180
                     -9.2997819808e+02 stress_181
                     -6.7749942792e+02 stress_182
                     -4.2664281364e+02 stress_183
                     -1.7863480924e+02 stress_184
                      6.5268732329e+01 stress_185
                      3.0377745788e+02 stress_186
                      5.3559028413e+02 stress_187
                      7.5941699798e+02 stress_188
                      9.7397153182e+02 stress_189
                      1.1780102309e+03 stress_190
                      1.3703341472e+03 stress_191
                      1.5497735256e+03 stress_192
                      1.7152712384e+03 stress_193
                      1.8658140090e+03 stress_194
                      2.0004586579e+03 stress_195
                      2.1184006293e+03 stress_196
                      2.2188840912e+03 stress_197
                      2.3013035206e+03 stress_198
                      2.3651459194e+03 stress_199
                      2.4099920514e+03 stress_200
                      2.4355772179e+03 stress_201
                      2.4368303724e+03 stress_202
                      2.1225857766e+03 stress_203
                      1.8022043229e+03 stress_204
                      1.9051281596e+03 stress_205
                      2.3341868231e+03 stress_206
                      2.3570777826e+03 stress_207
                      2.2971728819e+03 stress_208
                      2.1936047393e+03 stress_209
                      2.0537659778e+03 stress_210
                      1.8849244592e+03 stress_211
                      1.6932578375e+03 stress_212
                      1.4835121567e+03 stress_213
                      1.2593436032e+03 stress_214
                      1.0235620605e+03 stress_215
                      7.7847720519e+02 stress_216
                      5.2618568633e+02 stress_217
                      2.6868376949e+02 stress_218
                      7.9872249588e+00 stress_219
                     -2.5381034122e+02 stress_220
                     -5.1455264957e+02 stress_221
                     -7.7200784993e+02 stress_222
                     -1.0239034593e+03 stress_223
                     -1.2679393277e+03 stress_224
                     -1.5018425045e+03 stress_225
                     -1.7233786053e+03 stress_226
                     -1.9303878989e+03 stress_227
                     -2.1208510374e+03 stress_228
                     -2.2928310799e+03 stress_229
                     -2.4446172629e+03 stress_230
                     -2.5746692901e+03 stress_231
                     -2.6816197536e+03 stress_232
                     -2.7644075559e+03 stress_233
                     -2.8221693427e+03 stress_234
                     -2.8542819357e+03 stress_235
                     -2.8481506744e+03 stress_236
                     -2.5163368993e+03 stress_237
                     -2.2286665207e+03 stress_238
                     -2.4400557256e+03 stress_239
                     -2.7479849795e+03 stress_240
                     -2.4428417491e+03 stress_241
                     -2.2679623050e+03 stress_242
                     -2.5961582316e+03 stress_243
                     -2.7505149594e+03 stress_244
                     -2.9400449983e+03 stress_245
                     -2.7683301958e+03 stress_246
                     -2.4488183515e+03 stress_247
                     -2.0868000986e+03 stress_248
                     -1.7678917153e+03 stress_249
                     -1.5481070096e+03 stress_250
                     -1.4613046691e+03 stress_251
                     -1.5609672724e+03 stress_252
                     -1.8744812264e+03 stress_253
                     -2.2839995531e+03 stress_254
                     -2.6323329824e+03 stress_255
                     -2.8431877890e+03 stress_256
                     -2.8982151554e+03 stress_257
                     -2.6410127574e+03 stress_258
                     -2.2529269969e+03 stress_259
                     -2.0843431568e+03 stress_260
                     -2.2884357120e+03 stress_261
                     -2.6932152129e+03 stress_262
                     -2.9782490288e+03 stress_263
                     -3.0372009093e+03 stress_264
                     -2.9975961064e+03 stress_265
                     -2.9098728116e+03 stress_266
                     -2.7783140122e+03 stress_267
                     -2.6094086588e+03 stress_268
                     -2.4106496275e+03 stress_269
                     -2.1893859609e+03 stress_270
                     -1.9518626519e+03 stress_271
                     -1.7028067349e+03 stress_272
                     -1.4457481970e+03 stress_273
                     -1.1831996422e+03 stress_274
                     -9.1708969339e+02 stress_275
                     -6.4910600058e+02 stress_276
                     -3.8083686120e+02 stress_277
                     -1.1392659525e+02 stress_278
                      1.4988902657e+02 stress_279
                      4.0877312746e+02 stress_280
                      6.6080091608e+02 stress_281
                      9.0399095528e+02 stress_282
                      1.1363316002e+03 stress_283
                      1.3558414991e+03 stress_284
                      1.5605657309e+03 stress_285
                      1.7486592056e+03 stress_286
                      1.9183845051e+03 stress_287
                      2.0681248747e+03 stress_288
                      2.1964722721e+03 stress_289
                      2.3021899805e+03 stress_290
                      2.3842389381e+03 stress_291
                      2.4418384802e+03 stress_292
                      2.4744099275e+03 stress_293
                      2.4748908412e+03 stress_294
                      2.1492050511e+03 stress_295
                      1.8339072440e+03 stress_296
                      1.9573327378e+03 stress_297
                      2.3798377738e+03 stress_298
                      2.3990601835e+03 stress_299
                      2.3585412341e+03 stress_300
                      2.2878907770e+03 stress_301
                      2.1905891589e+03 stress_302
                      2.0704732967e+03 stress_303
                      1.9310397237e+03 stress_304
                      1.7754168070e+03 stress_305
                      1.6060775185e+03 stress_306
                      1.4249568658e+03 stress_307
                      1.2335977575e+03 stress_308
                      1.0331573093e+03 stress_309
                      8.2460902414e+02 stress_310
                      6.0878109859e+02 stress_311
                      3.8641670904e+02 stress_312
                      1.5827211986e+02 stress_313
                     -7.4910775445e+01 stress_314
                     -3.1235903676e+02 stress_315
                     -5.5325313849e+02 stress_316
                     -7.9674237241e+02 stress_317
                     -1.0419275679e+03 stress_318
                     -1.2878721079e+03 stress_319
                     -1.5336146926e+03 stress_320
                     -1.7781556933e+03 stress_321
                     -2.0204877455e+03 stress_322
                     -2.2595773450e+03 stress_323
                     -2.4943943662e+03 stress_324
                     -2.7239208085e+03 stress_325
                     -2.9471222079e+03 stress_326
                     -3.1630125270e+03 stress_327
                     -3.3705856327e+03 stress_328
                     -3.5689114099e+03 stress_329
                     -3.7570747983e+03 stress_330
                     -3.9341880007e+03 stress_331
                     -4.0994379844e+03 stress_332
                     -4.2520351912e+03 stress_333
                     -4.3912679833e+03 stress_334
                     -4.5164917329e+03 stress_335
                     -4.6270744762e+03 stress_336
                     -4.7225245620e+03 stress_337
                     -4.8023713018e+03 stress_338
                     -4.8662296230e+03 stress_339
                     -4.9138068871e+03 stress_340
                     -4.9448689506e+03 stress_341
                     -4.9592612722e+03 stress_342



------------------------------------------
Begin Dakota derivative estimation routine
------------------------------------------

>>>>> map at X performed previously and results retrieved

>>>>> Dakota finite difference gradient evaluation for x[1] + h:

---------------------
Begin Evaluation   14
---------------------
Parameters for evaluation 14:
                      4.5725181840e+02 fy
                      1.9638543062e+05 E
                      4.9074029020e-01 b
                      1.0012091610e+00 cR1
                      9.7615506489e-01 cR2
                      1.9688897411e-01 a1
                      2.5058254804e-01 a3

(Asynchronous job 14 added to queue)


>>>>> Dakota finite difference gradient evaluation for x[2] + h:

---------------------
Begin Evaluation   15
---------------------
Parameters for evaluation 15:
                      4.5679502337e+02 fy
                      1.9658181605e+05 E
                      4.9074029020e-01 b
                      1.0012091610e+00 cR1
                      9.7615506489e-01 cR2
                      1.9688897411e-01 a1
                      2.5058254804e-01 a3

(Asynchronous job 15 added to queue)


>>>>> Dakota finite difference gradient evaluation for x[3] + h:

---------------------
Begin Evaluation   16
---------------------
Parameters for evaluation 16:
                      4.5679502337e+02 fy
                      1.9638543062e+05 E
                      4.9123103049e-01 b
                      1.0012091610e+00 cR1
                      9.7615506489e-01 cR2
                      1.9688897411e-01 a1
                      2.5058254804e-01 a3

(Asynchronous job 16 added to queue)


>>>>> Dakota finite difference gradient evaluation for x[4] + h:

---------------------
Begin Evaluation   17
---------------------
Parameters for evaluation 17:
                      4.5679502337e+02 fy
                      1.9638543062e+05 E
                      4.9074029020e-01 b
                      1.0022103702e+00 cR1
                      9.7615506489e-01 cR2
                      1.9688897411e-01 a1
                      2.5058254804e-01 a3

(Asynchronous job 17 added to queue)


>>>>> Dakota finite difference gradient evaluation for x[5] + h:

---------------------
Begin Evaluation   18
---------------------
Parameters for evaluation 18:
                      4.5679502337e+02 fy
                      1.9638543062e+05 E
                      4.9074029020e-01 b
                      1.0012091610e+00 cR1
                      9.7713121996e-01 cR2
                      1.9688897411e-01 a1
                      2.5058254804e-01 a3

(Asynchronous job 18 added to queue)


>>>>> Dakota finite difference gradient evaluation for x[6] + h:

---------------------
Begin Evaluation   19
---------------------
Parameters for evaluation 19:
                      4.5679502337e+02 fy
                      1.9638543062e+05 E
                      4.9074029020e-01 b
                      1.0012091610e+00 cR1
                      9.7615506489e-01 cR2
                      1.9708586309e-01 a1
                      2.5058254804e-01 a3

(Asynchronous job 19 added to queue)


>>>>> Dakota finite difference gradient evaluation for x[7] + h:

---------------------
Begin Evaluation   20
---------------------
Parameters for evaluation 20:
                      4.5679502337e+02 fy
                      1.9638543062e+05 E
                      4.9074029020e-01 b
                      1.0012091610e+00 cR1
                      9.7615506489e-01 cR2
                      1.9688897411e-01 a1
                      2.5083313059e-01 a3

(Asynchronous job 20 added to queue)



Blocking synchronize of 7 asynchronous evaluations
First pass: initiating 7 local asynchronous jobs
Initiating evaluation 14
nonblocking fork: workflow_driver1 paramsDakota.in results.out
Initiating evaluation 15
nonblocking fork: workflow_driver1 paramsDakota.in results.out
Initiating evaluation 16
nonblocking fork: workflow_driver1 paramsDakota.in results.out
Initiating evaluation 17
nonblocking fork: workflow_driver1 paramsDakota.in results.out
Initiating evaluation 18
nonblocking fork: workflow_driver1 paramsDakota.in results.out
Initiating evaluation 19
nonblocking fork: workflow_driver1 paramsDakota.in results.out
Initiating evaluation 20
nonblocking fork: workflow_driver1 paramsDakota.in results.out
Waiting on completed jobs
Evaluation 14 has completed
Evaluation 15 has completed
Evaluation 16 has completed
Evaluation 17 has completed
Evaluation 18 has completed
Waiting on completed jobs
Evaluation 19 has completed
Waiting on completed jobs
Evaluation 20 has completed

Active response data for evaluation 14:
Active set vector = { 1 1 1 1 1 1 1 1 1 1 1 1 1 1 1 1 1 1 1 1 1 1 1 1 1 1 1 1 1 1 1 1 1 1 1 1 1 1 1 1 1 1 1 1 1 1 1 1 1 1 1 1 1 1 1 1 1 1 1 1 1 1 1 1 1 1 1 1 1 1 1 1 1 1 1 1 1 1 1 1 1 1 1 1 1 1 1 1 1 1 1 1 1 1 1 1 1 1 1 1 1 1 1 1 1 1 1 1 1 1 1 1 1 1 1 1 1 1 1 1 1 1 1 1 1 1 1 1 1 1 1 1 1 1 1 1 1 1 1 1 1 1 1 1 1 1 1 1 1 1 1 1 1 1 1 1 1 1 1 1 1 1 1 1 1 1 1 1 1 1 1 1 1 1 1 1 1 1 1 1 1 1 1 1 1 1 1 1 1 1 1 1 1 1 1 1 1 1 1 1 1 1 1 1 1 1 1 1 1 1 1 1 1 1 1 1 1 1 1 1 1 1 1 1 1 1 1 1 1 1 1 1 1 1 1 1 1 1 1 1 1 1 1 1 1 1 1 1 1 1 1 1 1 1 1 1 1 1 1 1 1 1 1 1 1 1 1 1 1 1 1 1 1 1 1 1 1 1 1 1 1 1 1 1 1 1 1 1 1 1 1 1 1 1 1 1 1 1 1 1 1 1 1 1 1 1 1 1 1 1 1 1 1 1 1 1 1 1 1 1 1 1 1 1 1 1 1 1 1 1 1 1 1 1 1 1 1 1 1 1 1 1 }
                      2.2885259664e+00 stress_1
                     -2.3784291762e+02 stress_2
                     -6.1101564961e+02 stress_3
                     -6.4785339597e+02 stress_4
                     -3.3613914833e+02 stress_5
                      1.3130759048e+02 stress_6
                      4.4550539633e+02 stress_7
                      4.4801533593e+02 stress_8
                      2.1181106641e+02 stress_9
                     -1.9160148947e+02 stress_10
                     -6.4350239210e+02 stress_11
                     -8.7170773200e+02 stress_12
                     -1.0101252479e+03 stress_13
                     -1.0228148567e+03 stress_14
                     -7.0642325851e+02 stress_15
                     -8.6512996312e+02 stress_16
                     -1.0457452944e+03 stress_17
                     -8.6123020929e+02 stress_18
                     -5.1596454846e+02 stress_19
                     -7.6452837252e+01 stress_20
                      2.8565167781e+02 stress_21
                      5.1334860630e+02 stress_22
                      6.6336147855e+02 stress_23
                      7.2595396493e+02 stress_24
                      4.0890825763e+02 stress_25
                      5.2995986392e+02 stress_26
                      6.6658055062e+02 stress_27
                      7.0342181148e+02 stress_28
                      5.8722320659e+02 stress_29
                      3.8019785995e+02 stress_30
                      9.1484957122e+01 stress_31
                     -2.5587378089e+02 stress_32
                     -5.8366425253e+02 stress_33
                     -8.4515606295e+02 stress_34
                     -1.0848399613e+03 stress_35
                     -1.3178450873e+03 stress_36
                     -1.5395214520e+03 stress_37
                     -1.7416772322e+03 stress_38
                     -1.9161686865e+03 stress_39
                     -2.0557279259e+03 stress_40
                     -2.1546281525e+03 stress_41
                     -2.2087356164e+03 stress_42
                     -2.1941212288e+03 stress_43
                     -1.8194837814e+03 stress_44
                     -1.5045404240e+03 stress_45
                     -1.6993885495e+03 stress_46
                     -2.0552266058e+03 stress_47
                     -1.7712857164e+03 stress_48
                     -1.8685487431e+03 stress_49
                     -2.0203605583e+03 stress_50
                     -2.2441981015e+03 stress_51
                     -2.0832536055e+03 stress_52
                     -1.7418752853e+03 stress_53
                     -1.3314838963e+03 stress_54
                     -9.7941312040e+02 stress_55
                     -7.4658414805e+02 stress_56
                     -6.5026857301e+02 stress_57
                     -7.3189380098e+02 stress_58
                     -1.0377323458e+03 stress_59
                     -1.4789128444e+03 stress_60
                     -1.9023286447e+03 stress_61
                     -2.1271203450e+03 stress_62
                     -2.1877591141e+03 stress_63
                     -1.9317397360e+03 stress_64
                     -1.5032475082e+03 stress_65
                     -1.3631223661e+03 stress_66
                     -1.6214895902e+03 stress_67
                     -2.0679039872e+03 stress_68
                     -2.2773774559e+03 stress_69
                     -2.2805996939e+03 stress_70
                     -2.1904122807e+03 stress_71
                     -2.0254510748e+03 stress_72
                     -1.7930858032e+03 stress_73
                     -1.5094122867e+03 stress_74
                     -1.2008543114e+03 stress_75
                     -8.9386349868e+02 stress_76
                     -6.0163514003e+02 stress_77
                     -3.2497557394e+02 stress_78
                     -6.1180172127e+01 stress_79
                      1.9065865911e+02 stress_80
                      4.2893141729e+02 stress_81
                      6.5033186515e+02 stress_82
                      8.5073653130e+02 stress_83
                      1.0258848074e+03 stress_84
                      1.1717166212e+03 stress_85
                      1.2847456021e+03 stress_86
                      1.3622090442e+03 stress_87
                      1.4021212250e+03 stress_88
                      1.3324735218e+03 stress_89
                      9.0684357588e+02 stress_90
                      6.5545650803e+02 stress_91
                      9.2990447961e+02 stress_92
                      1.3271049054e+03 stress_93
                      1.3399738465e+03 stress_94
                      1.2830943235e+03 stress_95
                      1.1807543053e+03 stress_96
                      1.0356193687e+03 stress_97
                      8.5310032450e+02 stress_98
                      6.4184532377e+02 stress_99
                      4.1237617943e+02 stress_100
                      1.7417078202e+02 stress_101
                     -6.6505080378e+01 stress_102
                     -3.0696385387e+02 stress_103
                     -5.4690624237e+02 stress_104
                     -7.8687091607e+02 stress_105
                     -1.0273661803e+03 stress_106
                     -1.2684149340e+03 stress_107
                     -1.5094872254e+03 stress_108
                     -1.7495781615e+03 stress_109
                     -1.9873322267e+03 stress_110
                     -2.2211384929e+03 stress_111
                     -2.4492048524e+03 stress_112
                     -2.6696791410e+03 stress_113
                     -2.8806804394e+03 stress_114
                     -3.0803357251e+03 stress_115
                     -3.2668379840e+03 stress_116
                     -3.4384509667e+03 stress_117
                     -3.5935956637e+03 stress_118
                     -3.7308149508e+03 stress_119
                     -3.8487804749e+03 stress_120
                     -3.9463990122e+03 stress_121
                     -4.0227269157e+03 stress_122
                     -4.0770233498e+03 stress_123
                     -4.1087880990e+03 stress_124
                     -4.1173215294e+03 stress_125
                     -4.0218405214e+03 stress_126
                     -3.7960659510e+03 stress_127
                     -3.4940525040e+03 stress_128
                     -3.1688825199e+03 stress_129
                     -2.8597582319e+03 stress_130
                     -2.5954022972e+03 stress_131
                     -2.3979637062e+03 stress_132
                     -2.2839224070e+03 stress_133
                     -2.2770117260e+03 stress_134
                     -2.6679204283e+03 stress_135
                     -2.6905531870e+03 stress_136
                     -2.5146430867e+03 stress_137
                     -2.5487927456e+03 stress_138
                     -2.7129428169e+03 stress_139
                     -3.0257324578e+03 stress_140
                     -3.4208780084e+03 stress_141
                     -3.7508613880e+03 stress_142
                     -3.9787702353e+03 stress_143
                     -4.1372164935e+03 stress_144
                     -4.2184073305e+03 stress_145
                     -4.1991692083e+03 stress_146
                     -3.9804880718e+03 stress_147
                     -3.6436428767e+03 stress_148
                     -3.2926365943e+03 stress_149
                     -3.0056762755e+03 stress_150
                     -2.8331199361e+03 stress_151
                     -2.8070346473e+03 stress_152
                     -3.0120818188e+03 stress_153
                     -3.3944840712e+03 stress_154
                     -3.8036863550e+03 stress_155
                     -4.0356758492e+03 stress_156
                     -4.1318548221e+03 stress_157
                     -4.0173182261e+03 stress_158
                     -3.6362650446e+03 stress_159
                     -3.4205433548e+03 stress_160
                     -3.5782337847e+03 stress_161
                     -3.9867249884e+03 stress_162
                     -4.1994805009e+03 stress_163
                     -4.2262277442e+03 stress_164
                     -4.1869411256e+03 stress_165
                     -4.1106432448e+03 stress_166
                     -4.0005115083e+03 stress_167
                     -3.8608801640e+03 stress_168
                     -3.6967808151e+03 stress_169
                     -3.5130279471e+03 stress_170
                     -3.3138383789e+03 stress_171
                     -3.1025675677e+03 stress_172
                     -2.8817180954e+03 stress_173
                     -2.6531686531e+03 stress_174
                     -2.4182604884e+03 stress_175
                     -2.1780582313e+03 stress_176
                     -1.9334893278e+03 stress_177
                     -1.6854140788e+03 stress_178
                     -1.4347376861e+03 stress_179
                     -1.1824131168e+03 stress_180
                     -9.2945174349e+02 stress_181
                     -6.7695970772e+02 stress_182
                     -4.2609333415e+02 stress_183
                     -1.7807835328e+02 stress_184
                      6.5829980842e+01 stress_185
                      3.0434180446e+02 stress_186
                      5.3615643107e+02 stress_187
                      7.5998396728e+02 stress_188
                      9.7453860176e+02 stress_189
                      1.1785768846e+03 stress_190
                      1.3709000310e+03 stress_191
                      1.5503384155e+03 stress_192
                      1.7158350133e+03 stress_193
                      1.8663766289e+03 stress_194
                      2.0010201471e+03 stress_195
                      2.1189610620e+03 stress_196
                      2.2194435806e+03 stress_197
                      2.3018622099e+03 stress_198
                      2.3657039738e+03 stress_199
                      2.4105496526e+03 stress_200
                      2.4361345579e+03 stress_201
                      2.4373876995e+03 stress_202
                      2.1230361966e+03 stress_203
                      1.8024913301e+03 stress_204
                      1.9054151668e+03 stress_205
                      2.3344738437e+03 stress_206
                      2.3573648152e+03 stress_207
                      2.2974532029e+03 stress_208
                      2.1938575379e+03 stress_209
                      2.0539659194e+03 stress_210
                      1.8850505323e+03 stress_211
                      1.6932977674e+03 stress_212
                      1.4834625215e+03 stress_213
                      1.2592077798e+03 stress_214
                      1.0233476187e+03 stress_215
                      7.7819370754e+02 stress_216
                      5.2584316016e+02 stress_217
                      2.6829177212e+02 stress_218
                      7.5543681318e+00 stress_219
                     -2.5427657179e+02 stress_220
                     -5.1504590571e+02 stress_221
                     -7.7252283819e+02 stress_222
                     -1.0244358197e+03 stress_223
                     -1.2684855006e+03 stress_224
                     -1.5023996043e+03 stress_225
                     -1.7239443045e+03 stress_226
                     -1.9309603282e+03 stress_227
                     -2.1214287009e+03 stress_228
                     -2.2934127818e+03 stress_229
                     -2.4452020490e+03 stress_230
                     -2.5752563969e+03 stress_231
                     -2.6822085656e+03 stress_232
                     -2.7649975706e+03 stress_233
                     -2.8227601394e+03 stress_234
                     -2.8548731477e+03 stress_235
                     -2.8487418496e+03 stress_236
                     -2.5168462942e+03 stress_237
                     -2.2290371754e+03 stress_238
                     -2.4404268348e+03 stress_239
                     -2.7483683115e+03 stress_240
                     -2.4431633698e+03 stress_241
                     -2.2682137735e+03 stress_242
                     -2.5964144670e+03 stress_243
                     -2.7507855756e+03 stress_244
                     -2.9403492771e+03 stress_245
                     -2.7686155128e+03 stress_246
                     -2.4490020468e+03 stress_247
                     -2.0868282409e+03 stress_248
                     -1.7677856195e+03 stress_249
                     -1.5479190617e+03 stress_250
                     -1.4610873774e+03 stress_251
                     -1.5607501367e+03 stress_252
                     -1.8742822546e+03 stress_253
                     -2.2839259624e+03 stress_254
                     -2.6324393577e+03 stress_255
                     -2.8433909735e+03 stress_256
                     -2.8984389030e+03 stress_257
                     -2.6412030863e+03 stress_258
                     -2.2529870423e+03 stress_259
                     -2.0843346172e+03 stress_260
                     -2.2884298262e+03 stress_261
                     -2.6933057006e+03 stress_262
                     -2.9784744259e+03 stress_263
                     -3.0374487702e+03 stress_264
                     -2.9978430733e+03 stress_265
                     -2.9101117246e+03 stress_266
                     -2.7785277635e+03 stress_267
                     -2.6095731377e+03 stress_268
                     -2.4107408455e+03 stress_269
                     -2.1893868020e+03 stress_270
                     -1.9517660401e+03 stress_271
                     -1.7026149760e+03 stress_272
                     -1.4454702412e+03 stress_273
                     -1.1828478808e+03 stress_274
                     -9.1667741256e+02 stress_275
                     -6.4864576332e+02 stress_276
                     -3.8033967354e+02 stress_277
                     -1.1340163173e+02 stress_278
                      1.5043438140e+02 stress_279
                      4.0933308226e+02 stress_280
                      6.6137102226e+02 stress_281
                      9.0456785752e+02 stress_282
                      1.1369128131e+03 stress_283
                      1.3564252191e+03 stress_284
                      1.5611506826e+03 stress_285
                      1.7492445195e+03 stress_286
                      1.9189696215e+03 stress_287
                      2.0687094687e+03 stress_288
                      2.1970561956e+03 stress_289
                      2.3027732164e+03 stress_290
                      2.3848215650e+03 stress_291
                      2.4424206434e+03 stress_292
                      2.4749918162e+03 stress_293
                      2.4754727258e+03 stress_294
                      2.1496773605e+03 stress_295
                      1.8342189790e+03 stress_296
                      1.9576444727e+03 stress_297
                      2.3801495206e+03 stress_298
                      2.3993719397e+03 stress_299
                      2.3588496842e+03 stress_300
                      2.2881847076e+03 stress_301
                      2.1908525907e+03 stress_302
                      2.0706896263e+03 stress_303
                      1.9311950515e+03 stress_304
                      1.7755017742e+03 stress_305
                      1.6060876043e+03 stress_306
                      1.4248917778e+03 stress_307
                      1.2334604240e+03 stress_308
                      1.0329527782e+03 stress_309
                      8.2434354647e+02 stress_310
                      6.0846141119e+02 stress_311
                      3.8604953318e+02 stress_312
                      1.5786385166e+02 stress_313
                     -7.5354251410e+01 stress_314
                     -3.1283243094e+02 stress_315
                     -5.5375177608e+02 stress_316
                     -7.9726217586e+02 stress_317
                     -1.0424650150e+03 stress_318
                     -1.2884241797e+03 stress_319
                     -1.5341788182e+03 stress_320
                     -1.7787296943e+03 stress_321
                     -2.0210697852e+03 stress_322
                     -2.2601658806e+03 stress_323
                     -2.4949881078e+03 stress_324
                     -2.7245186821e+03 stress_325
                     -2.9477233232e+03 stress_326
                     -3.1636161505e+03 stress_327
                     -3.3711911631e+03 stress_328
                     -3.5695183587e+03 stress_329
                     -3.7576827721e+03 stress_330
                     -3.9347966862e+03 stress_331
                     -4.1000471364e+03 stress_332
                     -4.2526446212e+03 stress_333
                     -4.3918775510e+03 stress_334
                     -4.5171013376e+03 stress_335
                     -4.6276840505e+03 stress_336
                     -4.7231340654e+03 stress_337
                     -4.8029807163e+03 stress_338
                     -4.8668389478e+03 stress_339
                     -4.9144161347e+03 stress_340
                     -4.9454781432e+03 stress_341
                     -4.9598704381e+03 stress_342


Active response data for evaluation 15:
Active set vector = { 1 1 1 1 1 1 1 1 1 1 1 1 1 1 1 1 1 1 1 1 1 1 1 1 1 1 1 1 1 1 1 1 1 1 1 1 1 1 1 1 1 1 1 1 1 1 1 1 1 1 1 1 1 1 1 1 1 1 1 1 1 1 1 1 1 1 1 1 1 1 1 1 1 1 1 1 1 1 1 1 1 1 1 1 1 1 1 1 1 1 1 1 1 1 1 1 1 1 1 1 1 1 1 1 1 1 1 1 1 1 1 1 1 1 1 1 1 1 1 1 1 1 1 1 1 1 1 1 1 1 1 1 1 1 1 1 1 1 1 1 1 1 1 1 1 1 1 1 1 1 1 1 1 1 1 1 1 1 1 1 1 1 1 1 1 1 1 1 1 1 1 1 1 1 1 1 1 1 1 1 1 1 1 1 1 1 1 1 1 1 1 1 1 1 1 1 1 1 1 1 1 1 1 1 1 1 1 1 1 1 1 1 1 1 1 1 1 1 1 1 1 1 1 1 1 1 1 1 1 1 1 1 1 1 1 1 1 1 1 1 1 1 1 1 1 1 1 1 1 1 1 1 1 1 1 1 1 1 1 1 1 1 1 1 1 1 1 1 1 1 1 1 1 1 1 1 1 1 1 1 1 1 1 1 1 1 1 1 1 1 1 1 1 1 1 1 1 1 1 1 1 1 1 1 1 1 1 1 1 1 1 1 1 1 1 1 1 1 1 1 1 1 1 1 1 1 1 1 1 1 1 1 1 1 1 1 1 1 1 1 1 1 }
                      2.2908144923e+00 stress_1
                     -2.3808076028e+02 stress_2
                     -6.1108568870e+02 stress_3
                     -6.4794706377e+02 stress_4
                     -3.3592110187e+02 stress_5
                      1.3199169864e+02 stress_6
                      4.4609049405e+02 stress_7
                      4.4859009623e+02 stress_8
                      2.1214962244e+02 stress_9
                     -1.9166633440e+02 stress_10
                     -6.4377945168e+02 stress_11
                     -8.7205640492e+02 stress_12
                     -1.0106122808e+03 stress_13
                     -1.0233145802e+03 stress_14
                     -7.0660661385e+02 stress_15
                     -8.6547202517e+02 stress_16
                     -1.0462657084e+03 stress_17
                     -8.6156610839e+02 stress_18
                     -5.1595657831e+02 stress_19
                     -7.6162166415e+01 stress_20
                      2.8558352548e+02 stress_21
                      5.1333295152e+02 stress_22
                      6.6347949599e+02 stress_23
                      7.2613261611e+02 stress_24
                      4.0877001176e+02 stress_25
                      5.2994266966e+02 stress_26
                      6.6670002507e+02 stress_27
                      7.0357897829e+02 stress_28
                      5.8726417497e+02 stress_29
                      3.8003199151e+02 stress_30
                      9.1043019605e+01 stress_31
                     -2.5646931608e+02 stress_32
                     -5.8401755875e+02 stress_33
                     -8.4552257193e+02 stress_34
                     -1.0854165874e+03 stress_35
                     -1.3186546922e+03 stress_36
                     -1.5405543964e+03 stress_37
                     -1.7429133653e+03 stress_38
                     -1.9175798678e+03 stress_39
                     -2.0572789631e+03 stress_40
                     -2.1562782447e+03 stress_41
                     -2.2104398859e+03 stress_42
                     -2.1958108849e+03 stress_43
                     -1.8208344240e+03 stress_44
                     -1.5057358611e+03 stress_45
                     -1.7007788347e+03 stress_46
                     -2.0569726040e+03 stress_47
                     -1.7727625179e+03 stress_48
                     -1.8701228076e+03 stress_49
                     -2.0220864345e+03 stress_50
                     -2.2461361125e+03 stress_51
                     -2.0850324859e+03 stress_52
                     -1.7433728678e+03 stress_53
                     -1.3328215035e+03 stress_54
                     -9.8069753867e+02 stress_55
                     -7.4780009470e+02 stress_56
                     -6.5144010656e+02 stress_57
                     -7.3314695976e+02 stress_58
                     -1.0392913348e+03 stress_59
                     -1.4809007527e+03 stress_60
                     -1.9043176947e+03 stress_61
                     -2.1288286318e+03 stress_62
                     -2.1894658294e+03 stress_63
                     -1.9331957843e+03 stress_64
                     -1.5043958252e+03 stress_65
                     -1.3642209051e+03 stress_66
                     -1.6228464964e+03 stress_67
                     -2.0696663951e+03 stress_68
                     -2.2791283390e+03 stress_69
                     -2.2823531471e+03 stress_70
                     -2.1920757642e+03 stress_71
                     -2.0269560293e+03 stress_72
                     -1.7944029808e+03 stress_73
                     -1.5105909049e+03 stress_74
                     -1.2019904230e+03 stress_75
                     -8.9498932724e+02 stress_76
                     -6.0268936341e+02 stress_77
                     -3.2587488985e+02 stress_78
                     -6.1869045007e+01 stress_79
                      1.9020415723e+02 stress_80
                      4.2871373268e+02 stress_81
                      6.5034021693e+02 stress_82
                      8.5095153051e+02 stress_83
                      1.0262809209e+03 stress_84
                      1.1722635352e+03 stress_85
                      1.2854092913e+03 stress_86
                      1.3629526870e+03 stress_87
                      1.4029060349e+03 stress_88
                      1.3331894145e+03 stress_89
                      9.0725022424e+02 stress_90
                      6.5579026421e+02 stress_91
                      9.3051268375e+02 stress_92
                      1.3281070640e+03 stress_93
                      1.3409872122e+03 stress_94
                      1.2840511659e+03 stress_95
                      1.1816141873e+03 stress_96
                      1.0363593871e+03 stress_97
                      8.5372590101e+02 stress_98
                      6.4238625253e+02 stress_99
                      4.1286341334e+02 stress_100
                      1.7461111602e+02 stress_101
                     -6.6135225808e+01 stress_102
                     -3.0670589465e+02 stress_103
                     -5.4680345936e+02 stress_104
                     -7.8695901337e+02 stress_105
                     -1.0276707655e+03 stress_106
                     -1.2689525318e+03 stress_107
                     -1.5102672549e+03 stress_108
                     -1.7506047156e+03 stress_109
                     -1.9886053684e+03 stress_110
                     -2.2226550920e+03 stress_111
                     -2.4509590895e+03 stress_112
                     -2.6716628662e+03 stress_113
                     -2.8828833892e+03 stress_114
                     -3.0827456716e+03 stress_115
                     -3.2694408798e+03 stress_116
                     -3.4412310552e+03 stress_117
                     -3.5965356566e+03 stress_118
                     -3.7338961551e+03 stress_119
                     -3.8519829197e+03 stress_120
                     -3.9497016797e+03 stress_121
                     -4.0261078828e+03 stress_122
                     -4.0804599824e+03 stress_123
                     -4.1122572846e+03 stress_124
                     -4.1207994585e+03 stress_125
                     -4.0252393894e+03 stress_126
                     -3.7993626745e+03 stress_127
                     -3.4972993004e+03 stress_128
                     -3.1720927878e+03 stress_129
                     -2.8629038053e+03 stress_130
                     -2.5984574779e+03 stress_131
                     -2.4009298569e+03 stress_132
                     -2.2868292992e+03 stress_133
                     -2.2799148530e+03 stress_134
                     -2.6712137408e+03 stress_135
                     -2.6938688265e+03 stress_136
                     -2.5178149542e+03 stress_137
                     -2.5519987628e+03 stress_138
                     -2.7163129536e+03 stress_139
                     -3.0294039892e+03 stress_140
                     -3.4246419601e+03 stress_141
                     -3.7542572667e+03 stress_142
                     -3.9821952253e+03 stress_143
                     -4.1407721589e+03 stress_144
                     -4.2220400536e+03 stress_145
                     -4.2027832933e+03 stress_146
                     -3.9839537709e+03 stress_147
                     -3.6470100105e+03 stress_148
                     -3.2959518730e+03 stress_149
                     -3.0089368020e+03 stress_150
                     -2.8363334715e+03 stress_151
                     -2.8102400043e+03 stress_152
                     -3.0154922210e+03 stress_153
                     -3.3982660662e+03 stress_154
                     -3.8073930993e+03 stress_155
                     -4.0391796102e+03 stress_156
                     -4.1354147182e+03 stress_157
                     -4.0207807904e+03 stress_158
                     -3.6395650907e+03 stress_159
                     -3.4238040631e+03 stress_160
                     -3.5816521835e+03 stress_161
                     -3.9904427200e+03 stress_162
                     -4.2030977851e+03 stress_163
                     -4.2298702268e+03 stress_164
                     -4.1905467492e+03 stress_165
                     -4.1141891491e+03 stress_166
                     -4.0039928629e+03 stress_167
                     -3.8643062010e+03 stress_168
                     -3.7001659989e+03 stress_169
                     -3.5163830553e+03 stress_170
                     -3.3171650664e+03 stress_171
                     -3.1058570813e+03 stress_172
                     -2.8849529967e+03 stress_173
                     -2.6563258984e+03 stress_174
                     -2.4213145312e+03 stress_175
                     -2.1809835233e+03 stress_176
                     -1.9362620311e+03 stress_177
                     -1.6880130537e+03 stress_178
                     -1.4371449858e+03 stress_179
                     -1.1846141205e+03 stress_180
                     -9.3143508143e+02 stress_181
                     -6.7871711199e+02 stress_182
                     -4.2761941478e+02 stress_183
                     -1.7937039309e+02 stress_184
                      6.4772245811e+01 stress_185
                      3.0351636926e+02 stress_186
                      5.3555919627e+02 stress_187
                      7.5960890391e+02 stress_188
                      9.7437788223e+02 stress_189
                      1.1786210279e+03 stress_190
                      1.3711380309e+03 stress_191
                      1.5507578363e+03 stress_192
                      1.7164221565e+03 stress_193
                      1.8671166204e+03 stress_194
                      2.0018970408e+03 stress_195
                      2.1199580076e+03 stress_196
                      2.2205428935e+03 stress_197
                      2.3030455406e+03 stress_198
                      2.3669524152e+03 stress_199
                      2.4118438457e+03 stress_200
                      2.4374548579e+03 stress_201
                      2.4387092784e+03 stress_202
                      2.1242576344e+03 stress_203
                      1.8037193782e+03 stress_204
                      1.9067461388e+03 stress_205
                      2.3362338475e+03 stress_206
                      2.3591476859e+03 stress_207
                      2.2991896239e+03 stress_208
                      2.1955455223e+03 stress_209
                      2.0556198865e+03 stress_210
                      1.8866834870e+03 stress_211
                      1.6949114018e+03 stress_212
                      1.4850455697e+03 stress_213
                      1.2607390445e+03 stress_214
                      1.0248003377e+03 stress_215
                      7.7953945061e+02 stress_216
                      5.2705466852e+02 stress_217
                      2.6934472509e+02 stress_218
                      8.4283520837e+00 stress_219
                     -2.5359762556e+02 stress_220
                     -5.1457363559e+02 stress_221
                     -7.7226454234e+02 stress_222
                     -1.0243946578e+03 stress_223
                     -1.2686607322e+03 stress_224
                     -1.5027868685e+03 stress_225
                     -1.7245358903e+03 stress_226
                     -1.9317454488e+03 stress_227
                     -2.1223938032e+03 stress_228
                     -2.2945417759e+03 stress_229
                     -2.4464766510e+03 stress_230
                     -2.5766564013e+03 stress_231
                     -2.6837121036e+03 stress_232
                     -2.7665814859e+03 stress_233
                     -2.8244002489e+03 stress_234
                     -2.8565445374e+03 stress_235
                     -2.8504071819e+03 stress_236
                     -2.5183436741e+03 stress_237
                     -2.2305245992e+03 stress_238
                     -2.4421247361e+03 stress_239
                     -2.7503496511e+03 stress_240
                     -2.4449632054e+03 stress_241
                     -2.2699791642e+03 stress_242
                     -2.5984984924e+03 stress_243
                     -2.7529951355e+03 stress_244
                     -2.9426809323e+03 stress_245
                     -2.7708134625e+03 stress_246
                     -2.4510839596e+03 stress_247
                     -2.0888593696e+03 stress_248
                     -1.7697663230e+03 stress_249
                     -1.5498436616e+03 stress_250
                     -1.4629838512e+03 stress_251
                     -1.5627459592e+03 stress_252
                     -1.8765551382e+03 stress_253
                     -2.2863571620e+03 stress_254
                     -2.6348587792e+03 stress_255
                     -2.8458276516e+03 stress_256
                     -2.9008894922e+03 stress_257
                     -2.6434634475e+03 stress_258
                     -2.2551201441e+03 stress_259
                     -2.0864363743e+03 stress_260
                     -2.2907303471e+03 stress_261
                     -2.6958179203e+03 stress_262
                     -2.9810017751e+03 stress_263
                     -3.0399901512e+03 stress_264
                     -3.0003466438e+03 stress_265
                     -2.9125437203e+03 stress_266
                     -2.7808786162e+03 stress_267
                     -2.6118537566e+03 stress_268
                     -2.4129693511e+03 stress_269
                     -2.1915748889e+03 stress_270
                     -1.9539115593e+03 stress_271
                     -1.7047017504e+03 stress_272
                     -1.4474723497e+03 stress_273
                     -1.1847350452e+03 stress_274
                     -9.1841950150e+02 stress_275
                     -6.5021578280e+02 stress_276
                     -3.8171533185e+02 stress_277
                     -1.1456594329e+02 stress_278
                      1.4949308814e+02 stress_279
                      4.0862145704e+02 stress_280
                      6.6089110578e+02 stress_281
                      9.0431752334e+02 stress_282
                      1.1368861838e+03 stress_283
                      1.3566130725e+03 stress_284
                      1.5615407857e+03 stress_285
                      1.7498219819e+03 stress_286
                      1.9197171961e+03 stress_287
                      2.0696078215e+03 stress_288
                      2.1980842314e+03 stress_289
                      2.3039083409e+03 stress_290
                      2.3860399534e+03 stress_291
                      2.4436975565e+03 stress_292
                      2.4763018487e+03 stress_293
                      2.4767832474e+03 stress_294
                      2.1508816464e+03 stress_295
                      1.8354292857e+03 stress_296
                      1.9589782049e+03 stress_297
                      2.3819057340e+03 stress_298
                      2.4011473567e+03 stress_299
                      2.3605912122e+03 stress_300
                      2.2898846791e+03 stress_301
                      2.1925163407e+03 stress_302
                      2.0723275539e+03 stress_303
                      1.9328156269e+03 stress_304
                      1.7771075042e+03 stress_305
                      1.6076737918e+03 stress_306
                      1.4264472082e+03 stress_307
                      1.2349689902e+03 stress_308
                      1.0343952970e+03 stress_309
                      8.2569940614e+02 stress_310
                      6.0970985989e+02 stress_311
                      3.8717059488e+02 stress_312
                      1.5883895753e+02 stress_313
                     -7.4541905290e+01 stress_314
                     -3.1219768590e+02 stress_315
                     -5.5330742505e+02 stress_316
                     -7.9701896721e+02 stress_317
                     -1.0424316879e+03 stress_318
                     -1.2886075307e+03 stress_319
                     -1.5345837869e+03 stress_320
                     -1.7793594359e+03 stress_321
                     -2.0219257648e+03 stress_322
                     -2.2612479418e+03 stress_323
                     -2.4962945588e+03 stress_324
                     -2.7260463811e+03 stress_325
                     -2.9494677266e+03 stress_326
                     -3.1655714153e+03 stress_327
                     -3.3733501757e+03 stress_328
                     -3.5718728497e+03 stress_329
                     -3.7602233670e+03 stress_330
                     -3.9375129622e+03 stress_331
                     -4.1029277217e+03 stress_332
                     -4.2556772406e+03 stress_333
                     -4.3950491218e+03 stress_334
                     -4.5203980528e+03 stress_335
                     -4.6310914049e+03 stress_336
                     -4.7266370076e+03 stress_337
                     -4.8065636800e+03 stress_338
                     -4.8704859468e+03 stress_339
                     -4.9181108636e+03 stress_340
                     -4.9492040430e+03 stress_341
                     -4.9636107831e+03 stress_342


Active response data for evaluation 16:
Active set vector = { 1 1 1 1 1 1 1 1 1 1 1 1 1 1 1 1 1 1 1 1 1 1 1 1 1 1 1 1 1 1 1 1 1 1 1 1 1 1 1 1 1 1 1 1 1 1 1 1 1 1 1 1 1 1 1 1 1 1 1 1 1 1 1 1 1 1 1 1 1 1 1 1 1 1 1 1 1 1 1 1 1 1 1 1 1 1 1 1 1 1 1 1 1 1 1 1 1 1 1 1 1 1 1 1 1 1 1 1 1 1 1 1 1 1 1 1 1 1 1 1 1 1 1 1 1 1 1 1 1 1 1 1 1 1 1 1 1 1 1 1 1 1 1 1 1 1 1 1 1 1 1 1 1 1 1 1 1 1 1 1 1 1 1 1 1 1 1 1 1 1 1 1 1 1 1 1 1 1 1 1 1 1 1 1 1 1 1 1 1 1 1 1 1 1 1 1 1 1 1 1 1 1 1 1 1 1 1 1 1 1 1 1 1 1 1 1 1 1 1 1 1 1 1 1 1 1 1 1 1 1 1 1 1 1 1 1 1 1 1 1 1 1 1 1 1 1 1 1 1 1 1 1 1 1 1 1 1 1 1 1 1 1 1 1 1 1 1 1 1 1 1 1 1 1 1 1 1 1 1 1 1 1 1 1 1 1 1 1 1 1 1 1 1 1 1 1 1 1 1 1 1 1 1 1 1 1 1 1 1 1 1 1 1 1 1 1 1 1 1 1 1 1 1 1 1 1 1 1 1 1 1 1 1 1 1 1 1 1 1 1 1 1 }
                      2.2885259664e+00 stress_1
                     -2.3784291750e+02 stress_2
                     -6.1081028924e+02 stress_3
                     -6.4767746258e+02 stress_4
                     -3.3596321494e+02 stress_5
                      1.3148286545e+02 stress_6
                      4.4548845404e+02 stress_7
                      4.4799254595e+02 stress_8
                      2.1178827643e+02 stress_9
                     -1.9162427406e+02 stress_10
                     -6.4342714585e+02 stress_11
                     -8.7174852639e+02 stress_12
                     -1.0103043578e+03 stress_13
                     -1.0230066560e+03 stress_14
                     -7.0661506883e+02 stress_15
                     -8.6532177344e+02 stress_16
                     -1.0459380717e+03 stress_17
                     -8.6142298668e+02 stress_18
                     -5.1615797402e+02 stress_19
                     -7.6716009579e+01 stress_20
                      2.8513802776e+02 stress_21
                      5.1293599003e+02 stress_22
                      6.6308562382e+02 stress_23
                      7.2573886420e+02 stress_24
                      4.0869322671e+02 stress_25
                      5.2974483300e+02 stress_26
                      6.6636556978e+02 stress_27
                      7.0320759572e+02 stress_28
                      5.8700899091e+02 stress_29
                      3.7998373275e+02 stress_30
                      9.1276633883e+01 stress_31
                     -2.5599728387e+02 stress_32
                     -5.8358675942e+02 stress_33
                     -8.4513837250e+02 stress_34
                     -1.0850308471e+03 stress_35
                     -1.3182651700e+03 stress_36
                     -1.5401629599e+03 stress_37
                     -1.7425210403e+03 stress_38
                     -1.9171871158e+03 stress_39
                     -2.0568859965e+03 stress_40
                     -2.1558851698e+03 stress_41
                     -2.2100467629e+03 stress_42
                     -2.1954323758e+03 stress_43
                     -1.8208101254e+03 stress_44
                     -1.5059287627e+03 stress_45
                     -1.7007768882e+03 stress_46
                     -2.0566149047e+03 stress_47
                     -1.7726803568e+03 stress_48
                     -1.8699433835e+03 stress_49
                     -2.0217551987e+03 stress_50
                     -2.2455879003e+03 stress_51
                     -2.0846442092e+03 stress_52
                     -1.7432905266e+03 stress_53
                     -1.3329852695e+03 stress_54
                     -9.8097123510e+02 stress_55
                     -7.4812154445e+02 stress_56
                     -6.5177920188e+02 stress_57
                     -7.3340442986e+02 stress_58
                     -1.0392429707e+03 stress_59
                     -1.4804177523e+03 stress_60
                     -1.9036482250e+03 stress_61
                     -2.1282852909e+03 stress_62
                     -2.1889392294e+03 stress_63
                     -1.9329222226e+03 stress_64
                     -1.5044791311e+03 stress_65
                     -1.3643877259e+03 stress_66
                     -1.6227549500e+03 stress_67
                     -2.0691521798e+03 stress_68
                     -2.2786084643e+03 stress_69
                     -2.2818333363e+03 stress_70
                     -2.1916460224e+03 stress_71
                     -2.0266876541e+03 stress_72
                     -1.7943411488e+03 stress_73
                     -1.5107239526e+03 stress_74
                     -1.2022524142e+03 stress_75
                     -8.9531687888e+02 stress_76
                     -6.0305689130e+02 stress_77
                     -3.2627792402e+02 stress_78
                     -6.2305091139e+01 stress_79
                      1.8973983976e+02 stress_80
                      4.2822677073e+02 stress_81
                      6.4983581867e+02 stress_82
                      8.5043401539e+02 stress_83
                      1.0257537159e+03 stress_84
                      1.1717293402e+03 stress_85
                      1.2848702644e+03 stress_86
                      1.3624106132e+03 stress_87
                      1.4023624689e+03 stress_88
                      1.3327150927e+03 stress_89
                      9.0713171450e+02 stress_90
                      6.5580699166e+02 stress_91
                      9.3025496323e+02 stress_92
                      1.3274542277e+03 stress_93
                      1.3403225483e+03 stress_94
                      1.2834431844e+03 stress_95
                      1.1811054792e+03 stress_96
                      1.0359808942e+03 stress_97
                      8.5348783725e+02 stress_98
                      6.4227579627e+02 stress_99
                      4.1285404673e+02 stress_100
                      1.7467710834e+02 stress_101
                     -6.6010632507e+01 stress_102
                     -3.0653122272e+02 stress_103
                     -5.4658326033e+02 stress_104
                     -7.8669702603e+02 stress_105
                     -1.0273710607e+03 stress_106
                     -1.2686195255e+03 stress_107
                     -1.5099053866e+03 stress_108
                     -1.7502181617e+03 stress_109
                     -1.9881978801e+03 stress_110
                     -2.2222299406e+03 stress_111
                     -2.4505190788e+03 stress_112
                     -2.6712103741e+03 stress_113
                     -2.8824204247e+03 stress_114
                     -3.0822739327e+03 stress_115
                     -3.2689618061e+03 stress_116
                     -3.4407458751e+03 stress_117
                     -3.5960454261e+03 stress_118
                     -3.7334017916e+03 stress_119
                     -3.8514852311e+03 stress_120
                     -3.9492013870e+03 stress_121
                     -4.0256056411e+03 stress_122
                     -4.0799563985e+03 stress_123
                     -4.1117529320e+03 stress_124
                     -4.1202949014e+03 stress_125
                     -4.0248206130e+03 stress_126
                     -3.7990904622e+03 stress_127
                     -3.4971469285e+03 stress_128
                     -3.1720189990e+03 stress_129
                     -2.8628826920e+03 stress_130
                     -2.5984739551e+03 stress_131
                     -2.4009722172e+03 stress_132
                     -2.2868860759e+03 stress_133
                     -2.2799724930e+03 stress_134
                     -2.6708808570e+03 stress_135
                     -2.6935134733e+03 stress_136
                     -2.5176145521e+03 stress_137
                     -2.5517642110e+03 stress_138
                     -2.7159142678e+03 stress_139
                     -3.0286986305e+03 stress_140
                     -3.4237108454e+03 stress_141
                     -3.7534593566e+03 stress_142
                     -3.9814467443e+03 stress_143
                     -4.1400273033e+03 stress_144
                     -4.2212948244e+03 stress_145
                     -4.2020569636e+03 stress_146
                     -3.9834028820e+03 stress_147
                     -3.6466321016e+03 stress_148
                     -3.2956845599e+03 stress_149
                     -3.0087335354e+03 stress_150
                     -2.8361626789e+03 stress_151
                     -2.8100738563e+03 stress_152
                     -3.0151210268e+03 stress_153
                     -3.3975182603e+03 stress_154
                     -3.8065131506e+03 stress_155
                     -4.0384194628e+03 stress_156
                     -4.1346645849e+03 stress_157
                     -4.0201350385e+03 stress_158
                     -3.6391563464e+03 stress_159
                     -3.4234804983e+03 stress_160
                     -3.5811709282e+03 stress_161
                     -3.9896140365e+03 stress_162
                     -4.2023470415e+03 stress_163
                     -4.2291198434e+03 stress_164
                     -4.1898342617e+03 stress_165
                     -4.1135430928e+03 stress_166
                     -4.0034286215e+03 stress_167
                     -3.8638264618e+03 stress_168
                     -3.6997645357e+03 stress_169
                     -3.5160496557e+03 stress_170
                     -3.3168893819e+03 stress_171
                     -3.1056307263e+03 stress_172
                     -2.8847701064e+03 stress_173
                     -2.6561827702e+03 stress_174
                     -2.4212089603e+03 stress_175
                     -2.1809141450e+03 stress_176
                     -1.9362278302e+03 stress_177
                     -1.6880130614e+03 stress_178
                     -1.4371781186e+03 stress_179
                     -1.1846791228e+03 stress_180
                     -9.3153052760e+02 stress_181
                     -6.7884143375e+02 stress_182
                     -4.2777094365e+02 stress_183
                     -1.7954739978e+02 stress_184
                      6.4571514114e+01 stress_185
                      3.0329366066e+02 stress_186
                      5.3531623204e+02 stress_187
                      7.5934736237e+02 stress_188
                      9.7409938977e+02 stress_189
                      1.1783271523e+03 stress_190
                      1.3708302790e+03 stress_191
                      1.5504376562e+03 stress_192
                      1.7160909366e+03 stress_193
                      1.8667756947e+03 stress_194
                      2.0015476952e+03 stress_195
                      2.1196014813e+03 stress_196
                      2.2201803885e+03 stress_197
                      2.3026782245e+03 stress_198
                      2.3665814286e+03 stress_199
                      2.4114703096e+03 stress_200
                      2.4370798778e+03 stress_201
                      2.4383342278e+03 stress_202
                      2.1240562844e+03 stress_203
                      1.8035860492e+03 stress_204
                      1.9065098859e+03 stress_205
                      2.3355685550e+03 stress_206
                      2.3584595199e+03 stress_207
                      2.2985533016e+03 stress_208
                      2.1949776071e+03 stress_209
                      2.0551191219e+03 stress_210
                      1.8862404520e+03 stress_211
                      1.6945156134e+03 stress_212
                      1.4846887882e+03 stress_213
                      1.2604158965e+03 stress_214
                      1.0245077553e+03 stress_215
                      7.7927582082e+02 stress_216
                      5.2681910743e+02 stress_217
                      2.6913659222e+02 stress_218
                      8.2469713546e+00 stress_219
                     -2.5375309805e+02 stress_220
                     -5.1470424989e+02 stress_221
                     -7.7237154597e+02 stress_222
                     -1.0244794634e+03 stress_223
                     -1.2687248797e+03 stress_224
                     -1.5028319870e+03 stress_225
                     -1.7245636666e+03 stress_226
                     -1.9317576024e+03 stress_227
                     -2.1223920651e+03 stress_228
                     -2.2945278790e+03 stress_229
                     -2.4464523176e+03 stress_230
                     -2.5766233393e+03 stress_231
                     -2.6836720076e+03 stress_232
                     -2.7665360324e+03 stress_233
                     -2.8243511020e+03 stress_234
                     -2.8564933527e+03 stress_235
                     -2.8503620879e+03 stress_236
                     -2.5185292086e+03 stress_237
                     -2.2308068899e+03 stress_238
                     -2.4421961876e+03 stress_239
                     -2.7501310392e+03 stress_240
                     -2.4449729415e+03 stress_241
                     -2.2700688169e+03 stress_242
                     -2.5982657734e+03 stress_243
                     -2.7526272674e+03 stress_244
                     -2.9421770069e+03 stress_245
                     -2.7704584616e+03 stress_246
                     -2.4509137817e+03 stress_247
                     -2.0888124357e+03 stress_248
                     -1.7697903332e+03 stress_249
                     -1.5499066753e+03 stress_250
                     -1.4630609910e+03 stress_251
                     -1.5627236072e+03 stress_252
                     -1.8762400918e+03 stress_253
                     -2.2857886371e+03 stress_254
                     -2.6342082228e+03 stress_255
                     -2.8451561122e+03 stress_256
                     -2.9002132436e+03 stress_257
                     -2.6430033686e+03 stress_258
                     -2.2548679243e+03 stress_259
                     -2.0862461706e+03 stress_260
                     -2.2903390533e+03 stress_261
                     -2.6951438200e+03 stress_262
                     -2.9802655094e+03 stress_263
                     -3.0392472931e+03 stress_264
                     -2.9996423683e+03 stress_265
                     -2.9119176011e+03 stress_266
                     -2.7803527945e+03 stress_267
                     -2.6114321123e+03 stress_268
                     -2.4126431055e+03 stress_269
                     -2.1913301718e+03 stress_270
                     -1.9537351807e+03 stress_271
                     -1.7045838128e+03 stress_272
                     -1.4474063746e+03 stress_273
                     -1.1847170301e+03 stress_274
                     -9.1844680953e+02 stress_275
                     -6.5028630542e+02 stress_276
                     -3.8182701068e+02 stress_277
                     -1.1471655578e+02 stress_278
                      1.4930597525e+02 stress_279
                      4.0840045207e+02 stress_280
                      6.6063892715e+02 stress_281
                      9.0403693272e+02 stress_282
                      1.1365799313e+03 stress_283
                      1.3562838540e+03 stress_284
                      1.5611912189e+03 stress_285
                      1.7494545894e+03 stress_286
                      1.9193344012e+03 stress_287
                      2.0692119527e+03 stress_288
                      2.1976775253e+03 stress_289
                      2.3034929554e+03 stress_290
                      2.3856179809e+03 stress_291
                      2.4432710362e+03 stress_292
                      2.4758727839e+03 stress_293
                      2.4763541452e+03 stress_294
                      2.1506346080e+03 stress_295
                      1.8352519677e+03 stress_296
                      1.9586774615e+03 stress_297
                      2.3811825069e+03 stress_298
                      2.4004049249e+03 stress_299
                      2.3598853913e+03 stress_300
                      2.2892315119e+03 stress_301
                      2.1919206259e+03 stress_302
                      2.0717865333e+03 stress_303
                      1.9323230005e+03 stress_304
                      1.7766562778e+03 stress_305
                      1.6072579139e+03 stress_306
                      1.4260621551e+03 stress_307
                      1.2346117359e+03 stress_308
                      1.0340640210e+03 stress_309
                      8.2539311778e+02 stress_310
                      6.0942806854e+02 stress_311
                      3.8691305755e+02 stress_312
                      1.5860550060e+02 stress_313
                     -7.4751491172e+01 stress_314
                     -3.1238370439e+02 stress_315
                     -5.5347029920e+02 stress_316
                     -7.9715924128e+02 stress_317
                     -1.0425500185e+03 stress_318
                     -1.2887046709e+03 stress_319
                     -1.5346605674e+03 stress_320
                     -1.7794167484e+03 stress_321
                     -2.0219645442e+03 stress_322
                     -2.2612691528e+03 stress_323
                     -2.4962991833e+03 stress_324
                     -2.7260354075e+03 stress_325
                     -2.9494421437e+03 stress_326
                     -3.1655322040e+03 stress_327
                     -3.3732983073e+03 stress_328
                     -3.5718092802e+03 stress_329
                     -3.7601490357e+03 stress_330
                     -3.9374287917e+03 stress_331
                     -4.1028346159e+03 stress_332
                     -4.2555760863e+03 stress_333
                     -4.3949407884e+03 stress_334
                     -4.5202833926e+03 stress_335
                     -4.6309712572e+03 stress_336
                     -4.7265121969e+03 stress_337
                     -4.8064350198e+03 stress_338
                     -4.8703542409e+03 stress_339
                     -4.9179769073e+03 stress_340
                     -4.9490686261e+03 stress_341
                     -4.9634746917e+03 stress_342


Active response data for evaluation 17:
Active set vector = { 1 1 1 1 1 1 1 1 1 1 1 1 1 1 1 1 1 1 1 1 1 1 1 1 1 1 1 1 1 1 1 1 1 1 1 1 1 1 1 1 1 1 1 1 1 1 1 1 1 1 1 1 1 1 1 1 1 1 1 1 1 1 1 1 1 1 1 1 1 1 1 1 1 1 1 1 1 1 1 1 1 1 1 1 1 1 1 1 1 1 1 1 1 1 1 1 1 1 1 1 1 1 1 1 1 1 1 1 1 1 1 1 1 1 1 1 1 1 1 1 1 1 1 1 1 1 1 1 1 1 1 1 1 1 1 1 1 1 1 1 1 1 1 1 1 1 1 1 1 1 1 1 1 1 1 1 1 1 1 1 1 1 1 1 1 1 1 1 1 1 1 1 1 1 1 1 1 1 1 1 1 1 1 1 1 1 1 1 1 1 1 1 1 1 1 1 1 1 1 1 1 1 1 1 1 1 1 1 1 1 1 1 1 1 1 1 1 1 1 1 1 1 1 1 1 1 1 1 1 1 1 1 1 1 1 1 1 1 1 1 1 1 1 1 1 1 1 1 1 1 1 1 1 1 1 1 1 1 1 1 1 1 1 1 1 1 1 1 1 1 1 1 1 1 1 1 1 1 1 1 1 1 1 1 1 1 1 1 1 1 1 1 1 1 1 1 1 1 1 1 1 1 1 1 1 1 1 1 1 1 1 1 1 1 1 1 1 1 1 1 1 1 1 1 1 1 1 1 1 1 1 1 1 1 1 1 1 1 1 1 1 1 }
                      2.2885259664e+00 stress_1
                     -2.3784291747e+02 stress_2
                     -6.1074493593e+02 stress_3
                     -6.4757634696e+02 stress_4
                     -3.3586209932e+02 stress_5
                      1.3158392774e+02 stress_6
                      4.4557349026e+02 stress_7
                      4.4807698338e+02 stress_8
                      2.1187271386e+02 stress_9
                     -1.9153983618e+02 stress_10
                     -6.4331989194e+02 stress_11
                     -8.7144634409e+02 stress_12
                     -1.0098638340e+03 stress_13
                     -1.0225534433e+03 stress_14
                     -7.0616186793e+02 stress_15
                     -8.6486857254e+02 stress_16
                     -1.0454822041e+03 stress_17
                     -8.6096711920e+02 stress_18
                     -5.1570272458e+02 stress_19
                     -7.6307632780e+01 stress_20
                      2.8540218659e+02 stress_21
                      5.1305971648e+02 stress_22
                      6.6307855004e+02 stress_23
                      7.2567310822e+02 stress_24
                      4.0862756305e+02 stress_25
                      5.2967916934e+02 stress_26
                      6.6629988389e+02 stress_27
                      7.0314170821e+02 stress_28
                      5.8694310352e+02 stress_29
                      3.7991796141e+02 stress_30
                      9.1217580795e+01 stress_31
                     -2.5597656187e+02 stress_32
                     -5.8340507062e+02 stress_33
                     -8.4484111825e+02 stress_34
                     -1.0845570546e+03 stress_35
                     -1.3175793718e+03 stress_36
                     -1.5392628754e+03 stress_37
                     -1.7414217146e+03 stress_38
                     -1.9159145789e+03 stress_39
                     -2.0554745096e+03 stress_40
                     -2.1543750806e+03 stress_41
                     -2.2084826960e+03 stress_42
                     -2.1938683114e+03 stress_43
                     -1.8193296996e+03 stress_44
                     -1.5047780525e+03 stress_45
                     -1.6996261780e+03 stress_46
                     -2.0554640258e+03 stress_47
                     -1.7715640680e+03 stress_48
                     -1.8688270947e+03 stress_49
                     -2.0206389098e+03 stress_50
                     -2.2444510021e+03 stress_51
                     -2.0835119629e+03 stress_52
                     -1.7422945519e+03 stress_53
                     -1.3324660284e+03 stress_54
                     -9.8089053951e+02 stress_55
                     -7.4820969790e+02 stress_56
                     -6.5190533652e+02 stress_57
                     -7.3353056450e+02 stress_58
                     -1.0393690945e+03 stress_59
                     -1.4805277525e+03 stress_60
                     -1.9031880405e+03 stress_61
                     -2.1270678874e+03 stress_62
                     -2.1875924853e+03 stress_63
                     -1.9315874539e+03 stress_64
                     -1.5033798733e+03 stress_65
                     -1.3634475939e+03 stress_66
                     -1.6218148179e+03 stress_67
                     -2.0681444589e+03 stress_68
                     -2.2771287945e+03 stress_69
                     -2.2803493732e+03 stress_70
                     -2.1901626096e+03 stress_71
                     -2.0252194560e+03 stress_72
                     -1.7929704307e+03 stress_73
                     -1.5096394773e+03 stress_74
                     -1.2016237650e+03 stress_75
                     -8.9510475492e+02 stress_76
                     -6.0307884069e+02 stress_77
                     -3.2639477620e+02 stress_78
                     -6.2471744155e+01 stress_79
                      1.8951441484e+02 stress_80
                      4.2791889255e+02 stress_81
                      6.4942604547e+02 stress_82
                      8.4991315883e+02 stress_83
                      1.0251232851e+03 stress_84
                      1.1710001345e+03 stress_85
                      1.2840604268e+03 stress_86
                      1.3615436842e+03 stress_87
                      1.4014655876e+03 stress_88
                      1.3318209418e+03 stress_89
                      9.0661944521e+02 stress_90
                      6.5582696748e+02 stress_91
                      9.3027493906e+02 stress_92
                      1.3274671302e+03 stress_93
                      1.3403317733e+03 stress_94
                      1.2834537360e+03 stress_95
                      1.1811350720e+03 stress_96
                      1.0360952185e+03 stress_97
                      8.5381657619e+02 stress_98
                      6.4297423795e+02 stress_99
                      4.1401945716e+02 stress_100
                      1.7629251286e+02 stress_101
                     -6.4054584001e+01 stress_102
                     -3.0436880945e+02 stress_103
                     -5.4432068639e+02 stress_104
                     -7.8439515703e+02 stress_105
                     -1.0250517867e+03 stress_106
                     -1.2662794355e+03 stress_107
                     -1.5075279633e+03 stress_108
                     -1.7477821393e+03 stress_109
                     -1.9856821831e+03 stress_110
                     -2.2196162766e+03 stress_111
                     -2.4477931180e+03 stress_112
                     -2.6683621072e+03 stress_113
                     -2.8794441092e+03 stress_114
                     -3.0791678408e+03 stress_115
                     -3.2657278700e+03 stress_116
                     -3.4373893190e+03 stress_117
                     -3.5925743513e+03 stress_118
                     -3.7298268116e+03 stress_119
                     -3.8478191289e+03 stress_120
                     -3.9454587158e+03 stress_121
                     -4.0218024108e+03 stress_122
                     -4.0761097379e+03 stress_123
                     -4.1078807328e+03 stress_124
                     -4.1164158253e+03 stress_125
                     -4.0210593645e+03 stress_126
                     -3.7961631052e+03 stress_127
                     -3.4958184090e+03 stress_128
                     -3.1724156399e+03 stress_129
                     -2.8646629880e+03 stress_130
                     -2.6011954062e+03 stress_131
                     -2.4042612536e+03 stress_132
                     -2.2904564382e+03 stress_133
                     -2.2835588996e+03 stress_134
                     -2.6744641858e+03 stress_135
                     -2.6970954934e+03 stress_136
                     -2.5213503295e+03 stress_137
                     -2.5554999884e+03 stress_138
                     -2.7196499133e+03 stress_139
                     -3.0323835274e+03 stress_140
                     -3.4259677156e+03 stress_141
                     -3.7521196368e+03 stress_142
                     -3.9787885711e+03 stress_143
                     -4.1370164941e+03 stress_144
                     -4.2181641661e+03 stress_145
                     -4.1989306745e+03 stress_146
                     -3.9807496224e+03 stress_147
                     -3.6454817231e+03 stress_148
                     -3.2963096141e+03 stress_149
                     -3.0106678552e+03 stress_150
                     -2.8387803361e+03 stress_151
                     -2.8127875202e+03 stress_152
                     -3.0178346814e+03 stress_153
                     -3.4001779772e+03 stress_154
                     -3.8065677318e+03 stress_155
                     -4.0358291077e+03 stress_156
                     -4.1317093535e+03 stress_157
                     -4.0172959680e+03 stress_158
                     -3.6376842631e+03 stress_159
                     -3.4230516389e+03 stress_160
                     -3.5807420686e+03 stress_161
                     -3.9885518063e+03 stress_162
                     -4.1992154449e+03 stress_163
                     -4.2259487399e+03 stress_164
                     -4.1866805891e+03 stress_165
                     -4.1105041437e+03 stress_166
                     -4.0006948339e+03 stress_167
                     -3.8616395434e+03 stress_168
                     -3.6983523169e+03 stress_169
                     -3.5155733835e+03 stress_170
                     -3.3174203628e+03 stress_171
                     -3.1071557549e+03 stress_172
                     -2.8872137187e+03 stress_173
                     -2.6594335517e+03 stress_174
                     -2.4251426709e+03 stress_175
                     -2.1854097324e+03 stress_176
                     -1.9411767993e+03 stress_177
                     -1.6933236965e+03 stress_178
                     -1.4427761657e+03 stress_179
                     -1.1905065470e+03 stress_180
                     -9.3754331560e+02 stress_181
                     -6.8500707857e+02 stress_182
                     -4.3406603961e+02 stress_183
                     -1.8595547676e+02 stress_184
                      5.8061815495e+01 stress_185
                      2.9669009326e+02 stress_186
                      5.2862413924e+02 stress_187
                      7.5257060980e+02 stress_188
                      9.6724108419e+02 stress_189
                      1.1713901698e+03 stress_190
                      1.3638176500e+03 stress_191
                      1.5433528438e+03 stress_192
                      1.7089379922e+03 stress_193
                      1.8595593704e+03 stress_194
                      1.9942734908e+03 stress_195
                      2.1122756197e+03 stress_196
                      2.2128097958e+03 stress_197
                      2.2952704403e+03 stress_198
                      2.3591445223e+03 stress_199
                      2.4040127821e+03 stress_200
                      2.4296105247e+03 stress_201
                      2.4308642943e+03 stress_202
                      2.1185366582e+03 stress_203
                      1.8008900905e+03 stress_204
                      1.9038139272e+03 stress_205
                      2.3328725926e+03 stress_206
                      2.3557635878e+03 stress_207
                      2.2959841562e+03 stress_208
                      2.1929083475e+03 stress_209
                      2.0539791740e+03 stress_210
                      1.8863626923e+03 stress_211
                      1.6960724870e+03 stress_212
                      1.4877031966e+03 stress_213
                      1.2648044880e+03 stress_214
                      1.0301283348e+03 stress_215
                      7.8596422279e+02 stress_216
                      5.3441285211e+02 stress_217
                      2.7748790740e+02 stress_218
                      1.7228181602e+01 stress_219
                     -2.4424874501e+02 stress_220
                     -5.0476411930e+02 stress_221
                     -7.6206627780e+02 stress_222
                     -1.0138658955e+03 stress_223
                     -1.2578488603e+03 stress_224
                     -1.4917308354e+03 stress_225
                     -1.7132682691e+03 stress_226
                     -1.9202941142e+03 stress_227
                     -2.1107832326e+03 stress_228
                     -2.2827941237e+03 stress_229
                     -2.4346124735e+03 stress_230
                     -2.5646952412e+03 stress_231
                     -2.6716729191e+03 stress_232
                     -2.7544828646e+03 stress_233
                     -2.8122606127e+03 stress_234
                     -2.8443822510e+03 stress_235
                     -2.8382516023e+03 stress_236
                     -2.5076787944e+03 stress_237
                     -2.2220249332e+03 stress_238
                     -2.4334187469e+03 stress_239
                     -2.7416002844e+03 stress_240
                     -2.4373662741e+03 stress_241
                     -2.2634814976e+03 stress_242
                     -2.5917035505e+03 stress_243
                     -2.7461848600e+03 stress_244
                     -2.9361876505e+03 stress_245
                     -2.7647477408e+03 stress_246
                     -2.4466304253e+03 stress_247
                     -2.0866316481e+03 stress_248
                     -1.7693739337e+03 stress_249
                     -1.5505488988e+03 stress_250
                     -1.4640802974e+03 stress_251
                     -1.5637418330e+03 stress_252
                     -1.8771367773e+03 stress_253
                     -2.2858699913e+03 stress_254
                     -2.6331361336e+03 stress_255
                     -2.8434506688e+03 stress_256
                     -2.8983681518e+03 stress_257
                     -2.6415812511e+03 stress_258
                     -2.2549837003e+03 stress_259
                     -2.0871329903e+03 stress_260
                     -2.2912048503e+03 stress_261
                     -2.6952118199e+03 stress_262
                     -2.9791129482e+03 stress_263
                     -3.0378663910e+03 stress_264
                     -2.9982734865e+03 stress_265
                     -2.9106527194e+03 stress_266
                     -2.7794008970e+03 stress_267
                     -2.6110709637e+03 stress_268
                     -2.4131280610e+03 stress_269
                     -2.1928193602e+03 stress_270
                     -1.9562646274e+03 stress_271
                     -1.7080874403e+03 stress_272
                     -1.4517555310e+03 stress_273
                     -1.1897597167e+03 stress_274
                     -9.2403531024e+02 stress_275
                     -6.5629219578e+02 stress_276
                     -3.8814671917e+02 stress_277
                     -1.2127098724e+02 stress_278
                      1.4257467662e+02 stress_279
                      4.0153312709e+02 stress_280
                      6.5366356911e+02 stress_281
                      8.9697231998e+02 stress_282
                      1.1294385795e+03 stress_283
                      1.3490742914e+03 stress_284
                      1.5539196881e+03 stress_285
                      1.7421262521e+03 stress_286
                      1.9119541683e+03 stress_287
                      2.0617850220e+03 stress_288
                      2.1902096725e+03 stress_289
                      2.2959906708e+03 stress_290
                      2.3780884779e+03 stress_291
                      2.4357221514e+03 stress_292
                      2.4683128356e+03 stress_293
                      2.4687940330e+03 stress_294
                      2.1450531742e+03 stress_295
                      1.8324210244e+03 stress_296
                      1.9558465181e+03 stress_297
                      2.3783516614e+03 stress_298
                      2.3975742288e+03 stress_299
                      2.3571171915e+03 stress_300
                      2.2867284231e+03 stress_301
                      2.1899589278e+03 stress_302
                      2.0706405254e+03 stress_303
                      1.9322099107e+03 stress_304
                      1.7777101461e+03 stress_305
                      1.6095301722e+03 stress_306
                      1.4295362670e+03 stress_307
                      1.2392227656e+03 stress_308
                      1.0397181247e+03 stress_309
                      8.3198281313e+02 stress_310
                      6.1684347994e+02 stress_311
                      3.9504922243e+02 stress_312
                      1.6736641777e+02 stress_313
                     -6.5450827994e+01 stress_314
                     -3.0261684933e+02 stress_315
                     -5.4329980808e+02 stress_316
                     -7.8663759675e+02 stress_317
                     -1.0317208248e+03 stress_318
                     -1.2776038995e+03 stress_319
                     -1.5233177595e+03 stress_320
                     -1.7678561448e+03 stress_321
                     -2.0102060725e+03 stress_322
                     -2.2493293094e+03 stress_323
                     -2.4841917723e+03 stress_324
                     -2.7137721648e+03 stress_325
                     -2.9370332802e+03 stress_326
                     -3.1529868180e+03 stress_327
                     -3.3606247648e+03 stress_328
                     -3.5590154690e+03 stress_329
                     -3.7472426030e+03 stress_330
                     -3.9244173258e+03 stress_331
                     -4.0897257603e+03 stress_332
                     -4.2423776507e+03 stress_333
                     -4.3816607996e+03 stress_334
                     -4.5069301295e+03 stress_335
                     -4.6175532974e+03 stress_336
                     -4.7130383733e+03 stress_337
                     -4.7929144340e+03 stress_338
                     -4.8567962283e+03 stress_339
                     -4.9043909904e+03 stress_340
                     -4.9354644809e+03 stress_341
                     -4.9498620976e+03 stress_342


Active response data for evaluation 18:
Active set vector = { 1 1 1 1 1 1 1 1 1 1 1 1 1 1 1 1 1 1 1 1 1 1 1 1 1 1 1 1 1 1 1 1 1 1 1 1 1 1 1 1 1 1 1 1 1 1 1 1 1 1 1 1 1 1 1 1 1 1 1 1 1 1 1 1 1 1 1 1 1 1 1 1 1 1 1 1 1 1 1 1 1 1 1 1 1 1 1 1 1 1 1 1 1 1 1 1 1 1 1 1 1 1 1 1 1 1 1 1 1 1 1 1 1 1 1 1 1 1 1 1 1 1 1 1 1 1 1 1 1 1 1 1 1 1 1 1 1 1 1 1 1 1 1 1 1 1 1 1 1 1 1 1 1 1 1 1 1 1 1 1 1 1 1 1 1 1 1 1 1 1 1 1 1 1 1 1 1 1 1 1 1 1 1 1 1 1 1 1 1 1 1 1 1 1 1 1 1 1 1 1 1 1 1 1 1 1 1 1 1 1 1 1 1 1 1 1 1 1 1 1 1 1 1 1 1 1 1 1 1 1 1 1 1 1 1 1 1 1 1 1 1 1 1 1 1 1 1 1 1 1 1 1 1 1 1 1 1 1 1 1 1 1 1 1 1 1 1 1 1 1 1 1 1 1 1 1 1 1 1 1 1 1 1 1 1 1 1 1 1 1 1 1 1 1 1 1 1 1 1 1 1 1 1 1 1 1 1 1 1 1 1 1 1 1 1 1 1 1 1 1 1 1 1 1 1 1 1 1 1 1 1 1 1 1 1 1 1 1 1 1 1 1 }
                      2.2885259664e+00 stress_1
                     -2.3784291751e+02 stress_2
                     -6.1074571497e+02 stress_3
                     -6.4757654250e+02 stress_4
                     -3.3586229486e+02 stress_5
                      1.3158378547e+02 stress_6
                      4.4557872965e+02 stress_7
                      4.4808228991e+02 stress_8
                      2.1187802038e+02 stress_9
                     -1.9153452990e+02 stress_10
                     -6.4331823323e+02 stress_11
                     -8.7144635018e+02 stress_12
                     -1.0098638345e+03 stress_13
                     -1.0225534437e+03 stress_14
                     -7.0616185287e+02 stress_15
                     -8.6486855748e+02 stress_16
                     -1.0454832668e+03 stress_17
                     -8.6096818173e+02 stress_18
                     -5.1570299528e+02 stress_19
                     -7.6254567728e+01 stress_20
                      2.8550298376e+02 stress_21
                      5.1309364057e+02 stress_22
                      6.6309292088e+02 stress_23
                      7.2568326050e+02 stress_24
                      4.0863759975e+02 stress_25
                      5.2968920604e+02 stress_26
                      6.6630992181e+02 stress_27
                      7.0315160442e+02 stress_28
                      5.8695299958e+02 stress_29
                      3.7992771232e+02 stress_30
                      9.1219169181e+01 stress_31
                     -2.5606412457e+02 stress_32
                     -5.8359385050e+02 stress_33
                     -8.4494025042e+02 stress_34
                     -1.0845948992e+03 stress_35
                     -1.3175947106e+03 stress_36
                     -1.5392699653e+03 stress_37
                     -1.7414254795e+03 stress_38
                     -1.9159168640e+03 stress_39
                     -2.0554760847e+03 stress_40
                     -2.1543763066e+03 stress_41
                     -2.2084837695e+03 stress_42
                     -2.1938693821e+03 stress_43
                     -1.8192396538e+03 stress_44
                     -1.5043370872e+03 stress_45
                     -1.6991852127e+03 stress_46
                     -2.0550232521e+03 stress_47
                     -1.7710855024e+03 stress_48
                     -1.8683485290e+03 stress_49
                     -2.0201603442e+03 stress_50
                     -2.2439950180e+03 stress_51
                     -2.0830508579e+03 stress_52
                     -1.7416859965e+03 stress_53
                     -1.3313640172e+03 stress_54
                     -9.7939842351e+02 stress_55
                     -7.4664313032e+02 stress_56
                     -6.5035535446e+02 stress_57
                     -7.3198058244e+02 stress_58
                     -1.0378191252e+03 stress_59
                     -1.4789963318e+03 stress_60
                     -1.9022854589e+03 stress_61
                     -2.1269058625e+03 stress_62
                     -2.1875202458e+03 stress_63
                     -1.9315019397e+03 stress_64
                     -1.5030388358e+03 stress_65
                     -1.3629381060e+03 stress_66
                     -1.6213053300e+03 stress_67
                     -2.0677091452e+03 stress_68
                     -2.2771144280e+03 stress_69
                     -2.2803363942e+03 stress_70
                     -2.1901490205e+03 stress_71
                     -2.0251891110e+03 stress_72
                     -1.7928339033e+03 stress_73
                     -1.5091976232e+03 stress_74
                     -1.2007189351e+03 stress_75
                     -8.9383387526e+02 stress_76
                     -6.0170358019e+02 stress_77
                     -3.2511593376e+02 stress_78
                     -6.1367275900e+01 stress_79
                      1.9044253114e+02 stress_80
                      4.2869735746e+02 stress_81
                      6.5008657697e+02 stress_82
                      8.5048407909e+02 stress_83
                      1.0256277109e+03 stress_84
                      1.1714564988e+03 stress_85
                      1.2844835422e+03 stress_86
                      1.3619458264e+03 stress_87
                      1.4018574579e+03 stress_88
                      1.3322098624e+03 stress_89
                      9.0660191033e+02 stress_90
                      6.5525418330e+02 stress_91
                      9.2970215487e+02 stress_92
                      1.3269015997e+03 stress_93
                      1.3397700228e+03 stress_94
                      1.2828905505e+03 stress_95
                      1.1805513839e+03 stress_96
                      1.0354208965e+03 stress_97
                      8.5291525199e+02 stress_98
                      6.4168836751e+02 stress_99
                      4.1226383019e+02 stress_100
                      1.7411485362e+02 stress_101
                     -6.6501358391e+01 stress_102
                     -3.0690492334e+02 stress_103
                     -5.4680067772e+02 stress_104
                     -7.8672818654e+02 stress_105
                     -1.0271948064e+03 stress_106
                     -1.2682218465e+03 stress_107
                     -1.5092777713e+03 stress_108
                     -1.7493563568e+03 stress_109
                     -1.9871010536e+03 stress_110
                     -2.2209001613e+03 stress_111
                     -2.4489610061e+03 stress_112
                     -2.6694310111e+03 stress_113
                     -2.8804289564e+03 stress_114
                     -3.0800816001e+03 stress_115
                     -3.2665817672e+03 stress_116
                     -3.4381930893e+03 stress_117
                     -3.5933364684e+03 stress_118
                     -3.7305547145e+03 stress_119
                     -3.8485194258e+03 stress_120
                     -3.9461373418e+03 stress_121
                     -4.0224647893e+03 stress_122
                     -4.0767609138e+03 stress_123
                     -4.1085254873e+03 stress_124
                     -4.1170588710e+03 stress_125
                     -4.0215796828e+03 stress_126
                     -3.7958212541e+03 stress_127
                     -3.4938464206e+03 stress_128
                     -3.1687279439e+03 stress_129
                     -2.8596539340e+03 stress_130
                     -2.5953385723e+03 stress_131
                     -2.3979279675e+03 stress_132
                     -2.2839018263e+03 stress_133
                     -2.2769920396e+03 stress_134
                     -2.6679006369e+03 stress_135
                     -2.6905333502e+03 stress_136
                     -2.5146281692e+03 stress_137
                     -2.5487778281e+03 stress_138
                     -2.7129278950e+03 stress_139
                     -3.0257157271e+03 stress_140
                     -3.4208060479e+03 stress_141
                     -3.7506394245e+03 stress_142
                     -3.9784942112e+03 stress_143
                     -4.1369298913e+03 stress_144
                     -4.2181184471e+03 stress_145
                     -4.1988803861e+03 stress_146
                     -3.9802080618e+03 stress_147
                     -3.6433983168e+03 stress_148
                     -3.2924442344e+03 stress_149
                     -3.0055303099e+03 stress_150
                     -2.8330015915e+03 stress_151
                     -2.8069204101e+03 stress_152
                     -3.0119675813e+03 stress_153
                     -3.3943683427e+03 stress_154
                     -3.8034922896e+03 stress_155
                     -4.0353986845e+03 stress_156
                     -4.1315678428e+03 stress_157
                     -4.0170332604e+03 stress_158
                     -3.6360113644e+03 stress_159
                     -3.4203187894e+03 stress_160
                     -3.5780092193e+03 stress_161
                     -3.9864849886e+03 stress_162
                     -4.1991889788e+03 stress_163
                     -4.2259358459e+03 stress_164
                     -4.1866494864e+03 stress_165
                     -4.1103535546e+03 stress_166
                     -4.0002276736e+03 stress_167
                     -3.8606081160e+03 stress_168
                     -3.6965274943e+03 stress_169
                     -3.5128000172e+03 stress_170
                     -3.3136411707e+03 stress_171
                     -3.1024045358e+03 stress_172
                     -2.8815907729e+03 stress_173
                     -2.6530769218e+03 stress_174
                     -2.4182030092e+03 stress_175
                     -2.1780328671e+03 stress_176
                     -1.9334935011e+03 stress_177
                     -1.6854450433e+03 stress_178
                     -1.4347927069e+03 stress_179
                     -1.1824895853e+03 stress_180
                     -9.2954724129e+02 stress_181
                     -6.7707203282e+02 stress_182
                     -4.2622050760e+02 stress_183
                     -1.7821861035e+02 stress_184
                      6.5678205326e+01 stress_185
                      3.0417989532e+02 stress_186
                      5.3598561245e+02 stress_187
                      7.5980532167e+02 stress_188
                      9.7435308855e+02 stress_189
                      1.1783853561e+03 stress_190
                      1.3707032473e+03 stress_191
                      1.5501370582e+03 stress_192
                      1.7156296958e+03 stress_193
                      1.8661679078e+03 stress_194
                      2.0008085308e+03 stress_195
                      2.1187470183e+03 stress_196
                      2.2192275447e+03 stress_197
                      2.3016445896e+03 stress_198
                      2.3654851559e+03 stress_199
                      2.4103300084e+03 stress_200
                      2.4359144478e+03 stress_201
                      2.4371675667e+03 stress_202
                      2.1228362769e+03 stress_203
                      1.8023281995e+03 stress_204
                      1.9052520362e+03 stress_205
                      2.3343107107e+03 stress_206
                      2.3572016760e+03 stress_207
                      2.2972911058e+03 stress_208
                      2.1937002710e+03 stress_209
                      2.0538189806e+03 stress_210
                      1.8849195381e+03 stress_211
                      1.6931872315e+03 stress_212
                      1.4833753394e+03 stress_213
                      1.2591452463e+03 stress_214
                      1.0233097376e+03 stress_215
                      7.7817957329e+02 stress_216
                      5.2585129880e+02 stress_217
                      2.6832040997e+02 stress_218
                      7.6016181970e+00 stress_219
                     -2.5421258990e+02 stress_220
                     -5.1496699277e+02 stress_221
                     -7.7243067763e+02 stress_222
                     -1.0243319611e+03 stress_223
                     -1.2683713581e+03 stress_224
                     -1.5022764611e+03 stress_225
                     -1.7238133242e+03 stress_226
                     -1.9308225667e+03 stress_227
                     -2.1212851187e+03 stress_228
                     -2.2932642583e+03 stress_229
                     -2.4450493934e+03 stress_230
                     -2.5751003600e+03 stress_231
                     -2.6820498518e+03 stress_232
                     -2.7648368461e+03 stress_233
                     -2.8225980425e+03 stress_234
                     -2.8547102983e+03 stress_235
                     -2.8485790058e+03 stress_236
                     -2.5166998513e+03 stress_237
                     -2.2289231352e+03 stress_238
                     -2.4403125772e+03 stress_239
                     -2.7482442501e+03 stress_240
                     -2.4430518228e+03 stress_241
                     -2.2681185062e+03 stress_242
                     -2.5963168698e+03 stress_243
                     -2.7506789246e+03 stress_244
                     -2.9402134769e+03 stress_245
                     -2.7684833216e+03 stress_246
                     -2.4488928522e+03 stress_247
                     -2.0867606623e+03 stress_248
                     -1.7677597458e+03 stress_249
                     -1.5479217552e+03 stress_250
                     -1.4611010211e+03 stress_251
                     -1.5607637438e+03 stress_252
                     -1.8742907317e+03 stress_253
                     -2.2838912226e+03 stress_254
                     -2.6323276075e+03 stress_255
                     -2.8432282094e+03 stress_256
                     -2.8982638472e+03 stress_257
                     -2.6410355286e+03 stress_258
                     -2.2528547202e+03 stress_259
                     -2.0842233764e+03 stress_260
                     -2.2883179520e+03 stress_261
                     -2.6931615099e+03 stress_262
                     -2.9782676435e+03 stress_263
                     -3.0372286821e+03 stress_264
                     -2.9976231636e+03 stress_265
                     -2.9098935889e+03 stress_266
                     -2.7783157155e+03 stress_267
                     -2.6093741560e+03 stress_268
                     -2.4105631689e+03 stress_269
                     -2.1892380096e+03 stress_270
                     -1.9516515873e+03 stress_271
                     -1.7025376430e+03 stress_272
                     -1.4454303283e+03 stress_273
                     -1.1828438354e+03 stress_274
                     -9.1670652419e+02 stress_275
                     -6.4870474521e+02 stress_276
                     -3.8042508465e+02 stress_277
                     -1.1351013717e+02 stress_278
                      1.5030586735e+02 stress_279
                      4.0918733406e+02 stress_280
                      6.6121049074e+02 stress_281
                      9.0439468513e+02 stress_282
                      1.1367288633e+03 stress_283
                      1.3562321096e+03 stress_284
                      1.5609498212e+03 stress_285
                      1.7490371355e+03 stress_286
                      1.9187567957e+03 stress_287
                      2.0684921603e+03 stress_288
                      2.1968352640e+03 stress_289
                      2.3025494422e+03 stress_290
                      2.3845956679e+03 stress_291
                      2.4421932977e+03 stress_292
                      2.4747636661e+03 stress_293
                      2.4752445639e+03 stress_294
                      2.1494698116e+03 stress_295
                      1.8340471539e+03 stress_296
                      1.9574726477e+03 stress_297
                      2.3799776831e+03 stress_298
                      2.3992000850e+03 stress_299
                      2.3586783265e+03 stress_300
                      2.2880157711e+03 stress_301
                      2.1906892158e+03 stress_302
                      2.0705355733e+03 stress_303
                      1.9310540493e+03 stress_304
                      1.7753770097e+03 stress_305
                      1.6059814593e+03 stress_306
                      1.4248057638e+03 stress_307
                      1.2333952471e+03 stress_308
                      1.0329084847e+03 stress_309
                      8.2431967742e+02 stress_310
                      6.0845715319e+02 stress_311
                      3.8606384578e+02 stress_312
                      1.5789556339e+02 stress_313
                     -7.5306367335e+01 stress_314
                     -3.1276960487e+02 stress_315
                     -5.5367520739e+02 stress_316
                     -7.9717301005e+02 stress_317
                     -1.0423643313e+03 stress_318
                     -1.2883129850e+03 stress_319
                     -1.5340580447e+03 stress_320
                     -1.7786002015e+03 stress_321
                     -2.0209323628e+03 stress_322
                     -2.2600212530e+03 stress_323
                     -2.4948369389e+03 stress_324
                     -2.7243615800e+03 stress_325
                     -2.9475608460e+03 stress_326
                     -3.1634488101e+03 stress_327
                     -3.3710194313e+03 stress_328
                     -3.5693426701e+03 stress_329
                     -3.7575035285e+03 stress_330
                     -3.9346142610e+03 stress_331
                     -4.0998618767e+03 stress_332
                     -4.2524568522e+03 stress_333
                     -4.3916875777e+03 stress_334
                     -4.5169094479e+03 stress_335
                     -4.6274905183e+03 stress_336
                     -4.7229391515e+03 stress_337
                     -4.8027846713e+03 stress_338
                     -4.8666420139e+03 stress_339
                     -4.9142185476e+03 stress_340
                     -4.9452801336e+03 stress_341
                     -4.9596722338e+03 stress_342


Active response data for evaluation 19:
Active set vector = { 1 1 1 1 1 1 1 1 1 1 1 1 1 1 1 1 1 1 1 1 1 1 1 1 1 1 1 1 1 1 1 1 1 1 1 1 1 1 1 1 1 1 1 1 1 1 1 1 1 1 1 1 1 1 1 1 1 1 1 1 1 1 1 1 1 1 1 1 1 1 1 1 1 1 1 1 1 1 1 1 1 1 1 1 1 1 1 1 1 1 1 1 1 1 1 1 1 1 1 1 1 1 1 1 1 1 1 1 1 1 1 1 1 1 1 1 1 1 1 1 1 1 1 1 1 1 1 1 1 1 1 1 1 1 1 1 1 1 1 1 1 1 1 1 1 1 1 1 1 1 1 1 1 1 1 1 1 1 1 1 1 1 1 1 1 1 1 1 1 1 1 1 1 1 1 1 1 1 1 1 1 1 1 1 1 1 1 1 1 1 1 1 1 1 1 1 1 1 1 1 1 1 1 1 1 1 1 1 1 1 1 1 1 1 1 1 1 1 1 1 1 1 1 1 1 1 1 1 1 1 1 1 1 1 1 1 1 1 1 1 1 1 1 1 1 1 1 1 1 1 1 1 1 1 1 1 1 1 1 1 1 1 1 1 1 1 1 1 1 1 1 1 1 1 1 1 1 1 1 1 1 1 1 1 1 1 1 1 1 1 1 1 1 1 1 1 1 1 1 1 1 1 1 1 1 1 1 1 1 1 1 1 1 1 1 1 1 1 1 1 1 1 1 1 1 1 1 1 1 1 1 1 1 1 1 1 1 1 1 1 1 1 }
                      2.2885259664e+00 stress_1
                     -2.3784291750e+02 stress_2
                     -6.1078947820e+02 stress_3
                     -6.4762192354e+02 stress_4
                     -3.3590767590e+02 stress_5
                      1.3153845009e+02 stress_6
                      4.4554936403e+02 stress_7
                      4.4805344330e+02 stress_8
                      2.1184917377e+02 stress_9
                     -1.9156337729e+02 stress_10
                     -6.4336404093e+02 stress_11
                     -8.7150365878e+02 stress_12
                     -1.0099211509e+03 stress_13
                     -1.0226107601e+03 stress_14
                     -7.0621917242e+02 stress_15
                     -8.6492587703e+02 stress_16
                     -1.0455444875e+03 stress_17
                     -8.6102940242e+02 stress_18
                     -5.1576436331e+02 stress_19
                     -7.6322323525e+01 stress_20
                      2.8546275838e+02 stress_21
                      5.1308274665e+02 stress_22
                      6.6308859565e+02 stress_23
                      7.2568026174e+02 stress_24
                      4.0863461945e+02 stress_25
                      5.2968622574e+02 stress_26
                      6.6630693693e+02 stress_27
                      7.0314863006e+02 stress_28
                      5.8695002524e+02 stress_29
                      3.7992476099e+02 stress_30
                      9.1217335009e+01 stress_31
                     -2.5605875309e+02 stress_32
                     -5.8361218658e+02 stress_33
                     -8.4500631179e+02 stress_34
                     -1.0846807638e+03 stress_35
                     -1.3176868486e+03 stress_36
                     -1.5393642471e+03 stress_37
                     -1.7415205915e+03 stress_38
                     -1.9160123363e+03 stress_39
                     -2.0555717271e+03 stress_40
                     -2.1544720318e+03 stress_41
                     -2.2085795306e+03 stress_42
                     -2.1939651435e+03 stress_43
                     -1.8193440323e+03 stress_44
                     -1.5044729252e+03 stress_45
                     -1.6993210507e+03 stress_46
                     -2.0551590663e+03 stress_47
                     -1.7712249475e+03 stress_48
                     -1.8684879742e+03 stress_49
                     -2.0202997893e+03 stress_50
                     -2.2441350401e+03 stress_51
                     -2.0831913831e+03 stress_52
                     -1.7418404760e+03 stress_53
                     -1.3315610377e+03 stress_54
                     -9.7961985275e+02 stress_55
                     -7.4685921445e+02 stress_56
                     -6.5056437173e+02 stress_57
                     -7.3218959971e+02 stress_58
                     -1.0380281412e+03 stress_59
                     -1.4792038042e+03 stress_60
                     -1.9024568055e+03 stress_61
                     -2.1270596935e+03 stress_62
                     -2.1876764085e+03 stress_63
                     -1.9316593635e+03 stress_64
                     -1.5032183964e+03 stress_65
                     -1.3631308504e+03 stress_66
                     -1.6214980744e+03 stress_67
                     -2.0678955964e+03 stress_68
                     -2.2772811471e+03 stress_69
                     -2.2805031482e+03 stress_70
                     -2.1903158309e+03 stress_71
                     -2.0253574227e+03 stress_72
                     -1.7930112439e+03 stress_73
                     -1.5093985708e+03 stress_74
                     -1.2009488936e+03 stress_75
                     -8.9407363441e+02 stress_76
                     -6.0192524464e+02 stress_77
                     -3.2530430884e+02 stress_78
                     -6.1521117854e+01 stress_79
                      1.9031796584e+02 stress_80
                      4.2859554962e+02 stress_81
                      6.5000179251e+02 stress_82
                      8.5041179778e+02 stress_83
                      1.0255644939e+03 stress_84
                      1.1713997278e+03 stress_85
                      1.2844311805e+03 stress_86
                      1.3618962255e+03 stress_87
                      1.4018092034e+03 stress_88
                      1.3321618235e+03 stress_89
                      9.0658178601e+02 stress_90
                      6.5526930554e+02 stress_91
                      9.2971727711e+02 stress_92
                      1.3269164026e+03 stress_93
                      1.3397846833e+03 stress_94
                      1.2829053188e+03 stress_95
                      1.1805676650e+03 stress_96
                      1.0354436834e+03 stress_97
                      8.5295365985e+02 stress_98
                      6.4175150459e+02 stress_99
                      4.1235373866e+02 stress_100
                      1.7422318273e+02 stress_101
                     -6.6389543068e+01 stress_102
                     -3.0680434542e+02 stress_103
                     -5.4672150487e+02 stress_104
                     -7.8667530953e+02 stress_105
                     -1.0271691109e+03 stress_106
                     -1.2682218380e+03 stress_107
                     -1.5093008328e+03 stress_108
                     -1.7493995308e+03 stress_109
                     -1.9871614595e+03 stress_110
                     -2.2209751840e+03 stress_111
                     -2.4490483564e+03 stress_112
                     -2.6695287257e+03 stress_113
                     -2.8805353670e+03 stress_114
                     -3.0801952928e+03 stress_115
                     -3.2667015424e+03 stress_116
                     -3.4383179235e+03 stress_117
                     -3.5934654831e+03 stress_118
                     -3.7306871473e+03 stress_119
                     -3.8486546063e+03 stress_120
                     -3.9462746729e+03 stress_121
                     -4.0226037289e+03 stress_122
                     -4.0769009608e+03 stress_123
                     -4.1086661683e+03 stress_124
                     -4.1171997207e+03 stress_125
                     -4.0217262653e+03 stress_126
                     -3.7960077921e+03 stress_127
                     -3.4941068678e+03 stress_128
                     -3.1690632795e+03 stress_129
                     -2.8600437589e+03 stress_130
                     -2.5957607422e+03 stress_131
                     -2.3983666585e+03 stress_132
                     -2.2843474992e+03 stress_133
                     -2.2774380810e+03 stress_134
                     -2.6683464970e+03 stress_135
                     -2.6909791351e+03 stress_136
                     -2.5150833639e+03 stress_137
                     -2.5492330228e+03 stress_138
                     -2.7133830819e+03 stress_139
                     -3.0261682939e+03 stress_140
                     -3.4212003114e+03 stress_141
                     -3.7509354412e+03 stress_142
                     -3.9787809625e+03 stress_143
                     -4.1372204121e+03 stress_144
                     -4.2184107118e+03 stress_145
                     -4.1991728580e+03 stress_146
                     -3.9805224054e+03 stress_147
                     -3.6437785939e+03 stress_148
                     -3.2928958918e+03 stress_149
                     -3.0060286317e+03 stress_150
                     -2.8335213682e+03 stress_151
                     -2.8074429952e+03 stress_152
                     -3.0124901658e+03 stress_153
                     -3.3948878074e+03 stress_154
                     -3.8038877590e+03 stress_155
                     -4.0357009198e+03 stress_156
                     -4.1318647152e+03 stress_157
                     -4.0173356916e+03 stress_158
                     -3.6363760296e+03 stress_159
                     -3.4207279739e+03 stress_160
                     -3.5784184039e+03 stress_161
                     -3.9868629956e+03 stress_162
                     -4.1994875293e+03 stress_163
                     -4.2262341838e+03 stress_164
                     -4.1869486451e+03 stress_165
                     -4.1106580583e+03 stress_166
                     -4.0005461470e+03 stress_167
                     -3.8609510241e+03 stress_168
                     -3.6969039086e+03 stress_169
                     -3.5132151894e+03 stress_170
                     -3.3140956868e+03 stress_171
                     -3.1028949094e+03 stress_172
                     -2.8821107958e+03 stress_173
                     -2.6536191098e+03 stress_174
                     -2.4187597785e+03 stress_175
                     -2.1785972914e+03 stress_176
                     -1.9340597028e+03 stress_177
                     -1.6860083152e+03 stress_178
                     -1.4353494685e+03 stress_179
                     -1.1830372536e+03 stress_180
                     -9.3008406887e+02 stress_181
                     -6.7759694654e+02 stress_182
                     -4.2673296157e+02 stress_183
                     -1.7871846184e+02 stress_184
                      6.5190798575e+01 stress_185
                      3.0370455589e+02 stress_186
                      5.3552180644e+02 stress_187
                      7.5935240737e+02 stress_188
                      9.7391035210e+02 stress_189
                      1.1779520389e+03 stress_190
                      1.3702785657e+03 stress_191
                      1.5497202161e+03 stress_192
                      1.7152198963e+03 stress_193
                      1.8657643579e+03 stress_194
                      2.0004104452e+03 stress_195
                      2.1183536226e+03 stress_196
                      2.2188380743e+03 stress_197
                      2.3012582910e+03 stress_198
                      2.3651012849e+03 stress_199
                      2.4099478275e+03 stress_200
                      2.4355332255e+03 stress_201
                      2.4367863912e+03 stress_202
                      2.1225300077e+03 stress_203
                      1.8021271305e+03 stress_204
                      1.9050509672e+03 stress_205
                      2.3341096319e+03 stress_206
                      2.3570005944e+03 stress_207
                      2.2970950848e+03 stress_208
                      2.1935241244e+03 stress_209
                      2.0536793435e+03 stress_210
                      1.8848285386e+03 stress_211
                      1.6931500077e+03 stress_212
                      1.4833907366e+03 stress_213
                      1.2592078423e+03 stress_214
                      1.0234119583e+03 stress_215
                      7.7831328923e+02 stress_216
                      5.2600881406e+02 stress_217
                      2.6849497235e+02 stress_218
                      7.7876001350e+00 stress_219
                     -2.5401970042e+02 stress_220
                     -5.1477069608e+02 stress_221
                     -7.7223360486e+02 stress_222
                     -1.0241360215e+03 stress_223
                     -1.2681778747e+03 stress_224
                     -1.5020862898e+03 stress_225
                     -1.7236269522e+03 stress_226
                     -1.9306401929e+03 stress_227
                     -2.1211067197e+03 stress_228
                     -2.2930896386e+03 stress_229
                     -2.4448782273e+03 stress_230
                     -2.5749322230e+03 stress_231
                     -2.6818842450e+03 stress_232
                     -2.7646732180e+03 stress_233
                     -2.8224358038e+03 stress_234
                     -2.8545488349e+03 stress_235
                     -2.8484175705e+03 stress_236
                     -2.5165947308e+03 stress_237
                     -2.2289064732e+03 stress_238
                     -2.4402958035e+03 stress_239
                     -2.7482306952e+03 stress_240
                     -2.4430805431e+03 stress_241
                     -2.2681921069e+03 stress_242
                     -2.5963893687e+03 stress_243
                     -2.7507512779e+03 stress_244
                     -2.9402979821e+03 stress_245
                     -2.7685811755e+03 stress_246
                     -2.4490565852e+03 stress_247
                     -2.0870152938e+03 stress_248
                     -1.7680838371e+03 stress_249
                     -1.5482833301e+03 stress_250
                     -1.4614749334e+03 stress_251
                     -1.5611375575e+03 stress_252
                     -1.8746544136e+03 stress_253
                     -2.2841971225e+03 stress_254
                     -2.6325739191e+03 stress_255
                     -2.8434574317e+03 stress_256
                     -2.8984917139e+03 stress_257
                     -2.6412851267e+03 stress_258
                     -2.2531797149e+03 stress_259
                     -2.0845841268e+03 stress_260
                     -2.2886770395e+03 stress_261
                     -2.6934747091e+03 stress_262
                     -2.9785436423e+03 stress_263
                     -3.0375029839e+03 stress_264
                     -2.9978980810e+03 stress_265
                     -2.9101737927e+03 stress_266
                     -2.7786115886e+03 stress_267
                     -2.6096989342e+03 stress_268
                     -2.4109280069e+03 stress_269
                     -2.1896482214e+03 stress_270
                     -1.9521057567e+03 stress_271
                     -1.7030291386e+03 stress_272
                     -1.4459497353e+03 stress_273
                     -1.1833811820e+03 stress_274
                     -9.1725274588e+02 stress_275
                     -6.4925239760e+02 stress_276
                     -3.8096852031e+02 stress_277
                     -1.1404537488e+02 stress_278
                      1.4978140673e+02 stress_279
                      4.0867512101e+02 stress_280
                      6.6071115683e+02 stress_281
                      9.0390824875e+02 stress_282
                      1.1362549073e+03 stress_283
                      1.3557699177e+03 stress_284
                      1.5604984758e+03 stress_285
                      1.7485955909e+03 stress_286
                      1.9183239279e+03 stress_287
                      2.0680667996e+03 stress_288
                      2.1964162196e+03 stress_289
                      2.3021355150e+03 stress_290
                      2.3841856577e+03 stress_291
                      2.4417860085e+03 stress_292
                      2.4743579049e+03 stress_293
                      2.4748388252e+03 stress_294
                      2.1491415083e+03 stress_295
                      1.8338237533e+03 stress_296
                      1.9572492470e+03 stress_297
                      2.3797542899e+03 stress_298
                      2.3989767093e+03 stress_299
                      2.3584574814e+03 stress_300
                      2.2878056690e+03 stress_301
                      2.1905009410e+03 stress_302
                      2.0703798700e+03 stress_303
                      1.9309390086e+03 stress_304
                      1.7753070275e+03 stress_305
                      1.6059573483e+03 stress_306
                      1.4248254637e+03 stress_307
                      1.2334547313e+03 stress_308
                      1.0330026343e+03 stress_309
                      8.2444295688e+02 stress_310
                      6.0860409289e+02 stress_311
                      3.8622934510e+02 stress_312
                      1.5807505079e+02 stress_313
                     -7.5116865768e+01 stress_314
                     -3.1257346248e+02 stress_315
                     -5.5347523104e+02 stress_316
                     -7.9697149319e+02 stress_317
                     -1.0421631152e+03 stress_318
                     -1.2881135205e+03 stress_319
                     -1.5338614506e+03 stress_320
                     -1.7784073172e+03 stress_321
                     -2.0207437952e+03 stress_322
                     -2.2598374163e+03 stress_323
                     -2.4946580888e+03 stress_324
                     -2.7241878432e+03 stress_325
                     -2.9473922433e+03 stress_326
                     -3.1632852774e+03 stress_327
                     -3.3708608349e+03 stress_328
                     -3.5691888214e+03 stress_329
                     -3.7573541948e+03 stress_330
                     -3.9344691738e+03 stress_331
                     -4.0997207403e+03 stress_332
                     -4.2523193484e+03 stress_333
                     -4.3915533715e+03 stress_334
                     -4.5167781913e+03 stress_335
                     -4.6273618520e+03 stress_336
                     -4.7228127094e+03 stress_337
                     -4.8026600810e+03 stress_338
                     -4.8665188986e+03 stress_339
                     -4.9140965276e+03 stress_340
                     -4.9451588270e+03 stress_341
                     -4.9595512574e+03 stress_342


Active response data for evaluation 20:
Active set vector = { 1 1 1 1 1 1 1 1 1 1 1 1 1 1 1 1 1 1 1 1 1 1 1 1 1 1 1 1 1 1 1 1 1 1 1 1 1 1 1 1 1 1 1 1 1 1 1 1 1 1 1 1 1 1 1 1 1 1 1 1 1 1 1 1 1 1 1 1 1 1 1 1 1 1 1 1 1 1 1 1 1 1 1 1 1 1 1 1 1 1 1 1 1 1 1 1 1 1 1 1 1 1 1 1 1 1 1 1 1 1 1 1 1 1 1 1 1 1 1 1 1 1 1 1 1 1 1 1 1 1 1 1 1 1 1 1 1 1 1 1 1 1 1 1 1 1 1 1 1 1 1 1 1 1 1 1 1 1 1 1 1 1 1 1 1 1 1 1 1 1 1 1 1 1 1 1 1 1 1 1 1 1 1 1 1 1 1 1 1 1 1 1 1 1 1 1 1 1 1 1 1 1 1 1 1 1 1 1 1 1 1 1 1 1 1 1 1 1 1 1 1 1 1 1 1 1 1 1 1 1 1 1 1 1 1 1 1 1 1 1 1 1 1 1 1 1 1 1 1 1 1 1 1 1 1 1 1 1 1 1 1 1 1 1 1 1 1 1 1 1 1 1 1 1 1 1 1 1 1 1 1 1 1 1 1 1 1 1 1 1 1 1 1 1 1 1 1 1 1 1 1 1 1 1 1 1 1 1 1 1 1 1 1 1 1 1 1 1 1 1 1 1 1 1 1 1 1 1 1 1 1 1 1 1 1 1 1 1 1 1 1 1 }
                      2.2885259664e+00 stress_1
                     -2.3784291749e+02 stress_2
                     -6.1074536146e+02 stress_3
                     -6.4757645379e+02 stress_4
                     -3.3586220615e+02 stress_5
                      1.3158396236e+02 stress_6
                      4.4560603691e+02 stress_7
                      4.4811044869e+02 stress_8
                      2.1190617917e+02 stress_9
                     -1.9150637189e+02 stress_10
                     -6.4330684801e+02 stress_11
                     -8.7144634264e+02 stress_12
                     -1.0098638347e+03 stress_13
                     -1.0225534439e+03 stress_14
                     -7.0616185529e+02 stress_15
                     -8.6486855991e+02 stress_16
                     -1.0454827613e+03 stress_17
                     -8.6096767629e+02 stress_18
                     -5.1570258393e+02 stress_19
                     -7.6254254377e+01 stress_20
                      2.8556148207e+02 stress_21
                      5.1318960423e+02 stress_22
                      6.6319632685e+02 stress_23
                      7.2578811384e+02 stress_24
                      4.0874247048e+02 stress_25
                      5.2979407677e+02 stress_26
                      6.6641481855e+02 stress_27
                      7.0325695552e+02 stress_28
                      5.8705835070e+02 stress_29
                      3.8003308503e+02 stress_30
                      9.1325555593e+01 stress_31
                     -2.5595231722e+02 stress_32
                     -5.8351190167e+02 stress_33
                     -8.4490945410e+02 stress_34
                     -1.0845845962e+03 stress_35
                     -1.3175908066e+03 stress_36
                     -1.5392682313e+03 stress_37
                     -1.7414245821e+03 stress_38
                     -1.9159163285e+03 stress_39
                     -2.0554757197e+03 stress_40
                     -2.1543760245e+03 stress_41
                     -2.2084835234e+03 stress_42
                     -2.1938691362e+03 stress_43
                     -1.8192463047e+03 stress_44
                     -1.5043661248e+03 stress_45
                     -1.6992142503e+03 stress_46
                     -2.0550522496e+03 stress_47
                     -1.7711174310e+03 stress_48
                     -1.8683804577e+03 stress_49
                     -2.0201922728e+03 stress_50
                     -2.2440249099e+03 stress_51
                     -2.0830811799e+03 stress_52
                     -1.7417273544e+03 stress_53
                     -1.3314328949e+03 stress_54
                     -9.7946897270e+02 stress_55
                     -7.4669241228e+02 stress_56
                     -6.5039156198e+02 stress_57
                     -7.3201678995e+02 stress_58
                     -1.0378553315e+03 stress_59
                     -1.4790310413e+03 stress_60
                     -1.9022858348e+03 stress_61
                     -2.1268911377e+03 stress_62
                     -2.1875081963e+03 stress_63
                     -1.9314910561e+03 stress_64
                     -1.5030475129e+03 stress_65
                     -1.3629578103e+03 stress_66
                     -1.6213250343e+03 stress_67
                     -2.0677232315e+03 stress_68
                     -2.2771131195e+03 stress_69
                     -2.2803351379e+03 stress_70
                     -2.1901478172e+03 stress_71
                     -2.0251892988e+03 stress_72
                     -1.7928422658e+03 stress_73
                     -1.5092264368e+03 stress_74
                     -1.2007700482e+03 stress_75
                     -8.9388584393e+02 stress_76
                     -6.0172916140e+02 stress_77
                     -3.2510214263e+02 stress_78
                     -6.1314996562e+01 stress_79
                      1.9052654396e+02 stress_80
                      4.2880564623e+02 stress_81
                      6.5021284030e+02 stress_82
                      8.5062345263e+02 stress_83
                      1.0257765424e+03 stress_84
                      1.1716120328e+03 stress_85
                      1.2846436498e+03 stress_86
                      1.3621087930e+03 stress_87
                      1.4020218174e+03 stress_88
                      1.3323744353e+03 stress_89
                      9.0679393735e+02 stress_90
                      6.5548063450e+02 stress_91
                      9.2992860608e+02 stress_92
                      1.3271282733e+03 stress_93
                      1.3399968402e+03 stress_94
                      1.2831174745e+03 stress_95
                      1.1807798015e+03 stress_96
                      1.0356557192e+03 stress_97
                      8.5316539293e+02 stress_98
                      6.4196260305e+02 stress_99
                      4.1256383105e+02 stress_100
                      1.7443200322e+02 stress_101
                     -6.6182066950e+01 stress_102
                     -3.0659811354e+02 stress_103
                     -5.4651632412e+02 stress_104
                     -7.8647096666e+02 stress_105
                     -1.0269654140e+03 stress_106
                     -1.2680186309e+03 stress_107
                     -1.5090979950e+03 stress_108
                     -1.7491969717e+03 stress_109
                     -1.9869591119e+03 stress_110
                     -2.2207729980e+03 stress_111
                     -2.4488462950e+03 stress_112
                     -2.6693267610e+03 stress_113
                     -2.8803334781e+03 stress_114
                     -3.0799934636e+03 stress_115
                     -3.2664997604e+03 stress_116
                     -3.4381161791e+03 stress_117
                     -3.5932637684e+03 stress_118
                     -3.7304854562e+03 stress_119
                     -3.8484529335e+03 stress_120
                     -3.9460730142e+03 stress_121
                     -4.0224020806e+03 stress_122
                     -4.0766993194e+03 stress_123
                     -4.1084645309e+03 stress_124
                     -4.1169980843e+03 stress_125
                     -4.0215240598e+03 stress_126
                     -3.7958005480e+03 stress_127
                     -3.4938875849e+03 stress_128
                     -3.1688279487e+03 stress_129
                     -2.8597927683e+03 stress_130
                     -2.5954971159e+03 stress_131
                     -2.3980943166e+03 stress_132
                     -2.2840704365e+03 stress_133
                     -2.2771607399e+03 stress_134
                     -2.6680691476e+03 stress_135
                     -2.6907017822e+03 stress_136
                     -2.5148044763e+03 stress_137
                     -2.5489541353e+03 stress_138
                     -2.7131041941e+03 stress_139
                     -3.0258892782e+03 stress_140
                     -3.4209174118e+03 stress_141
                     -3.7506420356e+03 stress_142
                     -3.9784837753e+03 stress_143
                     -4.1369224842e+03 stress_144
                     -4.2181126241e+03 stress_145
                     -4.1988747618e+03 stress_146
                     -3.9802231031e+03 stress_147
                     -3.6434744471e+03 stress_148
                     -3.2925846177e+03 stress_149
                     -3.0057110254e+03 stress_150
                     -2.8331999925e+03 stress_151
                     -2.8071210590e+03 stress_152
                     -3.0121682296e+03 stress_153
                     -3.3945660708e+03 stress_154
                     -3.8035764376e+03 stress_155
                     -4.0354005955e+03 stress_156
                     -4.1315656892e+03 stress_157
                     -4.0170363920e+03 stress_158
                     -3.6360724884e+03 stress_159
                     -3.4204204893e+03 stress_160
                     -3.5781109192e+03 stress_161
                     -3.9865576087e+03 stress_162
                     -4.1991891032e+03 stress_163
                     -4.2259358084e+03 stress_164
                     -4.1866502346e+03 stress_165
                     -4.1103593831e+03 stress_166
                     -4.0002466774e+03 stress_167
                     -3.8606499567e+03 stress_168
                     -3.6966003042e+03 stress_169
                     -3.5129081468e+03 stress_170
                     -3.3137844857e+03 stress_171
                     -3.1025790832e+03 stress_172
                     -2.8817901379e+03 stress_173
                     -2.6532936365e+03 stress_174
                     -2.4184296710e+03 stress_175
                     -2.1782628388e+03 stress_176
                     -1.9337212535e+03 stress_177
                     -1.6856662406e+03 stress_178
                     -1.4350041384e+03 stress_179
                     -1.1826890208e+03 stress_180
                     -9.2973326028e+02 stress_181
                     -6.7724386002e+02 stress_182
                     -4.2637786482e+02 stress_183
                     -1.7836159360e+02 stress_184
                      6.5549226543e+01 stress_185
                      3.0406435619e+02 stress_186
                      5.3588281339e+02 stress_187
                      7.5971447445e+02 stress_188
                      9.7427334944e+02 stress_189
                      1.1783158511e+03 stress_190
                      1.3706430898e+03 stress_191
                      1.5500853599e+03 stress_192
                      1.7155855766e+03 stress_193
                      1.8661304994e+03 stress_194
                      2.0007769790e+03 stress_195
                      2.1187204853e+03 stress_196
                      2.2192052070e+03 stress_197
                      2.3016256384e+03 stress_198
                      2.3654687946e+03 stress_199
                      2.4103154492e+03 stress_200
                      2.4359009103e+03 stress_201
                      2.4371540791e+03 stress_202
                      2.1228969393e+03 stress_203
                      1.8024926876e+03 stress_204
                      1.9054165243e+03 stress_205
                      2.3344751902e+03 stress_206
                      2.3573661556e+03 stress_207
                      2.2974606070e+03 stress_208
                      2.1938894657e+03 stress_209
                      2.0540442985e+03 stress_210
                      1.8851928977e+03 stress_211
                      1.6935136025e+03 stress_212
                      1.4837534592e+03 stress_213
                      1.2595696444e+03 stress_214
                      1.0237728400e+03 stress_215
                      7.7867328427e+02 stress_216
                      5.2636797750e+02 stress_217
                      2.6885337039e+02 stress_218
                      8.1453031979e+00 stress_219
                     -2.5366262217e+02 stress_220
                     -5.1441417544e+02 stress_221
                     -7.7187757899e+02 stress_222
                     -1.0237804325e+03 stress_223
                     -1.2678226700e+03 stress_224
                     -1.5017314213e+03 stress_225
                     -1.7232723764e+03 stress_226
                     -1.9302858705e+03 stress_227
                     -2.1207526148e+03 stress_228
                     -2.2927357183e+03 stress_229
                     -2.4445244614e+03 stress_230
                     -2.5745785835e+03 stress_231
                     -2.6815307055e+03 stress_232
                     -2.7643197536e+03 stress_233
                     -2.8220823907e+03 stress_234
                     -2.8541954499e+03 stress_235
                     -2.8480641846e+03 stress_236
                     -2.5162382980e+03 stress_237
                     -2.2285440306e+03 stress_238
                     -2.4399333774e+03 stress_239
                     -2.7478690124e+03 stress_240
                     -2.4427165670e+03 stress_241
                     -2.2678251512e+03 stress_242
                     -2.5960226247e+03 stress_243
                     -2.7503853559e+03 stress_244
                     -2.9399347042e+03 stress_245
                     -2.7682172652e+03 stress_246
                     -2.4486886533e+03 stress_247
                     -2.0866400920e+03 stress_248
                     -1.7677013538e+03 stress_249
                     -1.5478958602e+03 stress_250
                     -1.4610855522e+03 stress_251
                     -1.5607481810e+03 stress_252
                     -1.8742657090e+03 stress_253
                     -2.2838140640e+03 stress_254
                     -2.6322009056e+03 stress_255
                     -2.8430910685e+03 stress_256
                     -2.8981269529e+03 stress_257
                     -2.6409191791e+03 stress_258
                     -2.2528082006e+03 stress_259
                     -2.0842092844e+03 stress_260
                     -2.2883022861e+03 stress_261
                     -2.6931044746e+03 stress_262
                     -2.9781821450e+03 stress_263
                     -3.0371433433e+03 stress_264
                     -2.9975384128e+03 stress_265
                     -2.9098138501e+03 stress_266
                     -2.7782507054e+03 stress_267
                     -2.6093360338e+03 stress_268
                     -2.4105618197e+03 stress_269
                     -2.1892775804e+03 stress_270
                     -1.9517298226e+03 stress_271
                     -1.7026474839e+03 stress_272
                     -1.4455623145e+03 stress_273
                     -1.1829882345e+03 stress_274
                     -9.1685468928e+02 stress_275
                     -6.4884973802e+02 stress_276
                     -3.8056178764e+02 stress_277
                     -1.1363508271e+02 stress_278
                      1.5019478314e+02 stress_279
                      4.0909115429e+02 stress_280
                      6.6112946941e+02 stress_281
                      9.0432851051e+02 stress_282
                      1.1366768311e+03 stress_283
                      1.3561932541e+03 stress_284
                      1.5609230079e+03 stress_285
                      1.7490211291e+03 stress_286
                      1.9187503055e+03 stress_287
                      2.0684938688e+03 stress_288
                      2.1968438478e+03 stress_289
                      2.3025635817e+03 stress_290
                      2.3846140520e+03 stress_291
                      2.4422146263e+03 stress_292
                      2.4747866468e+03 stress_293
                      2.4752675689e+03 stress_294
                      2.1495671166e+03 stress_295
                      1.8342439348e+03 stress_296
                      1.9576694286e+03 stress_297
                      2.3801744734e+03 stress_298
                      2.3993968953e+03 stress_299
                      2.3588775917e+03 stress_300
                      2.2882254106e+03 stress_301
                      2.1909198367e+03 stress_302
                      2.0707973487e+03 stress_303
                      1.9313545045e+03 stress_304
                      1.7757200575e+03 stress_305
                      1.6063675514e+03 stress_306
                      1.4252326110e+03 stress_307
                      1.2338587160e+03 stress_308
                      1.0334034497e+03 stress_309
                      8.2484067264e+02 stress_310
                      6.0899883250e+02 stress_311
                      3.8662126639e+02 stress_312
                      1.5846433144e+02 stress_313
                     -7.4730039689e+01 stress_314
                     -3.1218890438e+02 stress_315
                     -5.5309275901e+02 stress_316
                     -7.9659093348e+02 stress_317
                     -1.0417843041e+03 stress_318
                     -1.2877363053e+03 stress_319
                     -1.5334856898e+03 stress_320
                     -1.7780328805e+03 stress_321
                     -2.0203705627e+03 stress_322
                     -2.2594652780e+03 stress_323
                     -2.4942869440e+03 stress_324
                     -2.7238175996e+03 stress_325
                     -2.9470228162e+03 stress_326
                     -3.1629165890e+03 stress_327
                     -3.3704928136e+03 stress_328
                     -3.5688214013e+03 stress_329
                     -3.7569873147e+03 stress_330
                     -3.9341027772e+03 stress_331
                     -4.0993547743e+03 stress_332
                     -4.2519537637e+03 stress_333
                     -4.3911881217e+03 stress_334
                     -4.5164132327e+03 stress_335
                     -4.6269971430e+03 stress_336
                     -4.7224482104e+03 stress_337
                     -4.8022957539e+03 stress_338
                     -4.8661547065e+03 stress_339
                     -4.9137324348e+03 stress_340
                     -4.9447947985e+03 stress_341
                     -4.9591872584e+03 stress_342

>>>>> Total response returned to iterator:

Active set vector = { 2 2 2 2 2 2 2 2 2 2 2 2 2 2 2 2 2 2 2 2 2 2 2 2 2 2 2 2 2 2 2 2 2 2 2 2 2 2 2 2 2 2 2 2 2 2 2 2 2 2 2 2 2 2 2 2 2 2 2 2 2 2 2 2 2 2 2 2 2 2 2 2 2 2 2 2 2 2 2 2 2 2 2 2 2 2 2 2 2 2 2 2 2 2 2 2 2 2 2 2 2 2 2 2 2 2 2 2 2 2 2 2 2 2 2 2 2 2 2 2 2 2 2 2 2 2 2 2 2 2 2 2 2 2 2 2 2 2 2 2 2 2 2 2 2 2 2 2 2 2 2 2 2 2 2 2 2 2 2 2 2 2 2 2 2 2 2 2 2 2 2 2 2 2 2 2 2 2 2 2 2 2 2 2 2 2 2 2 2 2 2 2 2 2 2 2 2 2 2 2 2 2 2 2 2 2 2 2 2 2 2 2 2 2 2 2 2 2 2 2 2 2 2 2 2 2 2 2 2 2 2 2 2 2 2 2 2 2 2 2 2 2 2 2 2 2 2 2 2 2 2 2 2 2 2 2 2 2 2 2 2 2 2 2 2 2 2 2 2 2 2 2 2 2 2 2 2 2 2 2 2 2 2 2 2 2 2 2 2 2 2 2 2 2 2 2 2 2 2 2 2 2 2 2 2 2 2 2 2 2 2 2 2 2 2 2 2 2 2 2 2 2 2 2 2 2 2 2 2 2 2 2 2 2 2 2 2 2 2 2 2 2 } Deriv vars vector = { 1 2 3 4 5 6 7 }
 [  0.0000000000e+00  1.1653236662e-05  0.0000000000e+00  0.0000000000e+00 
    0.0000000000e+00  0.0000000000e+00  0.0000000000e+00 ] stress_1 gradient
 [ -2.8459158093e-07 -1.2111020112e-03 -2.0377393364e-05  1.9975833445e-05 
   -2.0488564353e-05 -5.0790086026e-05  0.0000000000e+00 ] stress_2 gradient
 [ -5.9170554881e-01 -1.7329556420e-03 -1.3230578637e+02  4.2501608714e-01 
   -3.6214533191e-01 -2.2406912423e+02  0.0000000000e+00 ] stress_3 gradient
 [ -6.0627232310e-01 -1.8871561848e-03 -2.0582942142e+02  1.0670098127e-01 
   -9.0876955097e-02 -2.3094106821e+02  0.0000000000e+00 ] stress_4 gradient
 [ -6.0627232310e-01 -2.9989862188e-04 -2.0582942142e+02  1.0670098132e-01 
   -9.0876955097e-02 -2.3094106821e+02  0.0000000000e+00 ] stress_5 gradient
 [ -6.0477640050e-01  2.0767798747e-03 -2.0577866138e+02  7.8315304201e-02 
   -6.5419934066e-02 -2.3058294759e+02  4.5106892270e-01 ] stress_6 gradient
 [ -1.5517988676e-01  2.6183832394e-03 -1.7896979676e+02 -2.7880987396e+00 
    2.5077163332e+00 -1.3671512141e+02  1.1874402361e+02 ] stress_7 gradient
 [ -1.4114588973e-01  2.5983880698e-03 -1.7782261156e+02 -2.8238754798e+00 
    2.5398013996e+00 -1.3391999282e+02  1.2226717399e+02 ] stress_8 gradient
 [ -1.4114588973e-01  1.3956294473e-03 -1.7782261156e+02 -2.8238754798e+00 
    2.5397911553e+00 -1.3392004361e+02  1.2226717399e+02 ] stress_9 gradient
 [ -1.4115838987e-01 -6.5852838263e-04 -1.7782326363e+02 -2.8237456368e+00 
    2.5396784683e+00 -1.3392456393e+02  1.2226362226e+02 ] stress_10 gradient
 [ -4.0148605089e-01 -2.3446566710e-03 -2.2038251629e+02 -8.9558709108e-01 
    7.8065465963e-01 -2.2878711316e+02  4.8476081414e+01 ] stress_11 gradient
 [ -5.7221479356e-01 -3.1064310019e-03 -6.1576207627e+02  3.0363286139e-03 
   -3.1245035016e-03 -2.9108613247e+02  1.7918247191e-02 ] stress_12 gradient
 [ -5.7227768829e-01 -3.8111101095e-03 -8.9767135244e+02  2.9963770038e-04 
   -2.0488552707e-04 -2.9111127354e+02 -1.5962802652e-03 ] stress_13 gradient
 [ -5.7227681263e-01 -3.8757289560e-03 -9.2352820637e+02  1.9975839122e-04 
   -2.0488564353e-04 -2.9111127354e+02 -1.5962807189e-03 ] stress_14 gradient
 [ -5.7225135263e-01 -2.2647143864e-03 -9.2352696335e+02 -1.0976727333e-02 
    4.1694197013e-03 -2.9110558505e+02  6.5846567179e-03 ] stress_15 gradient
 [ -5.7225135263e-01 -3.0728533073e-03 -9.2352696335e+02 -1.0976727333e-02 
    4.1694194684e-03 -2.9110558505e+02  6.5447492235e-03 ] stress_16 gradient
 [ -5.7472539447e-01 -3.9867809823e-03 -9.2780032350e+02  5.5792537835e-01 
   -5.1641385480e-01 -3.1350054150e+02  5.5869811551e-03 ] stress_17 gradient
 [ -5.7472519745e-01 -3.0472255916e-03 -9.2780032350e+02  5.5780552318e-01 
   -5.1636263350e-01 -3.1350023676e+02  5.5470736608e-03 ] stress_18 gradient
 [ -5.7320845588e-01 -1.2927059772e-03 -9.2770929776e+02 -1.4872017325e-02 
   -2.9256622257e-01 -3.1313901795e+02  5.0187054542e-01 ] stress_19 gradient
 [ -4.0230667936e-01  5.4433339409e-04 -9.1075468008e+02 -3.8520639344e+01 
    1.4851979487e+01 -2.7049743257e+02  5.9107013300e+01 ] stress_20 gradient
 [  3.8649996381e-01  5.5197032518e-04 -6.8691891971e+02 -7.2851870357e+01 
    2.8537689351e+01 -6.2817991996e+01  3.4461905138e+02 ] stress_21 gradient
 [  5.7867613804e-01  1.2662935291e-03 -3.0215552495e+02 -2.4523786793e+01 
    9.5995506626e+00 -7.7366952968e+00  4.2035772572e+02 ] stress_22 gradient
 [  5.9660128954e-01  1.9886502719e-03 -6.7861352868e+00 -1.0391445070e+01 
    4.0637293629e+00 -1.8203152391e+00  4.2849272959e+02 ] stress_23 gradient
 [  5.9874995568e-01  2.3023967642e-03  1.1901462172e+02 -7.3418325422e+00 
    2.8700050850e+00 -1.0015289118e+00  4.2961854622e+02 ] stress_24 gradient
 [  5.9858876741e-01  6.8837336646e-04  1.1900683756e+02 -7.2534394237e+00 
    2.8422635909e+00 -1.0453099313e+00  4.2957987633e+02 ] stress_25 gradient
 [  5.9858874552e-01  1.3047714344e-03  1.1900681718e+02 -7.2534494116e+00 
    2.8422533467e+00 -1.0453607208e+00  4.2957983643e+02 ] stress_26 gradient
 [  5.9853611798e-01  2.0005698425e-03  1.1905987987e+02 -7.2496440129e+00 
    2.8474062164e+00 -1.0430751693e+00  4.2970370778e+02 ] stress_27 gradient
 [  5.9760375230e-01  2.1903316791e-03  1.1975103975e+02 -7.1122501443e+00 
    2.8431548427e+00 -1.0107219105e+00  4.3150036123e+02 ] stress_28 gradient
 [  5.9760357717e-01  1.5986456786e-03  1.1975103975e+02 -7.1121302892e+00 
    2.8431241099e+00 -1.0107727006e+00  4.3150032133e+02 ] stress_29 gradient
 [  5.9739910909e-01  5.4495132180e-04  1.1974101408e+02 -7.0011345010e+00 
    2.8082730896e+00 -1.0666925405e+00  4.3145071691e+02 ] stress_30 gradient
 [  5.8364620313e-01 -8.9278942661e-04  1.1876636821e+02 -7.6871649795e-01 
    8.3873969356e-01 -5.1573837720e+00  4.2782369657e+02 ] stress_31 gradient
 [  3.7230668308e-01 -2.1664914177e-03  9.4886971643e+01  6.7205597610e+01 
   -2.0771126155e+01 -7.5699312606e+01  3.6527487933e+02 ] stress_32 gradient
 [ -2.5135153433e-01 -2.3836918478e-03 -7.6054525674e+01  1.4419142934e+02 
   -4.5499021208e+01 -3.1870845121e+02  1.4978988079e+02 ] stress_33 gradient
 [ -5.2354079568e-01 -3.0840363671e-03 -4.5127816978e+02  7.5702333688e+01 
   -2.3908394106e+01 -4.5406133280e+02  2.9762727126e+01 ] stress_34 gradient
 [ -5.5596752812e-01 -4.2293835005e-03 -9.0648558695e+02  2.8908544914e+01 
   -9.1185307746e+00 -4.8131542371e+02  5.5945635918e+00 ] stress_35 gradient
 [ -5.5600605743e-01 -5.4158075608e-03 -1.3735646195e+03  1.1720527994e+01 
   -3.6921388104e+00 -4.8627456378e+02  1.1968112002e+00 ] stress_36 gradient
 [ -5.5418970665e-01 -6.5488335664e-03 -1.8230803907e+03  5.4189476197e+00 
   -1.7050569729e+00 -4.8731118861e+02  2.7775278248e-01 ] stress_37 gradient
 [ -5.5306184847e-01 -7.5808525881e-03 -2.2342652965e+03  2.8782197688e+00 
   -9.0477428395e-01 -4.8756005984e+02  5.6667953272e-02 ] stress_38 gradient
 [ -5.5245391716e-01 -8.4707887685e-03 -2.5895316227e+03  1.7472872482e+00 
   -5.4878576086e-01 -4.8762507110e+02 -7.9814081315e-04 ] stress_39 gradient
 [ -5.5213035847e-01 -9.1821862462e-03 -2.8737827893e+03  1.2044436338e+00 
   -3.7821859748e-01 -4.8764335551e+02 -1.6760942558e-02 ] stress_40 gradient
 [ -5.5196113596e-01 -9.6861834097e-03 -3.0752526951e+03  9.3766621087e-01 
   -2.9421555072e-01 -4.8764741872e+02 -2.0352573495e-02 ] stress_41 gradient
 [ -5.5188495299e-01 -9.9618785050e-03 -3.1854828944e+03  8.2110714906e-01 
   -2.5754104987e-01 -4.8764792662e+02 -2.1150716123e-02 ] stress_42 gradient
 [ -5.5188407732e-01 -9.8874646345e-03 -3.1854830981e+03  8.1851028929e-01 
   -2.5733616423e-01 -4.8764843452e+02 -2.1150714308e-02 ] stress_43 gradient
 [ -5.1303054545e-01 -8.0708247806e-03 -3.1802846254e+03 -8.0171060278e+01 
    1.0016646280e+01 -4.8047738796e+02  1.2478522644e+01 ] stress_44 gradient
 [ -3.3856454665e-01 -6.8747039723e-03 -3.1442156489e+03 -3.9180933942e+02 
    4.9871379815e+01 -4.4266470681e+02  7.8395722900e+01 ] stress_45 gradient
 [ -3.3856476557e-01 -7.8668763518e-03 -3.1442158527e+03 -3.9180943930e+02 
    4.9871277373e+01 -4.4266521471e+02  7.8395323829e+01 ] stress_46 gradient
 [ -3.3870115059e-01 -9.6784939391e-03 -3.1442617018e+03 -3.9166341586e+02 
    4.9824768369e+01 -4.4277492121e+02  7.8374173116e+01 ] stress_47 gradient
 [ -3.2262172848e-01 -8.2703360166e-03 -3.1422168320e+03 -4.2520945330e+02 
    5.4132792935e+01 -4.3985754098e+02  8.3459124202e+01 ] stress_48 gradient
 [ -3.2262172848e-01 -8.7656018807e-03 -3.1422168320e+03 -4.2520945330e+02 
    5.4132895377e+01 -4.3985754098e+02  8.3459124201e+01 ] stress_49 gradient
 [ -3.2262194739e-01 -9.5386317308e-03 -3.1422170358e+03 -4.2520945330e+02 
    5.4132792935e+01 -4.3985754098e+02  8.3459124202e+01 ] stress_50 gradient
 [ -3.3536464314e-01 -1.0648467625e-02 -3.1442123886e+03 -4.0560306059e+02 
    5.1109297891e+01 -4.5777830072e+02  7.9808830089e+01 ] stress_51 gradient
 [ -3.3338848325e-01 -9.8335736714e-03 -3.1440130978e+03 -4.1015166060e+02 
    5.1689943344e+01 -4.5745476813e+02  8.0354358902e+01 ] stress_52 gradient
 [ -2.6780874077e-01 -8.2486577282e-03 -3.1331745746e+03 -5.4094620893e+02 
    6.8590639344e+01 -4.4453682790e+02  1.0215076908e+02 ] stress_53 gradient
 [  5.9234445684e-03 -6.7973545480e-03 -3.0538910905e+03 -9.7824344615e+02 
    1.2557933100e+02 -3.7805875283e+02  2.1432937138e+02 ] stress_54 gradient
 [  3.3298425381e-01 -5.7657674320e-03 -2.8650778795e+03 -1.3237129779e+03 
    1.7087699076e+02 -2.7744976704e+02  3.8411793140e+02 ] stress_55 gradient
 [  5.1294168721e-01 -4.9985247729e-03 -2.6553499194e+03 -1.3895604377e+03 
    1.7960972217e+02 -2.0700595441e+02  5.0300781512e+02 ] stress_56 gradient
 [  5.6978374694e-01 -4.6401566914e-03 -2.5478945075e+03 -1.3748267431e+03 
    1.7773091206e+02 -1.8042828533e+02  5.4786500924e+02 ] stress_57 gradient
 [  5.6978376883e-01 -5.0557945508e-03 -2.5478945075e+03 -1.3748267431e+03 
    1.7773091206e+02 -1.8042828533e+02  5.4786504915e+02 ] stress_58 gradient
 [  5.6977481514e-01 -6.6131112470e-03 -2.5478947316e+03 -1.3748160260e+03 
    1.7772883248e+02 -1.8043214537e+02  5.4786177677e+02 ] stress_59 gradient
 [  5.5646315523e-01 -8.8281431800e-03 -2.5486358569e+03 -1.3590751593e+03 
    1.7487201177e+02 -1.8675601397e+02  5.4270619028e+02 ] stress_60 gradient
 [  9.5825693714e-02 -9.9054053747e-03 -2.5997612698e+03 -8.1463807139e+02 
    8.9082670497e+01 -4.2860754585e+02  3.4552525974e+02 ] stress_61 gradient
 [ -4.5785546974e-01 -9.7636209261e-03 -2.8000390990e+03 -1.5649926719e+02 
    5.4667544040e+00 -7.5420475255e+02  8.0058248894e+01 ] stress_62 gradient
 [ -5.2609067022e-01 -9.9143347540e-03 -2.8944656234e+03 -7.3597808399e+01 
   -1.4826537834e+00 -8.0050191084e+02  4.2310209082e+01 ] stress_63 gradient
 [ -5.2025982736e-01 -8.6243688986e-03 -2.8938701965e+03 -8.5266898589e+01 
    1.4772243159e-01 -7.9882380772e+02  4.4008651386e+01 ] stress_64 gradient
 [ -3.8844840885e-01 -6.7507976320e-03 -2.8713032701e+03 -3.0943224659e+02 
    3.1993994728e+01 -7.5336620889e+02  9.0006268099e+01 ] stress_65 gradient
 [ -2.8974221090e-01 -6.2677348116e-03 -2.8481716866e+03 -4.5702797958e+02 
    5.3175260639e+01 -7.1531227502e+02  1.2851254108e+02 ] stress_66 gradient
 [ -2.8974221090e-01 -7.5833476816e-03 -2.8481716866e+03 -4.5702787970e+02 
    5.3175363082e+01 -7.1531176712e+02  1.2851294015e+02 ] stress_67 gradient
 [ -3.3434252167e-01 -9.7519143550e-03 -2.8547046737e+03 -3.9272283485e+02 
    4.3144784589e+01 -7.3307914092e+02  1.1185814902e+02 ] stress_68 gradient
 [ -5.7596774601e-01 -1.0255253119e-02 -3.0445994141e+03 -1.4420363458e+01 
   -7.3041673920e-02 -8.4712920442e+02  4.9372951539e+00 ] stress_69 gradient
 [ -5.7668207078e-01 -1.0270001668e-02 -3.0506317291e+03 -1.3088973324e+01 
   -1.2887296776e-01 -8.4758326743e+02  4.5114873667e+00 ] stress_70 gradient
 [ -5.7644520305e-01 -9.8113225299e-03 -3.0506135932e+03 -1.3629719474e+01 
   -5.8494804875e-02 -8.4752079567e+02  4.5741413706e+00 ] stress_71 gradient
 [ -5.6943637012e-01 -8.9877858781e-03 -3.0498718567e+03 -2.8462484273e+01 
    1.8932442874e+00 -8.4546938573e+02  6.6257607048e+00 ] stress_72 gradient
 [ -5.2078982438e-01 -7.9184682646e-03 -3.0428310653e+03 -1.2237373045e+02 
    1.4347822906e+01 -8.2957870412e+02  2.2520323319e+01 ] stress_73 gradient
 [ -3.6229335157e-01 -6.8442551759e-03 -3.0100640390e+03 -3.9221015477e+02 
    5.0370788175e+01 -7.7088064826e+02  8.1235106589e+01 ] stress_74 gradient
 [ -7.1412555590e-02 -5.9512179508e-03 -2.9154396502e+03 -8.0110583405e+02 
    1.0526544777e+02 -6.4606512667e+02  2.0608897309e+02 ] stress_75 gradient
 [  2.5324356458e-01 -5.1437021413e-03 -2.7258813403e+03 -1.1242164812e+03 
    1.4885321526e+02 -4.7973905306e+02  3.7247266710e+02 ] stress_76 gradient
 [  4.9476320546e-01 -4.2173088267e-03 -2.4366165238e+03 -1.2162246785e+03 
    1.6141411920e+02 -3.2556033312e+02  5.2670866758e+02 ] stress_77 gradient
 [  6.2807385221e-01 -3.1184334707e-03 -2.0692188726e+03 -1.1309337690e+03 
    1.5012081100e+02 -2.1247451864e+02  6.3983833372e+02 ] stress_78 gradient
 [  6.8649620717e-01 -1.9109606441e-03 -1.6532797025e+03 -9.7680286504e+02 
    1.2957396068e+02 -1.3894976152e+02  7.1339212325e+02 ] stress_79 gradient
 [  7.0562922866e-01 -6.7303343014e-04 -1.2154930865e+03 -8.2092372103e+02 
    1.0879413919e+02 -9.3277696645e+01  7.5908227243e+02 ] stress_80 gradient
 [  7.0723250795e-01  5.3657585324e-04 -7.7757273577e+02 -6.8863178328e+02 
    9.1174510281e+01 -6.5048741595e+01  7.8732230772e+02 ] stress_81 gradient
 [  7.0216780742e-01  1.6757787936e-03 -3.5721485173e+02 -5.8436632701e+02 
    7.7301837294e+01 -4.7366187172e+01  8.0501180778e+02 ] stress_82 gradient
 [  6.9534395899e-01  2.7121608172e-03  3.0797858464e+01 -5.0513202404e+02 
    6.6769565968e+01 -3.6080537429e+01  8.1630181989e+02 ] stress_83 gradient
 [  6.8882208409e-01  3.6192297858e-03  3.7404509812e+02 -4.4633211260e+02 
    5.8959894867e+01 -2.8762402901e+01  8.2362280059e+02 ] stress_84 gradient
 [  6.8339054505e-01  4.3744762393e-03  6.6203734743e+02 -4.0382900570e+02 
    5.3318373148e+01 -2.3993217606e+01  8.2839368352e+02 ] stress_85 gradient
 [  6.7929571060e-01  4.9595741238e-03  8.8633684392e+02 -3.7442366150e+02 
    4.9417353590e+01 -2.0939212155e+01  8.3144896413e+02 ] stress_86 gradient
 [  6.7657348304e-01  5.3603681122e-03  1.0405186006e+03 -3.5587429068e+02 
    4.6957293619e+01 -1.9113817912e+01  8.3327510886e+02 ] stress_87 gradient
 [  6.7520197073e-01  5.5668019595e-03  1.1200889982e+03 -3.4678917604e+02 
    4.5752771876e+01 -1.8247339732e+01  8.3414149002e+02 ] stress_88 gradient
 [  6.7440642791e-01  5.2140232438e-03  1.1200148245e+03 -3.4409842959e+02 
    4.5490825789e+01 -1.8451007814e+01  8.3397268338e+02 ] stress_89 gradient
 [  5.4735462780e-01  3.3438184692e-03  1.0966441940e+03  2.5866922725e+01 
    8.5676142048e+00 -5.9734172789e+01  7.9969791019e+02 ] stress_90 gradient
 [  3.5229311128e-01  2.5189339068e-03  1.0421181635e+03  5.3074343572e+02 
   -4.2410259895e+01 -1.3345973343e+02  7.3848802099e+02 ] stress_91 gradient
 [  3.5229313317e-01  3.9164304988e-03  1.0421181635e+03  5.3074344571e+02 
   -4.2410259895e+01 -1.3345973343e+02  7.3848806090e+02 ] stress_92 gradient
 [  3.5583312357e-01  5.9306914791e-03  1.0430468218e+03  5.2413383779e+02 
   -4.1758631867e+01 -1.3185095873e+02  7.4191399781e+02 ] stress_93 gradient
 [  3.5764509603e-01  5.9919730108e-03  1.0434690410e+03  5.2066772887e+02 
   -4.1441366700e+01 -1.3100124126e+02  7.4372378066e+02 ] stress_94 gradient
 [  3.5725717587e-01  5.7032525094e-03  1.0434321580e+03  5.2197464860e+02 
   -4.1570956766e+01 -1.3109621865e+02  7.4364436572e+02 ] stress_95 gradient
 [  3.5139086852e-01  5.1958823868e-03  1.0426849195e+03  5.4062659539e+02 
   -4.3443712506e+01 -1.3269762879e+02  7.4230947627e+02 ] stress_96 gradient
 [  3.2380913196e-01  4.5213781755e-03  1.0381049002e+03  6.2301087952e+02 
   -5.1792795856e+01 -1.4104852811e+02  7.3534610226e+02 ] stress_97 gradient
 [  2.4945090067e-01  3.7656787352e-03  1.0218453427e+03  8.2919698732e+02 
   -7.2861968921e+01 -1.6616837051e+02  7.1440074896e+02 ] stress_98 gradient
 [  1.1106791319e-01  3.0127694714e-03  9.8057522403e+02  1.1782247865e+03 
   -1.0881569314e+02 -2.1882337594e+02  6.7049581589e+02 ] stress_99 gradient
 [ -8.1168682019e-02  2.2922090431e-03  8.9821410389e+02  1.6042604708e+03 
   -1.5307679627e+02 -3.0229331159e+02  6.0089647573e+02 ] stress_100 gradient
 [ -2.9048904478e-01  1.5665115738e-03  7.6136477372e+02  1.9866347287e+03 
   -1.9322990453e+02 -4.0780973318e+02  5.1291381225e+02 ] stress_101 gradient
 [ -4.7677419380e-01  7.7432674368e-04  5.6376009373e+02  2.2300118546e+03 
   -2.1929517112e+02 -5.1933212340e+02  4.1992289495e+02 ] stress_102 gradient
 [ -6.1752025650e-01 -1.2282459001e-04  3.0678339033e+02  2.3101708714e+03 
   -2.2860061687e+02 -6.2254237726e+02  3.3386263590e+02 ] stress_103 gradient
 [ -7.1033122823e-01 -1.1288656154e-03 -3.0438299643e+00  2.2583495018e+03 
   -2.2425855059e+02 -7.0973131243e+02  2.6116136383e+02 ] stress_104 gradient
 [ -7.6408082869e-01 -2.2258556483e-03 -3.5688587935e+02  2.1241622658e+03 
   -2.1133813409e+02 -7.7922992230e+02  2.0321083969e+02 ] stress_105 gradient
 [ -7.9037704337e-01 -3.3893833055e-03 -7.4565041287e+02  1.9509942338e+03 
   -1.9429945797e+02 -8.3280895103e+02  1.5853458395e+02 ] stress_106 gradient
 [ -7.9918931101e-01 -4.5963873040e-03 -1.1608119638e+03  1.7682946470e+03 
   -1.7617918114e+02 -8.7343489281e+02  1.2465912029e+02 ] stress_107 gradient
 [ -7.9771665924e-01 -5.8274307640e-03 -1.5946402112e+03  1.5929429754e+03 
   -1.5872365526e+02 -9.0406484569e+02  9.9118634533e+01 ] stress_108 gradient
 [ -7.9068987515e-01 -7.0663964002e-03 -2.0401491787e+03  1.4331061439e+03 
   -1.4278315507e+02 -9.2718498241e+02  7.9840356625e+01 ] stress_109 gradient
 [ -7.8103631114e-01 -8.2995729105e-03 -2.4909854039e+03  1.2917082168e+03 
   -1.2866849184e+02 -9.4472684841e+02  6.5213240617e+01 ] stress_110 gradient
 [ -7.7048759726e-01 -9.5147282265e-03 -2.9412759230e+03  1.1688480745e+03 
   -1.1639882237e+02 -9.5813389678e+02  5.4034090185e+01 ] stress_111 gradient
 [ -7.6002557435e-01 -1.0700452642e-02 -3.3855021346e+03  1.0632728319e+03 
   -1.0585367399e+02 -9.6846408418e+02  4.5420162293e+01 ] stress_112 gradient
 [ -7.5017323409e-01 -1.1846095673e-02 -3.8185340341e+03  9.7318166665e+02 
   -9.6855001219e+01 -9.7648992721e+02  3.8728155954e+01 ] stress_113 gradient
 [ -7.4118517645e-01 -1.2941487013e-02 -4.2355499263e+03  8.9667627399e+02 
   -8.9214002090e+01 -9.8277367167e+02  3.3488365674e+01 ] stress_114 gradient
 [ -7.3316122739e-01 -1.3976856080e-02 -4.6320060639e+03  8.3197390957e+02 
   -8.2752631119e+01 -9.8772468532e+02  2.9359985592e+01 ] stress_115 gradient
 [ -7.2611517864e-01 -1.4942970009e-02 -5.0036810693e+03  7.7748809170e+02 
   -7.7312511827e+01 -9.9164618476e+02  2.6090404344e+01 ] stress_116 gradient
 [ -7.2001725757e-01 -1.5831056256e-02 -5.3466339577e+03  7.3186246043e+02 
   -7.2757805142e+01 -9.9475910666e+02  2.3494453410e+01 ] stress_117 gradient
 [ -7.1481558093e-01 -1.6633194681e-02 -5.6573439260e+03  6.9394910379e+02 
   -6.8973570308e+01 -9.9723004238e+02  2.1434453604e+01 ] stress_118 gradient
 [ -7.1045301152e-01 -1.7342099611e-02 -5.9326129485e+03  6.6280636038e+02 
   -6.5865662447e+01 -9.9918190384e+02  1.9806646707e+01 ] stress_119 gradient
 [ -7.0687416342e-01 -1.7951135116e-02 -6.1695623133e+03  6.3767834420e+02 
   -6.3358273930e+01 -1.0007061131e+03  1.8536007538e+01 ] stress_120 gradient
 [ -7.0402846692e-01 -1.8454852728e-02 -6.3658345614e+03  6.1795249592e+02 
   -6.1390144000e+01 -1.0018712368e+03  1.7564271870e+01 ] stress_121 gradient
 [ -7.0187389003e-01 -1.8848544865e-02 -6.5194115175e+03  6.0316307871e+02 
   -5.9914763651e+01 -1.0027260332e+03  1.6851133620e+01 ] stress_122 gradient
 [ -7.0037781418e-01 -1.9128515227e-02 -6.6287155650e+03  5.9296580885e+02 
   -5.8897507238e+01 -1.0033070714e+03  1.6367061601e+01 ] stress_123 gradient
 [ -6.9951659640e-01 -1.9292272792e-02 -6.6926819860e+03  5.8712057668e+02 
   -5.8314505602e+01 -1.0036366988e+03  1.6092102310e+01 ] stress_124 gradient
 [ -6.9928695291e-01 -1.9336260781e-02 -6.7098684697e+03  5.8556525731e+02 
   -5.8159202407e+01 -1.0037235497e+03  1.6019870621e+01 ] stress_125 gradient
 [ -6.8136994511e-01 -1.8892004301e-02 -6.7068835915e+03  4.6934298875e+02 
   -5.1639131745e+01 -1.0005146346e+03  2.0812303333e+01 ] stress_126 gradient
 [ -5.4631702893e-01 -1.8057746895e-02 -6.6716879893e+03 -3.4629037917e+02 
   -4.9766683332e+00 -9.7210115936e+02  6.3245026932e+01 ] stress_127 gradient
 [ -2.7072799324e-01 -1.7162493110e-02 -6.5576268431e+03 -1.8872901623e+03 
    8.4429413896e+01 -9.0422026323e+02  1.6462399446e+02 ] stress_128 gradient
 [  4.4971374356e-02 -1.6242168219e-02 -6.3494611350e+03 -3.5083351578e+03 
    1.7939639541e+02 -8.1374236786e+02  2.9975710833e+02 ] stress_129 gradient
 [  3.1237730864e-01 -1.5290752427e-02 -6.0760605142e+03 -4.7563125522e+03 
    2.5302363209e+02 -7.2545758666e+02  4.3161824654e+02 ] stress_130 gradient
 [  5.0270994264e-01 -1.4387754178e-02 -5.7912964490e+03 -5.5567545889e+03 
    3.0052633086e+02 -6.5422454752e+02  5.3801312602e+02 ] stress_131 gradient
 [  6.2132112978e-01 -1.3658519838e-02 -5.5522129616e+03 -6.0064682127e+03 
    3.2736100185e+02 -6.0509178097e+02  6.1139932208e+02 ] stress_132 gradient
 [  6.8125917332e-01 -1.3217357274e-02 -5.4050444868e+03 -6.2153200772e+03 
    3.3988093893e+02 -5.7848033651e+02  6.5114790026e+02 ] stress_133 gradient
 [  6.8470054181e-01 -1.3190180106e-02 -5.3959278521e+03 -6.2268765036e+03 
    3.4057519338e+02 -5.7690990829e+02  6.5349283610e+02 ] stress_134 gradient
 [  6.8391594482e-01 -1.5178840358e-02 -5.3959688106e+03 -6.2238224964e+03 
    3.4031560348e+02 -5.7727610453e+02  6.5323822939e+02 ] stress_135 gradient
 [  6.8358384838e-01 -1.5293302515e-02 -5.3959877615e+03 -6.2225246657e+03 
    3.4020670685e+02 -5.7743406157e+02  6.5312808604e+02 ] stress_136 gradient
 [  7.1868668265e-01 -1.4479561905e-02 -5.3860931185e+03 -6.3712464371e+03 
    3.5159372967e+02 -5.6877080347e+02  6.6605955324e+02 ] stress_137 gradient
 [  7.1868690157e-01 -1.4653452605e-02 -5.3860929147e+03 -6.3712463372e+03 
    3.5159383211e+02 -5.6877029557e+02  6.6605955324e+02 ] stress_138 gradient
 [  7.1865362625e-01 -1.5489231000e-02 -5.3860943411e+03 -6.3711152957e+03 
    3.5158276829e+02 -5.6878553258e+02  6.6604877835e+02 ] stress_139 gradient
 [  7.0627214285e-01 -1.7052740569e-02 -5.3868637909e+03 -6.3208051288e+03 
    3.4764179607e+02 -5.7501696329e+02  6.6166299806e+02 ] stress_140 gradient
 [  3.7616084066e-01 -1.8291190383e-02 -5.4224375971e+03 -4.9119394742e+03 
    2.4974403019e+02 -7.6426118160e+02  5.2846856668e+02 ] stress_141 gradient
 [ -3.8777545931e-01 -1.8193878175e-02 -5.6549310408e+03 -1.4336491873e+03 
    4.5924670795e+01 -1.2757804297e+03  1.6848140595e+02 ] stress_142 gradient
 [ -6.0572704570e-01 -1.8849071890e-02 -6.0178513136e+03 -2.9467259338e+02 
   -6.8534193396e-01 -1.4598090182e+03  3.8976776619e+01 ] stress_143 gradient
 [ -6.3616805160e-01 -1.9585280781e-02 -6.3198564739e+03 -9.0489583522e+01 
   -4.0938167959e+00 -1.4958531900e+03  1.3611881699e+01 ] stress_144 gradient
 [ -6.4069743545e-01 -1.9988196108e-02 -6.4803346363e+03 -4.9443215191e+01 
   -3.8764333000e+00 -1.5036327013e+03  8.1370391349e+00 ] stress_145 gradient
 [ -6.4004331273e-01 -1.9891768894e-02 -6.4802584249e+03 -5.3769783673e+01 
   -3.6330293484e+00 -1.5034782995e+03  8.2922774024e+00 ] stress_146 gradient
 [ -5.6328809824e-01 -1.8957650210e-02 -6.4639432779e+03 -5.1823117506e+02 
    2.3257370490e+01 -1.4812449570e+03  3.0574754944e+01 ] stress_147 gradient
 [ -3.0285509456e-01 -1.7849982501e-02 -6.3731624700e+03 -1.9748012473e+03 
    1.0881181056e+02 -1.3919514855e+03  1.2006781891e+02 ] stress_148 gradient
 [  2.4301490673e-02 -1.6824964508e-02 -6.1883339531e+03 -3.6574964978e+03 
    2.0843071692e+02 -1.2605921744e+03  2.5172303695e+02 ] stress_149 gradient
 [  2.7832155233e-01 -1.5955310891e-02 -5.9708241987e+03 -4.8585690077e+03 
    2.7977266095e+02 -1.1438949338e+03  3.6868489335e+02 ] stress_150 gradient
 [  4.1569761115e-01 -1.5396492451e-02 -5.8133686127e+03 -5.4639046594e+03 
    3.1576253721e+02 -1.0744304040e+03  4.3830745939e+02 ] stress_151 gradient
 [  4.3528933072e-01 -1.5309277223e-02 -5.7879311252e+03 -5.5473272880e+03 
    3.2072281470e+02 -1.0641017403e+03  4.4865973659e+02 ] stress_152 gradient
 [  4.3528714156e-01 -1.6353378099e-02 -5.7879311252e+03 -5.5473179993e+03 
    3.2072209760e+02 -1.0641022482e+03  4.4865933752e+02 ] stress_153 gradient
 [  4.2354730262e-01 -1.8272845845e-02 -5.7886316994e+03 -5.4937888246e+03 
    3.1675582202e+02 -1.0679211517e+03  4.4486218562e+02 ] stress_154 gradient
 [ -1.0519576077e-01 -1.9119530345e-02 -5.8581872274e+03 -2.9258918256e+03 
    1.4957920647e+02 -1.2669927360e+03  2.4688271583e+02 ] stress_155 gradient
 [ -5.8174736239e-01 -1.9194398933e-02 -6.1322719168e+03 -4.1849177605e+02 
    1.1704492873e+01 -1.4770248121e+03  3.7969124643e+01 ] stress_156 gradient
 [ -6.2565852380e-01 -1.9582378325e-02 -6.3079403950e+03 -1.4015962444e+02 
    1.2104634214e+00 -1.5018149256e+03  1.3309785642e+01 ] stress_157 gradient
 [ -6.0688489545e-01 -1.9043094430e-02 -6.3048306035e+03 -2.5465597991e+02 
    7.9328584960e+00 -1.4967191603e+03  1.8405511621e+01 ] stress_158 gradient
 [ -3.6810514869e-01 -1.7660142552e-02 -6.2343574822e+03 -1.5854500356e+03 
    8.7620915033e+01 -1.4177208310e+03  9.7403431286e+01 ] stress_159 gradient
 [ -1.7525409846e-01 -1.7011259386e-02 -6.1482595994e+03 -2.5852133608e+03 
    1.4804020918e+02 -1.3442819802e+03  1.7084310274e+02 ] stress_160 gradient
 [ -1.7525409846e-01 -1.7814223738e-02 -6.1482595994e+03 -2.5852131610e+03 
    1.4804020918e+02 -1.3442824881e+03  1.7084310274e+02 ] stress_161 gradient
 [ -2.9417746062e-01 -1.9615051828e-02 -6.1609510374e+03 -1.9588281613e+03 
    1.0820104694e+02 -1.3834497398e+03  1.3169672133e+02 ] stress_162 gradient
 [ -6.3688697362e-01 -1.9900717623e-02 -6.4340904203e+03 -2.5839555816e+01 
    6.0984163418e-01 -1.5133158235e+03  1.8792210519e+00 ] stress_163 gradient
 [ -6.3858423379e-01 -2.0032976416e-02 -6.4877520016e+03 -1.2682464858e+01 
    2.0099265745e-01 -1.5142630579e+03  9.3262680246e-01 ] stress_164 gradient
 [ -6.3593709462e-01 -1.9839132097e-02 -6.4874008994e+03 -2.9920221635e+01 
    1.1743011344e+00 -1.5136063426e+03  1.5886980282e+00 ] stress_165 gradient
 [ -6.1784364005e-01 -1.9492954176e-02 -6.4842360889e+03 -1.4295394566e+02 
    7.6445846243e+00 -1.5086746291e+03  6.5200071323e+00 ] stress_166 gradient
 [ -5.6806420106e-01 -1.9048477721e-02 -6.4730819202e+03 -4.4227971261e+02 
    2.4940504716e+01 -1.4938754256e+03  2.1318324207e+01 ] stress_167 gradient
 [ -4.7594060547e-01 -1.8552518323e-02 -6.4468012168e+03 -9.7560703399e+02 
    5.5975430508e+01 -1.4641114430e+03  5.1080971520e+01 ] stress_168 gradient
 [ -3.4122306948e-01 -1.8031137996e-02 -6.3976601529e+03 -1.7252846530e+03 
    9.9832294586e+01 -1.4168518133e+03  9.8338452507e+01 ] stress_169 gradient
 [ -1.7318730711e-01 -1.7487138884e-02 -6.3186572652e+03 -2.6213778321e+03 
    1.5245405710e+02 -1.3528101368e+03  1.6237842706e+02 ] stress_170 gradient
 [  1.3583116458e-02 -1.6907989506e-02 -6.2045003453e+03 -3.5714607289e+03 
    2.0838174929e+02 -1.2753543012e+03  2.3983274362e+02 ] stress_171 gradient
 [  2.0402783575e-01 -1.6275722134e-02 -6.0519989072e+03 -4.4895596994e+03 
    2.6248985352e+02 -1.1892123521e+03  3.2597401789e+02 ] stress_172 gradient
 [  3.8589649839e-01 -1.5574605969e-02 -5.8599944970e+03 -5.3129235199e+03 
    3.1101421374e+02 -1.0992225490e+03  4.1596312598e+02 ] stress_173 gradient
 [  5.5099024097e-01 -1.4795169330e-02 -5.6291027152e+03 -6.0059468431e+03 
    3.5180978141e+02 -1.0095390100e+03  5.0564654637e+02 ] stress_174 gradient
 [  6.9509404384e-01 -1.3934472080e-02 -5.3611990956e+03 -6.5567388469e+03 
    3.8415484741e+02 -9.2323402475e+02  5.9195223753e+02 ] stress_175 gradient
 [  8.1703604659e-01 -1.2995230817e-02 -5.0590826749e+03 -6.9698554224e+03 
    4.0831852882e+02 -8.4231278438e+02  6.7287407410e+02 ] stress_176 gradient
 [  9.1767024278e-01 -1.1984168543e-02 -4.7261560673e+03 -7.2595063878e+03 
    4.2515161261e+02 -7.6788352766e+02  7.4730463658e+02 ] stress_177 gradient
 [  9.9900672435e-01 -1.0910349068e-02 -4.3661409972e+03 -7.4442750727e+03 
    4.3576765137e+02 -7.0036984357e+02  8.1481931441e+02 ] stress_178 gradient
 [  1.0635492401e+00 -9.7842069746e-03 -3.9829794680e+03 -7.5435342524e+03 
    4.4132660424e+02 -6.3974328967e+02  8.7544684062e+02 ] stress_179 gradient
 [  1.1138952352e+00 -8.6166366550e-03 -3.5806805251e+03 -7.5754484629e+03 
    4.4291456916e+02 -5.8568541240e+02  9.2950527408e+02 ] stress_180 gradient
 [  1.1524963344e+00 -7.4184899836e-03 -3.1632404166e+03 -7.5559811221e+03 
    4.4148394604e+02 -5.3771822661e+02  9.7747349890e+02 ] stress_181 gradient
 [  1.1815369529e+00 -6.2004806881e-03 -2.7346559001e+03 -7.4985836549e+03 
    4.3783525320e+02 -4.9529751698e+02  1.0198950485e+03 ] stress_182 gradient
 [  1.2029016559e+00 -4.9728797952e-03 -2.2988330743e+03 -7.4142609346e+03 
    4.3262188067e+02 -4.5786174876e+02  1.0573314944e+03 ] stress_183 gradient
 [  1.2181743047e+00 -3.7456131428e-03 -1.8596201662e+03 -7.3118263445e+03 
    4.2636554884e+02 -4.2487193799e+02  1.0903219004e+03 ] stress_184 gradient
 [  1.2286659974e+00 -2.5281229694e-03 -1.4207478557e+03 -7.1982130353e+03 
    4.1947535973e+02 -3.9582589300e+02  1.1193685122e+03 ] stress_185 gradient
 [  1.2354481794e+00 -1.3294704153e-03 -9.8585184397e+02 -7.0788052046e+03 
    4.1226794233e+02 -3.7026954063e+02  1.1449253439e+03 ] stress_186 gradient
 [  1.2393894658e+00 -1.5830023593e-04 -5.5844628100e+02 -6.9577318718e+03 
    4.0498516498e+02 -3.4779850070e+02  1.1673967812e+03 ] stress_187 gradient
 [  1.2411897481e+00  9.7719025995e-04 -1.4189910914e+02 -6.8381197920e+03 
    3.9780943004e+02 -3.2805600360e+02  1.1871396166e+03 ] stress_188 gradient
 [  1.2414100658e+00  2.0691474348e-03  2.6054096750e+02 -6.7223192635e+03 
    3.9087717077e+02 -3.1073207769e+02  1.2044638478e+03 ] stress_189 gradient
 [  1.2404988474e+00  3.1101950795e-03  6.4580269102e+02 -6.6120660474e+03 
    3.8428853518e+02 -2.9555743414e+02  1.2196388072e+03 ] stress_190 gradient
 [  1.2388134087e+00  4.0933978527e-03  1.0109864829e+03 -6.5086272216e+03 
    3.7811625763e+02 -2.8229869270e+02  1.2328975119e+03 ] stress_191 gradient
 [  1.2366375969e+00  5.0121370862e-03  1.3533239745e+03 -6.4129275379e+03 
    3.7241275805e+02 -2.7075919431e+02  1.2444374217e+03 ] stress_192 gradient
 [  1.2341966772e+00  5.8605065374e-03  1.6703299411e+03 -6.3255975340e+03 
    3.6721358408e+02 -2.6076676072e+02  1.2544297376e+03 ] stress_193 gradient
 [  1.2316681908e+00  6.6329329822e-03  1.9596632256e+03 -6.2470848684e+03 
    3.6254362931e+02 -2.5217816398e+02  1.2630185241e+03 ] stress_194 gradient
 [  1.2291929011e+00  7.3242851847e-03  2.2191723846e+03 -6.1776972692e+03 
    3.5841938702e+02 -2.4487252380e+02  1.2703243003e+03 ] stress_195 gradient
 [  1.2268800476e+00  7.9302130258e-03  2.4470214164e+03 -6.1176124215e+03 
    3.5485038439e+02 -2.3874724429e+02  1.2764496271e+03 ] stress_196 gradient
 [  1.2248150075e+00  8.4466668161e-03  2.6415139044e+03 -6.0669594690e+03 
    3.5184317774e+02 -2.3372004556e+02  1.2814771121e+03 ] stress_197 gradient
 [  1.2230634561e+00  8.8704136274e-03  2.8012859907e+03 -6.0257941445e+03 
    3.4940043059e+02 -2.2972134526e+02  1.2854757944e+03 ] stress_198 gradient
 [  1.2216735548e+00  9.1987261697e-03  2.9251912441e+03 -5.9941492084e+03 
    3.4752316737e+02 -2.2669882964e+02  1.2884983512e+03 ] stress_199 gradient
 [  1.2206814249e+00  9.4293873743e-03  3.0123024939e+03 -5.9720481321e+03 
    3.4621241251e+02 -2.2461339036e+02  1.2905838915e+03 ] stress_200 gradient
 [  1.2201096148e+00  9.5609943877e-03  3.0620267584e+03 -5.9594872203e+03 
    3.4546755134e+02 -2.2343760080e+02  1.2917595520e+03 ] stress_201 gradient
 [  1.2200813745e+00  9.5674408944e-03  3.0644628738e+03 -5.9588728632e+03 
    3.4543108173e+02 -2.2338071595e+02  1.2918166190e+03 ] stress_202 gradient
 [  9.8604401746e-01  8.5131457803e-03  2.9965092114e+03 -4.0442282768e+03 
    2.5661937228e+02 -2.8325049816e+02  1.2417572669e+03 ] stress_203 gradient
 [  6.2830631972e-01  7.7147031488e-03  2.8155958001e+03 -1.3126452006e+03 
    1.2690258388e+02 -3.9206055264e+02  1.1507772678e+03 ] stress_204 gradient
 [  6.2830631972e-01  8.2387944711e-03  2.8155958001e+03 -1.3126452006e+03 
    1.2690258388e+02 -3.9206055264e+02  1.1507772678e+03 ] stress_205 gradient
 [  6.2833565454e-01  1.0423504399e-02  2.8156072114e+03 -1.3126433029e+03 
    1.2691385258e+02 -3.9205445784e+02  1.1507868455e+03 ] stress_206 gradient
 [  6.2836192453e-01  1.0540004386e-02  2.8156182152e+03 -1.3126076460e+03 
    1.2691979426e+02 -3.9203922082e+02  1.1508103906e+03 ] stress_207 gradient
 [  6.1366911997e-01  1.0269305588e-02  2.8129332920e+03 -1.1872900751e+03 
    1.2111180309e+02 -3.9513182671e+02  1.1482248155e+03 ] stress_208 gradient
 [  5.5341802573e-01  9.8825202759e-03  2.7975445005e+03 -6.9555076712e+02 
    9.7865291526e+01 -4.0944344579e+02  1.1362579007e+03 ] stress_209 gradient
 [  4.3770529399e-01  9.4401539571e-03  2.7573527730e+03  2.1293872279e+02 
    5.4297520861e+01 -4.4001600593e+02  1.1106946680e+03 ] stress_210 gradient
 [  2.7599490701e-01  8.9570178115e-03  2.6816481676e+03  1.4364961448e+03 
   -5.0413097028e+00 -4.8718116610e+02  1.0712577635e+03 ] stress_211 gradient
 [  8.7413167738e-02  8.4199947764e-03  2.5630173946e+03  2.8112502458e+03 
   -7.2330721357e+01 -5.4766804736e+02  1.0206816157e+03 ] stress_212 gradient
 [ -1.0865967767e-01  7.8081810608e-03  2.3976663899e+03  4.1859783781e+03 
   -1.4015939160e+02 -6.1669324322e+02  9.6296610392e+02 ] stress_213 gradient
 [ -2.9733992940e-01  7.1056253796e-03  2.1850525042e+03  5.4542896855e+03 
   -2.0320224433e+02 -6.8953023201e+02  9.0206282027e+02 ] stress_214 gradient
 [ -4.6944863457e-01  6.3053414710e-03  1.9270779655e+03  6.5583442058e+03 
   -2.5848649367e+02 -7.6236976030e+02  8.4115794035e+02 ] stress_215 gradient
 [ -6.2062333321e-01  5.4089828183e-03  1.6273691929e+03  7.4779755234e+03 
   -3.0490227496e+02 -8.3252991051e+02  7.8249296102e+02 ] stress_216 gradient
 [ -7.4984654489e-01  4.4248811495e-03  1.2907460680e+03  8.2172298259e+03 
   -3.4255574962e+02 -8.9833506826e+02  7.2746953618e+02 ] stress_217 gradient
 [ -8.5814719938e-01  3.3656040466e-03  9.2273395734e+02  8.7935051463e+03 
   -3.7223545015e+02 -9.5890153753e+02  6.7682646427e+02 ] stress_218 gradient
 [ -9.4759532143e-01  2.2462314211e-03  5.2929502832e+02  9.2297963332e+03 
   -3.9502613434e+02 -1.0138953931e+03  6.3084297104e+02 ] stress_219 gradient
 [ -1.0206559751e+00  1.0831539760e-03  1.1664656671e+02  9.5500486633e+03 
   -4.1207457141e+02 -1.0633363343e+03  5.8950254578e+02 ] stress_220 gradient
 [ -1.0798194261e+00 -1.0686138953e-04 -3.0892169041e+02  9.7767086549e+03 
   -4.2446452915e+02 -1.1074592215e+03  5.5260883521e+02 ] stress_221 gradient
 [ -1.1273946380e+00 -1.3070847933e-03 -7.4111713928e+02  9.9295656861e+03 
   -4.3315628347e+02 -1.1466103220e+03  5.1987235750e+02 ] stress_222 gradient
 [ -1.1654251311e+00 -2.5011962366e-03 -1.1737452814e+03  1.0025441427e+04 
   -4.3896898701e+02 -1.1811844774e+03  4.9096316148e+02 ] stress_223 gradient
 [ -1.1956629824e+00 -3.6734115037e-03 -1.6007489413e+03  1.0078281135e+04 
   -4.4258378155e+02 -1.2115813040e+03  4.6554598838e+02 ] stress_224 gradient
 [ -1.2195837772e+00 -4.8087273939e-03 -2.0163058134e+03  1.0099457230e+04 
   -4.4455703362e+02 -1.2381866537e+03  4.4329982621e+02 ] stress_225 gradient
 [ -1.2384092888e+00 -5.8929269668e-03 -2.4148441114e+03  1.0098125940e+04 
   -4.4533795463e+02 -1.2613550409e+03  4.2392776683e+02 ] stress_226 gradient
 [ -1.2531425929e+00 -6.9126813313e-03 -2.7910964870e+03  1.0081594429e+04 
   -4.4528560639e+02 -1.2814023799e+03  4.0716482770e+02 ] stress_227 gradient
 [ -1.2646011240e+00 -7.8558057750e-03 -3.1402102717e+03  1.0055645905e+04 
   -4.4468477971e+02 -1.2986115711e+03  3.9277515840e+02 ] stress_228 gradient
 [ -1.2734418508e+00 -8.7109109601e-03 -3.4576315291e+03  1.0024834561e+04 
   -4.4375982421e+02 -1.3132208198e+03  3.8055962294e+02 ] stress_229 gradient
 [ -1.2801936757e+00 -9.4680552122e-03 -3.7393601802e+03  9.9927066086e+03 
   -4.4268632673e+02 -1.3254393811e+03  3.7034302957e+02 ] stress_230 gradient
 [ -1.2852740725e+00 -1.0118424741e-02 -3.9818397613e+03  9.9620032339e+03 
   -4.4159981903e+02 -1.3354374016e+03  3.6198291025e+02 ] stress_231 gradient
 [ -1.2890070379e+00 -1.0654303598e-02 -4.1819553866e+03  9.9348217008e+03 
   -4.4060438292e+02 -1.3433530303e+03  3.5536433281e+02 ] stress_232 gradient
 [ -1.2916399475e+00 -1.1069711196e-02 -4.3372768499e+03  9.9127052431e+03 
   -4.3977664558e+02 -1.3492990209e+03  3.5039271763e+02 ] stress_233 gradient
 [ -1.2933518751e+00 -1.1359835569e-02 -4.4458532213e+03  9.8967632196e+03 
   -4.3917182363e+02 -1.3533571456e+03  3.4699942466e+02 ] stress_234 gradient
 [ -1.2942610356e+00 -1.1521229924e-02 -4.5062878353e+03  9.8877288436e+03 
   -4.3882638671e+02 -1.3555822575e+03  3.4513895990e+02 ] stress_235 gradient
 [ -1.2941804743e+00 -1.1490198091e-02 -4.5062807032e+03  9.8871169835e+03 
   -4.3879442458e+02 -1.3555665126e+03  3.4515492270e+02 ] stress_236 gradient
 [ -1.1151498461e+00 -1.0218552332e-02 -4.4673513543e+03  8.6476485004e+03 
   -3.7181797550e+02 -1.3095273677e+03  3.9348829665e+02 ] stress_237 gradient
 [ -8.1142455814e-01 -9.4613866931e-03 -4.3615110533e+03  6.6335664500e+03 
   -2.6288292632e+02 -1.2187198449e+03  4.8882135231e+02 ] stress_238 gradient
 [ -8.1241953395e-01 -1.0535458223e-02 -4.3617001554e+03  6.6289632160e+03 
   -2.6312581806e+02 -1.2193567521e+03  4.8825507185e+02 ] stress_239 gradient
 [ -8.3917726855e-01 -1.2040972655e-02 -4.3731067998e+03  6.3769842991e+03 
   -2.6560390795e+02 -1.2479911641e+03  4.6279001034e+02 ] stress_240 gradient
 [ -7.0408100689e-01 -1.0802513676e-02 -4.3428111418e+03  5.4688622649e+03 
   -2.1520525535e+02 -1.2128358181e+03  4.9956431913e+02 ] stress_241 gradient
 [ -5.5050621643e-01 -1.0269902373e-02 -4.2925187560e+03  4.4753959257e+03 
   -1.6001678997e+02 -1.1671649011e+03  5.4733979310e+02 ] stress_242 gradient
 [ -5.6094175043e-01 -1.1916672192e-02 -4.2946174221e+03  4.4493011784e+03 
   -1.6251331956e+02 -1.1739463880e+03  5.4116657787e+02 ] stress_243 gradient
 [ -5.9242370462e-01 -1.2629124738e-02 -4.3043296876e+03  4.3248699358e+03 
   -1.6797044435e+02 -1.2002627423e+03  5.1720880409e+02 ] stress_244 gradient
 [ -6.6611671413e-01 -1.3422248237e-02 -4.3444743433e+03  3.8526892783e+03 
   -1.7259409499e+02 -1.2849058772e+03  4.4015076413e+02 ] stress_245 gradient
 [ -6.2460619184e-01 -1.2644862158e-02 -4.3368474986e+03  3.5781284665e+03 
   -1.5686626593e+02 -1.2747270442e+03  4.5067224706e+02 ] stress_246 gradient
 [ -4.0213945118e-01 -1.1536538596e-02 -4.2699371579e+03  2.1852838399e+03 
   -7.6320558771e+01 -1.2099900519e+03  5.1758672347e+02 ] stress_247 gradient
 [ -6.1608158057e-02 -1.0485864422e-02 -4.1006152138e+03  1.6824706221e+02 
    4.0399626472e+01 -1.0929774050e+03  6.3853848262e+02 ] stress_248 gradient
 [  2.3226128695e-01 -9.5455538329e-03 -3.8688853105e+03 -1.4804283238e+03 
    1.3519317242e+02 -9.7578750087e+02  7.5967580937e+02 ] stress_249 gradient
 [  4.1144909726e-01 -8.8430796241e-03 -3.6672466801e+03 -2.4389401286e+03 
    1.8977968426e+02 -8.9553262591e+02  8.4263410061e+02 ] stress_250 gradient
 [  4.7568753792e-01 -8.5504413168e-03 -3.5789233839e+03 -2.7722761717e+03 
    2.0862259217e+02 -8.6477315841e+02  8.7443001003e+02 ] stress_251 gradient
 [  4.7534602807e-01 -9.0571219788e-03 -3.5789496707e+03 -2.7712097612e+03 
    2.0850027554e+02 -8.6487880170e+02  8.7432824716e+02 ] stress_252 gradient
 [  4.3558224109e-01 -1.0560415777e-02 -3.5841063698e+03 -2.6523437893e+03 
    1.9514799119e+02 -8.7961858088e+02  8.6006548214e+02 ] stress_253 gradient
 [  1.6110223675e-01 -1.2005009193e-02 -3.6456839508e+03 -1.8681792704e+03 
    1.1097673300e+02 -1.0034558862e+03  7.4023151831e+02 ] stress_254 gradient
 [ -2.3287315876e-01 -1.2861426594e-02 -3.8212480969e+03 -8.0218123371e+02 
    5.5061948594e+00 -1.2237186012e+03  5.2707900463e+02 ] stress_255 gradient
 [ -4.4480453946e-01 -1.3442252776e-02 -4.0109264296e+03 -2.6256231988e+02 
   -4.1407765481e+01 -1.3695165065e+03  3.8598258640e+02 ] stress_256 gradient
 [ -4.8982057280e-01 -1.3617796348e-02 -4.0715796928e+03 -1.5281162614e+02 
   -4.9881214318e+01 -1.4046418863e+03  3.5198979613e+02 ] stress_257 gradient
 [ -4.1666150081e-01 -1.2478981217e-02 -4.0563435279e+03 -5.6780712975e+02 
   -2.3327441325e+01 -1.3833649204e+03  3.7344300603e+02 ] stress_258 gradient
 [ -1.3144933050e-01 -1.1167565705e-02 -3.9551009745e+03 -2.0542195178e+03 
    7.4042232223e+01 -1.2835558778e+03  4.7408050133e+02 ] stress_259 gradient
 [  1.8694599466e-02 -1.0658720931e-02 -3.8778430017e+03 -2.7864642161e+03 
    1.2270632434e+02 -1.2238877321e+03  5.3424470716e+02 ] stress_260 gradient
 [  1.2884991514e-02 -1.1684344876e-02 -3.8785103608e+03 -2.7657940097e+03 
    1.2063657121e+02 -1.2257034762e+03  5.3246285921e+02 ] stress_261 gradient
 [ -1.9809256969e-01 -1.3253057479e-02 -3.9299954345e+03 -1.9941956963e+03 
    5.5014824930e+01 -1.3179823866e+03  4.4192343347e+02 ] stress_262 gradient
 [ -4.9343160163e-01 -1.4017059673e-02 -4.1090585800e+03 -8.6287604391e+02 
   -1.9069408816e+01 -1.4963433139e+03  2.6691324085e+02 ] stress_263 gradient
 [ -5.4260858223e-01 -1.4202896270e-02 -4.1699934586e+03 -6.6467799727e+02 
   -2.8451217433e+01 -1.5342382749e+03  2.2972868801e+02 ] stress_264 gradient
 [ -5.4065146808e-01 -1.4005811894e-02 -4.1697450584e+03 -6.7656202756e+02 
   -2.7718137183e+01 -1.5337303745e+03  2.3023790144e+02 ] stress_265 gradient
 [ -5.2302014640e-01 -1.3600340369e-02 -4.1667446934e+03 -7.7896590478e+02 
   -2.1284835521e+01 -1.5286843834e+03  2.3529771112e+02 ] stress_266 gradient
 [ -4.6793701565e-01 -1.3059033921e-02 -4.1545035953e+03 -1.0855721684e+03 
   -1.7449071988e+00 -1.5113918966e+03  2.5263850374e+02 ] stress_267 gradient
 [ -3.6007156730e-01 -1.2450505072e-02 -4.1232675214e+03 -1.6602973332e+03 
    3.5345613869e+01 -1.4743100842e+03  2.8982465286e+02 ] stress_268 gradient
 [ -1.9969131740e-01 -1.1812096206e-02 -4.0621853143e+03 -2.4754402941e+03 
    8.8570559237e+01 -1.4138902458e+03  3.5041466649e+02 ] stress_269 gradient
 [ -1.8413072754e-03 -1.1146081423e-02 -3.9617918863e+03 -3.4292527812e+03 
    1.5156536632e+02 -1.3320222790e+03  4.3251415889e+02 ] stress_270 gradient
 [  2.1149923939e-01 -1.0433092687e-02 -3.8157225673e+03 -4.3966592310e+03 
    2.1622036046e+02 -1.2347303910e+03  5.3008200705e+02 ] stress_271 gradient
 [  4.1979200777e-01 -9.6494709104e-03 -3.6212186680e+03 -5.2743278883e+03 
    2.7566511682e+02 -1.1295894095e+03  6.3552310902e+02 ] stress_272 gradient
 [  6.0849130524e-01 -8.7794328456e-03 -3.3789310418e+03 -6.0000789384e+03 
    3.2563340747e+02 -1.0236139474e+03  7.4180146004e+02 ] stress_273 gradient
 [  7.7006399370e-01 -7.8183141954e-03 -3.0920385595e+03 -6.5521518933e+03 
    3.6449823680e+02 -9.2204147448e+02  8.4366489865e+02 ] stress_274 gradient
 [  9.0255105442e-01 -6.7714193756e-03 -2.7654467487e+03 -6.9372286235e+03 
    3.9252902923e+02 -8.2814434244e+02  9.3783111328e+02 ] stress_275 gradient
 [  1.0075356264e+00 -5.6510415080e-03 -2.4051516934e+03 -7.1775164268e+03 
    4.1105699743e+02 -7.4355113413e+02  1.0226672288e+03 ] stress_276 gradient
 [  1.0884261749e+00 -4.4731966481e-03 -2.0176649437e+03 -7.3010298492e+03 
    4.2183518255e+02 -6.6869722184e+02  1.0977363035e+03 ] stress_277 gradient
 [  1.1492321351e+00 -3.2555777584e-03 -1.6097323692e+03 -7.3355221625e+03 
    4.2663107018e+02 -6.0328228401e+02  1.1633393557e+03 ] stress_278 gradient
 [  1.1938720916e+00 -2.0161293470e-03 -1.1881056674e+03 -7.3055164043e+03 
    4.2702311855e+02 -5.4660165956e+02  1.2201830191e+03 ] stress_279 gradient
 [  1.2258338453e+00 -7.7230993929e-04 -7.5941469947e+02 -7.2312566163e+03 
    4.2432459237e+02 -4.9777520779e+02  1.2691499567e+03 ] stress_280 gradient
 [  1.2480568982e+00  4.5924842650e-04 -3.3009095286e+02 -7.1287271909e+03 
    4.1957950609e+02 -4.5588764127e+02  1.3111580697e+03 ] stress_281 gradient
 [  1.2629345997e+00  1.6628935200e-03  9.3689963752e+01 -7.0101588891e+03 
    4.1359192255e+02 -4.2006684413e+02  1.3470819602e+03 ] stress_282 gradient
 [  1.2723713488e+00  2.8239549046e-03  5.0603364949e+02 -6.8846959939e+03 
    4.0696720663e+02 -3.8952358986e+02  1.3777132633e+03 ] stress_283 gradient
 [  1.2778598061e+00  3.9288729187e-03  9.0140326530e+02 -6.7590349384e+03 
    4.0015210088e+02 -3.6356225798e+02  1.4037489951e+03 ] stress_284 gradient
 [  1.2805562015e+00  4.9650057895e-03  1.2745804909e+03 -6.6380163693e+03 
    3.9347262931e+02 -3.4158896049e+02  1.4257856454e+03 ] stress_285 gradient
 [  1.2813491173e+00  5.9208888171e-03  1.6207835710e+03 -6.5250636473e+03 
    3.8716174673e+02 -3.2309935224e+02  1.4443284372e+03 ] stress_286 gradient
 [  1.2809167571e+00  6.7860991306e-03  1.9356391129e+03 -6.4225708776e+03 
    3.8138469326e+02 -3.0767187585e+02  1.4597999855e+03 ] stress_287 gradient
 [  1.2797731369e+00  7.5512057860e-03  2.2151798451e+03 -6.3321960553e+03 
    3.7625743410e+02 -2.9496369851e+02  1.4725450870e+03 ] stress_288 gradient
 [  1.2783053013e+00  8.2081409751e-03  2.4559899076e+03 -6.2550362539e+03 
    3.7185885015e+02 -2.8469090386e+02  1.4828474804e+03 ] stress_289 gradient
 [  1.2768000310e+00  8.7499382951e-03  2.6551211018e+03 -6.1918227892e+03 
    3.6824241653e+02 -2.7663052360e+02  1.4909306451e+03 ] stress_290 gradient
 [  1.2754668291e+00  9.1708193133e-03  2.8101275309e+03 -6.1430322848e+03 
    3.6544378330e+02 -2.7061139528e+02  1.4969673783e+03 ] stress_291 gradient
 [  1.2744517129e+00  9.4664675181e-03  2.9191733970e+03 -6.1089421053e+03 
    3.6348477077e+02 -2.6650400428e+02  1.5010865798e+03 ] stress_292 gradient
 [  1.2738507870e+00  9.6337146499e-03  2.9809176650e+03 -6.0897284377e+03 
    3.6237951604e+02 -2.6422302333e+02  1.5033740496e+03 ] stress_293 gradient
 [  1.2738418114e+00  9.6361842832e-03  2.9818297565e+03 -6.0894450803e+03 
    3.6236322765e+02 -2.6418950190e+02  1.5034075714e+03 ] stress_294 gradient
 [  1.0339635413e+00  8.5372692602e-03  2.9130620178e+03 -4.1468626753e+03 
    2.7122791196e+02 -3.2273417182e+02  1.4448951167e+03 ] stress_295 gradient
 [  6.8243957147e-01  7.7502780893e-03  2.7401942063e+03 -1.4844246915e+03 
    1.4332753579e+02 -4.2404964715e+02  1.3436322786e+03 ] stress_296 gradient
 [  6.8243935255e-01  8.3787636119e-03  2.7401942063e+03 -1.4844247914e+03 
    1.4332753579e+02 -4.2405015505e+02  1.3436322786e+03 ] stress_297 gradient
 [  6.8246540363e-01  1.0530110067e-02  2.7402133610e+03 -1.4843176210e+03 
    1.4332692113e+02 -4.2401510992e+02  1.3436673967e+03 ] stress_298 gradient
 [  6.8248598178e-01  1.0627943190e-02  2.7402302743e+03 -1.4841601114e+03 
    1.4331893060e+02 -4.2396584357e+02  1.3437160833e+03 ] stress_299 gradient
 [  6.7524838104e-01  1.0438544721e-02  2.7390398279e+03 -1.4223227827e+03 
    1.4044121158e+02 -4.2538034635e+02  1.3423025770e+03 ] stress_300 gradient
 [  6.4346278957e-01  1.0153004190e-02  2.7320660781e+03 -1.1609501244e+03 
    1.2804738150e+02 -4.3226392125e+02  1.3354226087e+03 ] stress_301 gradient
 [  5.7669586252e-01  9.8132625923e-03  2.7131805287e+03 -6.2946996944e+02 
    1.0250103042e+02 -4.4805911757e+02  1.3196361941e+03 ] stress_302 gradient
 [  4.7358134159e-01  9.4419285287e-03  2.6760317549e+03  1.6702673778e+02 
    6.3797855730e+01 -4.7451463659e+02  1.2931946080e+03 ] stress_303 gradient
 [  3.4003829300e-01  9.0429478112e-03  2.6149815404e+03  1.1687737643e+03 
    1.4675537233e+01 -5.1153245352e+02  1.2561960219e+03 ] stress_304 gradient
 [  1.8600728040e-01  8.6090765219e-03  2.5257164018e+03  2.2905694327e+03 
   -4.0769444765e+01 -5.5757058258e+02  1.2101820433e+03 ] stress_305 gradient
 [  2.2079487481e-02  8.1282674328e-03  2.4053362310e+03  3.4484839276e+03 
   -9.8405676982e+01 -6.1034499540e+02  1.1574345551e+03 ] stress_306 gradient
 [ -1.4248841750e-01  7.5888643841e-03  2.2522896980e+03  4.5738706539e+03 
   -1.5479302975e+02 -6.6739186687e+02  1.1004166178e+03 ] stress_307 gradient
 [ -3.0064578853e-01  6.9823545243e-03  2.0662220328e+03  5.6182147736e+03 
   -2.0745720356e+02 -7.2643072393e+02  1.0414073208e+03 ] stress_308 gradient
 [ -4.4775247000e-01  6.3038673291e-03  1.8476406321e+03  6.5528918985e+03 
   -2.5490273928e+02 -7.8559503241e+02  9.8227271580e+02 ] stress_309 gradient
 [ -5.8117461097e-01  5.5522550555e-03  1.5977771861e+03  7.3648836597e+03 
   -2.9641470951e+02 -8.4345637305e+02  9.2443987743e+02 ] stress_310 gradient
 [ -6.9984869283e-01  4.7292780175e-03  1.3183550707e+03  8.0526444062e+03 
   -3.3185854548e+02 -8.9901275984e+02  8.6891091059e+02 ] stress_311 gradient
 [ -8.0380880091e-01  3.8388073780e-03  1.0114280810e+03  8.6220878973e+03 
   -3.6148279376e+02 -9.5162230817e+02  8.1632720074e+02 ] stress_312 gradient
 [ -8.9376674243e-01  2.8863529652e-03  6.7934250898e+02  9.0833147198e+03 
   -3.8575476740e+02 -1.0009147078e+03  7.6705892529e+02 ] stress_313 gradient
 [ -9.7084237417e-01  1.8782969482e-03  3.2457957128e+02  9.4485226656e+03 
   -4.0525517331e+02 -1.0467336931e+03  7.2126234413e+02 ] stress_314 gradient
 [ -1.0363383044e+00  8.2160300532e-04 -5.0266160111e+01  9.7304217832e+03 
   -4.2059722350e+02 -1.0890692126e+03  6.7894744198e+02 ] stress_315 gradient
 [ -1.0916003119e+00 -2.7642865272e-04 -4.4251657004e+02  9.9413097657e+03 
   -4.3237894796e+02 -1.1280090772e+03  6.4002653517e+02 ] stress_316 gradient
 [ -1.1379358868e+00 -1.4084283092e-03 -8.4946942064e+02  1.0092572115e+04 
   -4.4115700004e+02 -1.1637054895e+03  6.0434747424e+02 ] stress_317 gradient
 [ -1.1765607603e+00 -2.5669928691e-03 -1.2683910664e+03  1.0194416409e+04 
   -4.4743239646e+02 -1.1963458140e+03  5.7172297559e+02 ] stress_318 gradient
 [ -1.2085766520e+00 -3.7447930718e-03 -1.6965450293e+03  1.0255807477e+04 
   -4.5164658347e+02 -1.2261356995e+03  5.4194755804e+02 ] stress_319 gradient
 [ -1.2349644176e+00 -4.9346547599e-03 -2.1312185302e+03  1.0284497486e+04 
   -4.5418204130e+02 -1.2532850106e+03  5.1481159006e+02 ] stress_320 gradient
 [ -1.2565833046e+00 -6.1294903405e-03 -2.5696995441e+03  1.0287109728e+04 
   -4.5536638182e+02 -1.2779989389e+03  4.9010915149e+02 ] stress_321 gradient
 [ -1.2741813510e+00 -7.3224337236e-03 -3.0093284157e+03  1.0269255816e+04 
   -4.5547814685e+02 -1.3004775974e+03  4.6764150542e+02 ] stress_322 gradient
 [ -1.2884019525e+00 -8.5067247337e-03 -3.4474605688e+03  1.0235659040e+04 
   -4.5475152050e+02 -1.3209033221e+03  4.4722587776e+02 ] stress_323 gradient
 [ -1.2997987492e+00 -9.6758328456e-03 -3.8815176541e+03  1.0190272220e+04 
   -4.5338360258e+02 -1.3394482915e+03  4.2868987022e+02 ] stress_324 gradient
 [ -1.3088443819e+00 -1.0823473988e-02 -4.3089981447e+03  1.0136387176e+04 
   -4.5153840394e+02 -1.3562704626e+03  4.1187585012e+02 ] stress_325 gradient
 [ -1.3159410003e+00 -1.1943445563e-02 -4.7274206874e+03  1.0076743295e+04 
   -4.4935289051e+02 -1.3715110316e+03  3.9664254664e+02 ] stress_326 gradient
 [ -1.3214318657e+00 -1.3029929419e-02 -5.1344408648e+03  1.0013600944e+04 
   -4.4694036398e+02 -1.3853005290e+03  3.8285986294e+02 ] stress_327 gradient
 [ -1.3256063858e+00 -1.4077128793e-02 -5.5277193542e+03  9.9488381526e+03 
   -4.4439517409e+02 -1.3977532324e+03  3.7041326591e+02 ] stress_328 gradient
 [ -1.3287114985e+00 -1.5079732700e-02 -5.9050996176e+03  9.8839895650e+03 
   -4.4179476756e+02 -1.4089742773e+03  3.5919740102e+02 ] stress_329 gradient
 [ -1.3309553933e+00 -1.6032598192e-02 -6.2644895098e+03  9.8203209506e+03 
   -4.3920296623e+02 -1.4190561013e+03  3.4912088125e+02 ] stress_330 gradient
 [ -1.3325134226e+00 -1.6930795169e-02 -6.6038820629e+03  9.7588748488e+03 
   -4.3667273298e+02 -1.4280794609e+03  3.4010149815e+02 ] stress_331 gradient
 [ -1.3335346684e+00 -1.7769838063e-02 -6.9214441281e+03  9.7004946399e+03 
   -4.3424688889e+02 -1.4361185093e+03  3.3206662096e+02 ] stress_332 gradient
 [ -1.3341432564e+00 -1.8545415454e-02 -7.2154155074e+03  9.6458770813e+03 
   -4.3196108402e+02 -1.4432357184e+03  3.2495279753e+02 ] stress_333 gradient
 [ -1.3344447045e+00 -1.9253660967e-02 -7.4842134900e+03  9.5955810973e+03 
   -4.2984400234e+02 -1.4494879730e+03  3.1870375899e+02 ] stress_334 gradient
 [ -1.3345257037e+00 -1.9891088090e-02 -7.7264079916e+03  9.5500558446e+03 
   -4.2791869348e+02 -1.4549235237e+03  3.1327081879e+02 ] stress_335 gradient
 [ -1.3344591530e+00 -2.0454311133e-02 -7.9406176298e+03  9.5096800655e+03 
   -4.2620492887e+02 -1.4595830025e+03  3.0861367084e+02 ] stress_336 gradient
 [ -1.3343039412e+00 -2.0940685808e-02 -8.1257540488e+03  9.4747322230e+03 
   -4.2471684562e+02 -1.4635019625e+03  3.0469639883e+02 ] stress_337 gradient
 [ -1.3341093244e+00 -2.1347704800e-02 -8.2807914516e+03  9.4454467339e+03 
   -4.2346704419e+02 -1.4667108775e+03  3.0148907252e+02 ] stress_338 gradient
 [ -1.3339129562e+00 -2.1673317550e-02 -8.4048894749e+03  9.4220019824e+03 
   -4.2246453953e+02 -1.4692320954e+03  2.9896934397e+02 ] stress_339 gradient
 [ -1.3337439526e+00 -2.1915966405e-02 -8.4974074542e+03  9.4045251147e+03 
   -4.2171629775e+02 -1.4710854242e+03  2.9711686061e+02 ] stress_340 gradient
 [ -1.3336235485e+00 -2.2074409422e-02 -8.5578371776e+03  9.3931119151e+03 
   -4.2122713367e+02 -1.4722835614e+03  2.9591885221e+02 ] stress_341 gradient
 [ -1.3335650978e+00 -2.2147828819e-02 -8.5858438448e+03  9.3878232100e+03 
   -4.2100032544e+02 -1.4728361571e+03  2.9536693827e+02 ] stress_342 gradient



---------------------
Begin Evaluation   21
---------------------
Parameters for evaluation 21:
                      3.3002475697e+02 fy
                      1.8176141376e+05 E
                      4.5305570688e-01 b
                      1.0022667449e+00 cR1
                      9.6033096983e-01 cR2
                      1.0000000000e-06 a1
                      2.5075739564e-01 a3

blocking fork: workflow_driver1 paramsDakota.in results.out

Active response data for evaluation 21:
Active set vector = { 1 1 1 1 1 1 1 1 1 1 1 1 1 1 1 1 1 1 1 1 1 1 1 1 1 1 1 1 1 1 1 1 1 1 1 1 1 1 1 1 1 1 1 1 1 1 1 1 1 1 1 1 1 1 1 1 1 1 1 1 1 1 1 1 1 1 1 1 1 1 1 1 1 1 1 1 1 1 1 1 1 1 1 1 1 1 1 1 1 1 1 1 1 1 1 1 1 1 1 1 1 1 1 1 1 1 1 1 1 1 1 1 1 1 1 1 1 1 1 1 1 1 1 1 1 1 1 1 1 1 1 1 1 1 1 1 1 1 1 1 1 1 1 1 1 1 1 1 1 1 1 1 1 1 1 1 1 1 1 1 1 1 1 1 1 1 1 1 1 1 1 1 1 1 1 1 1 1 1 1 1 1 1 1 1 1 1 1 1 1 1 1 1 1 1 1 1 1 1 1 1 1 1 1 1 1 1 1 1 1 1 1 1 1 1 1 1 1 1 1 1 1 1 1 1 1 1 1 1 1 1 1 1 1 1 1 1 1 1 1 1 1 1 1 1 1 1 1 1 1 1 1 1 1 1 1 1 1 1 1 1 1 1 1 1 1 1 1 1 1 1 1 1 1 1 1 1 1 1 1 1 1 1 1 1 1 1 1 1 1 1 1 1 1 1 1 1 1 1 1 1 1 1 1 1 1 1 1 1 1 1 1 1 1 1 1 1 1 1 1 1 1 1 1 1 1 1 1 1 1 1 1 1 1 1 1 1 1 1 1 1 1 }
                      2.1181088320e+00 stress_1
                     -2.2012977104e+02 stress_2
                     -4.6485499238e+02 stress_3
                     -4.9599935825e+02 stress_4
                     -2.0749740448e+02 stress_5
                      2.1278521198e+02 stress_6
                      3.9185895255e+02 stress_7
                      3.9320477165e+02 stress_8
                      1.7458967288e+02 stress_9
                     -1.9735810201e+02 stress_10
                     -4.9574859021e+02 stress_11
                     -6.7736726973e+02 stress_12
                     -7.9564394955e+02 stress_13
                     -8.0648739638e+02 stress_14
                     -5.1377288463e+02 stress_15
                     -6.6066134942e+02 stress_16
                     -8.1547242433e+02 stress_17
                     -6.4470222996e+02 stress_18
                     -3.2824110182e+02 stress_19
                      9.2262529592e+00 stress_20
                      2.4444370453e+02 stress_21
                      4.2725159434e+02 stress_22
                      5.5428109301e+02 stress_23
                      6.0762427044e+02 stress_24
                      3.1486619288e+02 stress_25
                      4.2690358296e+02 stress_26
                      5.5335047467e+02 stress_27
                      5.8747213377e+02 stress_28
                      4.7993188681e+02 stress_29
                      2.8913271896e+02 stress_30
                      3.7224342945e+01 stress_31
                     -2.1115434747e+02 stress_32
                     -4.2348211573e+02 stress_33
                     -6.2478338500e+02 stress_34
                     -8.2619123622e+02 stress_35
                     -1.0250024032e+03 stress_36
                     -1.2145232783e+03 stress_37
                     -1.3873683354e+03 stress_38
                     -1.5365395206e+03 stress_39
                     -1.6558337729e+03 stress_40
                     -1.7403668533e+03 stress_41
                     -1.7866123460e+03 stress_42
                     -1.7730884916e+03 stress_43
                     -1.4404490273e+03 stress_44
                     -1.1891620655e+03 stress_45
                     -1.3695006493e+03 stress_46
                     -1.6911323593e+03 stress_47
                     -1.4343126321e+03 stress_48
                     -1.5243328803e+03 stress_49
                     -1.6645287738e+03 stress_50
                     -1.7928596412e+03 stress_51
                     -1.6454169127e+03 stress_52
                     -1.3545843954e+03 stress_53
                     -1.0422304104e+03 stress_54
                     -7.8360109461e+02 stress_55
                     -6.0763909970e+02 stress_56
                     -5.3294435557e+02 stress_57
                     -6.0849125645e+02 stress_58
                     -8.9110713110e+02 stress_59
                     -1.2638958563e+03 stress_60
                     -1.5185580080e+03 stress_61
                     -1.6653707409e+03 stress_62
                     -1.7123230213e+03 stress_63
                     -1.4798427724e+03 stress_64
                     -1.1310509522e+03 stress_65
                     -1.0271898339e+03 stress_66
                     -1.2663156689e+03 stress_67
                     -1.6433752828e+03 stress_68
                     -1.7849337545e+03 stress_69
                     -1.7876045707e+03 stress_70
                     -1.7044562960e+03 stress_71
                     -1.5565605898e+03 stress_72
                     -1.3619502152e+03 stress_73
                     -1.1447277818e+03 stress_74
                     -9.2241943961e+02 stress_75
                     -7.0136041487e+02 stress_76
                     -4.8192071634e+02 stress_77
                     -2.6395280054e+02 stress_78
                     -4.8669336121e+01 stress_79
                      1.6127924424e+02 stress_80
                      3.6228561864e+02 stress_81
                      5.5026018916e+02 stress_82
                      7.2099968797e+02 stress_83
                      8.7050388257e+02 stress_84
                      9.9511379050e+02 stress_85
                      1.0917501732e+03 stress_86
                      1.1579998605e+03 stress_87
                      1.1921395957e+03 stress_88
                      1.1283824357e+03 stress_89
                      7.7818457265e+02 stress_90
                      5.9282371956e+02 stress_91
                      8.4683462786e+02 stress_92
                      1.1918543008e+03 stress_93
                      1.1994143432e+03 stress_94
                      1.1470922738e+03 stress_95
                      1.0553970501e+03 stress_96
                      9.3135969157e+02 stress_97
                      7.8408563491e+02 stress_98
                      6.2200593269e+02 stress_99
                      4.5093777382e+02 stress_100
                      2.7383651069e+02 stress_101
                      9.1810528296e+01 stress_102
                     -9.4882631470e+01 stress_103
                     -2.8616238806e+02 stress_104
                     -4.8171200717e+02 stress_105
                     -6.8093561078e+02 stress_106
                     -8.8292190911e+02 stress_107
                     -1.0864936139e+03 stress_108
                     -1.2902690527e+03 stress_109
                     -1.4927274992e+03 stress_110
                     -1.6922469803e+03 stress_111
                     -1.8871320329e+03 stress_112
                     -2.0756910708e+03 stress_113
                     -2.2562449860e+03 stress_114
                     -2.4271460695e+03 stress_115
                     -2.5868194008e+03 stress_116
                     -2.7337613462e+03 stress_117
                     -2.8666098768e+03 stress_118
                     -2.9841118061e+03 stress_119
                     -3.0851270106e+03 stress_120
                     -3.1687183828e+03 stress_121
                     -3.2340778168e+03 stress_122
                     -3.2805712906e+03 stress_123
                     -3.3077709117e+03 stress_124
                     -3.3150779171e+03 stress_125
                     -3.2326414191e+03 stress_126
                     -3.0551177679e+03 stress_127
                     -2.8290648910e+03 stress_128
                     -2.5864417265e+03 stress_129
                     -2.3518211398e+03 stress_130
                     -2.1472249901e+03 stress_131
                     -1.9920933408e+03 stress_132
                     -1.9016503682e+03 stress_133
                     -1.8961510621e+03 stress_134
                     -2.2518238981e+03 stress_135
                     -2.2712150949e+03 stress_136
                     -2.1179660485e+03 stress_137
                     -2.1495719697e+03 stress_138
                     -2.3002333787e+03 stress_139
                     -2.5447185109e+03 stress_140
                     -2.7607584964e+03 stress_141
                     -2.9571683218e+03 stress_142
                     -3.1322488164e+03 stress_143
                     -3.2638100336e+03 stress_144
                     -3.3323240909e+03 stress_145
                     -3.3149246042e+03 stress_146
                     -3.1366153183e+03 stress_147
                     -2.8855997048e+03 stress_148
                     -2.6293101499e+03 stress_149
                     -2.4172986995e+03 stress_150
                     -2.2879051521e+03 stress_151
                     -2.2682084325e+03 stress_152
                     -2.4578686327e+03 stress_153
                     -2.7810663989e+03 stress_154
                     -3.0188941765e+03 stress_155
                     -3.1802031724e+03 stress_156
                     -3.2588657071e+03 stress_157
                     -3.1603483851e+03 stress_158
                     -2.8687544468e+03 stress_159
                     -2.7110098980e+03 stress_160
                     -2.8569525009e+03 stress_161
                     -3.1648456095e+03 stress_162
                     -3.3151718346e+03 stress_163
                     -3.3378746590e+03 stress_164
                     -3.3028805280e+03 stress_165
                     -3.2389169727e+03 stress_166
                     -3.1516448411e+03 stress_167
                     -3.0456660988e+03 stress_168
                     -2.9244359699e+03 stress_169
                     -2.7902923079e+03 stress_170
                     -2.6448566494e+03 stress_171
                     -2.4892814722e+03 stress_172
                     -2.3244538391e+03 stress_173
                     -2.1511928597e+03 stress_174
                     -1.9702531856e+03 stress_175
                     -1.7824307513e+03 stress_176
                     -1.5885837034e+03 stress_177
                     -1.3896169109e+03 stress_178
                     -1.1865207585e+03 stress_179
                     -9.8034095137e+02 stress_180
                     -7.7216689016e+02 stress_181
                     -5.6315070465e+02 stress_182
                     -3.5446566293e+02 stress_183
                     -1.4732061215e+02 stress_184
                      5.7072569311e+01 stress_185
                      2.5749311711e+02 stress_186
                      4.5272918434e+02 stress_187
                      6.4159387512e+02 stress_188
                      8.2291749627e+02 stress_189
                      9.9557796992e+02 stress_190
                      1.1585011651e+03 stress_191
                      1.3106462968e+03 stress_192
                      1.4510754477e+03 stress_193
                      1.5788942698e+03 stress_194
                      1.6932733536e+03 stress_195
                      1.7935057623e+03 stress_196
                      1.8789301010e+03 stress_197
                      1.9490163900e+03 stress_198
                      2.0033165999e+03 stress_199
                      2.0414654100e+03 stress_200
                      2.0632317044e+03 stress_201
                      2.0642978487e+03 stress_202
                      1.8288501012e+03 stress_203
                      1.6011634522e+03 stress_204
                      1.6964229733e+03 stress_205
                      2.0934013592e+03 stress_206
                      2.1144397253e+03 stress_207
                      2.0637175672e+03 stress_208
                      1.9826646095e+03 stress_209
                      1.8777369261e+03 stress_210
                      1.7531273823e+03 stress_211
                      1.6116303499e+03 stress_212
                      1.4552321085e+03 stress_213
                      1.2856319733e+03 stress_214
                      1.1044056277e+03 stress_215
                      9.1314479819e+02 stress_216
                      7.1354730348e+02 stress_217
                      5.0739830594e+02 stress_218
                      2.9658860528e+02 stress_219
                      8.3112080389e+01 stress_220
                     -1.3097678984e+02 stress_221
                     -3.4356967126e+02 stress_222
                     -5.5254187493e+02 stress_223
                     -7.5576687894e+02 stress_224
                     -9.5116284138e+02 stress_225
                     -1.1367015266e+03 stress_226
                     -1.3104370576e+03 stress_227
                     -1.4705594797e+03 stress_228
                     -1.6153443934e+03 stress_229
                     -1.7432723325e+03 stress_230
                     -1.8529806539e+03 stress_231
                     -1.9432643443e+03 stress_232
                     -2.0131877282e+03 stress_233
                     -2.0619921421e+03 stress_234
                     -2.0891311821e+03 stress_235
                     -2.0835296325e+03 stress_236
                     -1.8263228487e+03 stress_237
                     -1.6229844734e+03 stress_238
                     -1.8175988505e+03 stress_239
                     -2.0837898609e+03 stress_240
                     -1.8382469932e+03 stress_241
                     -1.7092168748e+03 stress_242
                     -2.0032825437e+03 stress_243
                     -2.1258359887e+03 stress_244
                     -2.2628063983e+03 stress_245
                     -2.1176823818e+03 stress_246
                     -1.8741036985e+03 stress_247
                     -1.6077169766e+03 stress_248
                     -1.3711240039e+03 stress_249
                     -1.2052657126e+03 stress_250
                     -1.1390447374e+03 stress_251
                     -1.2306490397e+03 stress_252
                     -1.4954158535e+03 stress_253
                     -1.7866208921e+03 stress_254
                     -2.0212607172e+03 stress_255
                     -2.1704491967e+03 stress_256
                     -2.2107775554e+03 stress_257
                     -1.9970817955e+03 stress_258
                     -1.7064607762e+03 stress_259
                     -1.5830982825e+03 stress_260
                     -1.7672767531e+03 stress_261
                     -2.0717634743e+03 stress_262
                     -2.2687380242e+03 stress_263
                     -2.3116563743e+03 stress_264
                     -2.2761356187e+03 stress_265
                     -2.2019534128e+03 stress_266
                     -2.0972585933e+03 stress_267
                     -1.9690875760e+03 stress_268
                     -1.8225546273e+03 stress_269
                     -1.6611937697e+03 stress_270
                     -1.4874366562e+03 stress_271
                     -1.3030273662e+03 stress_272
                     -1.1095026065e+03 stress_273
                     -9.0827674371e+02 stress_274
                     -7.0079754200e+02 stress_275
                     -4.8863113950e+02 stress_276
                     -2.7343031817e+02 stress_277
                     -5.6960280926e+01 stress_278
                      1.5893105513e+02 stress_279
                      3.7233656703e+02 stress_280
                      5.8131474837e+02 stress_281
                      7.8391950467e+02 stress_282
                      9.7822076306e+02 stress_283
                      1.1623512562e+03 stress_284
                      1.3344987358e+03 stress_285
                      1.4929714392e+03 stress_286
                      1.6361922748e+03 stress_287
                      1.7627061512e+03 stress_288
                      1.8712514205e+03 stress_289
                      1.9607259874e+03 stress_290
                      2.0302076704e+03 stress_291
                      2.0790042353e+03 stress_292
                      2.1066046013e+03 stress_293
                      2.1070121539e+03 stress_294
                      1.8613623548e+03 stress_295
                      1.6360675129e+03 stress_296
                      1.7503020168e+03 stress_297
                      2.1388778051e+03 stress_298
                      2.1551287648e+03 stress_299
                      2.1201519530e+03 stress_300
                      2.0632444058e+03 stress_301
                      1.9883621909e+03 stress_302
                      1.8983698048e+03 stress_303
                      1.7951535140e+03 stress_304
                      1.6801008431e+03 stress_305
                      1.5541734689e+03 stress_306
                      1.4181209217e+03 stress_307
                      1.2726186480e+03 stress_308
                      1.1182515700e+03 stress_309
                      9.5562695329e+02 stress_310
                      7.8536162484e+02 stress_311
                      6.0809067622e+02 stress_312
                      4.2451537903e+02 stress_313
                      2.3535933765e+02 stress_314
                      4.1388999777e+01 stress_315
                     -1.5658411767e+02 stress_316
                     -3.5772285019e+02 stress_317
                     -5.6115438154e+02 stress_318
                     -7.6598160624e+02 stress_319
                     -9.7129490692e+02 stress_320
                     -1.1761611007e+03 stress_321
                     -1.3796488525e+03 stress_322
                     -1.5808128329e+03 stress_323
                     -1.7787179201e+03 stress_324
                     -1.9724460032e+03 stress_325
                     -2.1610712073e+03 stress_326
                     -2.3437140732e+03 stress_327
                     -2.5194830729e+03 stress_328
                     -2.6875554176e+03 stress_329
                     -2.8471250287e+03 stress_330
                     -2.9974124262e+03 stress_331
                     -3.1377046794e+03 stress_332
                     -3.2673115818e+03 stress_333
                     -3.3856116035e+03 stress_334
                     -3.4920424199e+03 stress_335
                     -3.5860545139e+03 stress_336
                     -3.6672195178e+03 stress_337
                     -3.7351286265e+03 stress_338
                     -3.7894474458e+03 stress_339
                     -3.8299217147e+03 stress_340
                     -3.8563483663e+03 stress_341
                     -3.8685934314e+03 stress_342



---------------------
Begin Evaluation   22
---------------------
Parameters for evaluation 22:
                      3.0000000000e+02 fy
                      1.5494203371e+05 E
                      3.6118500943e-01 b
                      9.8982446159e-01 cR1
                      1.3010428505e+00 cR2
                      1.0000000000e-06 a1
                      2.0260550504e-01 a3

blocking fork: workflow_driver1 paramsDakota.in results.out

Active response data for evaluation 22:
Active set vector = { 1 1 1 1 1 1 1 1 1 1 1 1 1 1 1 1 1 1 1 1 1 1 1 1 1 1 1 1 1 1 1 1 1 1 1 1 1 1 1 1 1 1 1 1 1 1 1 1 1 1 1 1 1 1 1 1 1 1 1 1 1 1 1 1 1 1 1 1 1 1 1 1 1 1 1 1 1 1 1 1 1 1 1 1 1 1 1 1 1 1 1 1 1 1 1 1 1 1 1 1 1 1 1 1 1 1 1 1 1 1 1 1 1 1 1 1 1 1 1 1 1 1 1 1 1 1 1 1 1 1 1 1 1 1 1 1 1 1 1 1 1 1 1 1 1 1 1 1 1 1 1 1 1 1 1 1 1 1 1 1 1 1 1 1 1 1 1 1 1 1 1 1 1 1 1 1 1 1 1 1 1 1 1 1 1 1 1 1 1 1 1 1 1 1 1 1 1 1 1 1 1 1 1 1 1 1 1 1 1 1 1 1 1 1 1 1 1 1 1 1 1 1 1 1 1 1 1 1 1 1 1 1 1 1 1 1 1 1 1 1 1 1 1 1 1 1 1 1 1 1 1 1 1 1 1 1 1 1 1 1 1 1 1 1 1 1 1 1 1 1 1 1 1 1 1 1 1 1 1 1 1 1 1 1 1 1 1 1 1 1 1 1 1 1 1 1 1 1 1 1 1 1 1 1 1 1 1 1 1 1 1 1 1 1 1 1 1 1 1 1 1 1 1 1 1 1 1 1 1 1 1 1 1 1 1 1 1 1 1 1 1 1 }
                      1.8055762400e+00 stress_1
                     -1.8765016902e+02 stress_2
                     -3.8488520972e+02 stress_3
                     -4.0605061447e+02 stress_4
                     -1.6011772824e+02 stress_5
                      2.0206598828e+02 stress_6
                      3.4471569511e+02 stress_7
                      3.4564220958e+02 stress_8
                      1.5928434318e+02 stress_9
                     -1.5857534394e+02 stress_10
                     -4.0588839950e+02 stress_11
                     -5.2932166805e+02 stress_12
                     -6.0968858470e+02 stress_13
                     -6.1705725269e+02 stress_14
                     -3.6744725928e+02 stress_15
                     -4.9266193989e+02 stress_16
                     -6.2265549283e+02 stress_17
                     -4.7707902402e+02 stress_18
                     -2.0553837047e+02 stress_19
                      8.5939599473e+01 stress_20
                      2.5118958273e+02 stress_21
                      3.7421785536e+02 stress_22
                      4.6014799053e+02 stress_23
                      4.9629906129e+02 stress_24
                      2.4624832476e+02 stress_25
                      3.4175429994e+02 stress_26
                      4.4953668068e+02 stress_27
                      4.7849975840e+02 stress_28
                      3.8682281709e+02 stress_29
                      2.2360104467e+02 stress_30
                      2.0095700599e+00 stress_31
                     -2.1086605789e+02 stress_32
                     -3.6145591968e+02 stress_33
                     -4.9620696009e+02 stress_34
                     -6.3176469170e+02 stress_35
                     -7.6626054067e+02 stress_36
                     -8.9476614803e+02 stress_37
                     -1.0120834477e+03 stress_38
                     -1.1133805272e+03 stress_39
                     -1.1944085359e+03 stress_40
                     -1.2518328831e+03 stress_41
                     -1.2832499345e+03 stress_42
                     -1.2717196457e+03 stress_43
                     -9.7893233429e+02 stress_44
                     -7.4994936549e+02 stress_45
                     -9.0367851295e+02 stress_46
                     -1.1835209856e+03 stress_47
                     -9.6054843731e+02 stress_48
                     -1.0372859586e+03 stress_49
                     -1.1570560138e+03 stress_50
                     -1.2871591830e+03 stress_51
                     -1.1603030525e+03 stress_52
                     -8.9850862706e+02 stress_53
                     -6.2086246027e+02 stress_54
                     -4.1776111029e+02 stress_55
                     -2.9200163813e+02 stress_56
                     -2.4042539399e+02 stress_57
                     -3.0482517543e+02 stress_58
                     -5.4609590634e+02 stress_59
                     -8.8195568637e+02 stress_60
                     -1.0999776774e+03 stress_61
                     -1.2018017458e+03 stress_62
                     -1.2336293462e+03 stress_63
                     -1.0322915320e+03 stress_64
                     -7.1602959887e+02 stress_65
                     -6.2410439868e+02 stress_66
                     -8.2794813061e+02 stress_67
                     -1.1687639735e+03 stress_68
                     -1.2818796930e+03 stress_69
                     -1.2837098196e+03 stress_70
                     -1.2125720616e+03 stress_71
                     -1.0831658328e+03 stress_72
                     -9.0668607764e+02 stress_73
                     -7.1010972378e+02 stress_74
                     -5.2416461830e+02 stress_75
                     -3.5839749891e+02 stress_76
                     -2.0575558025e+02 stress_77
                     -5.9047964429e+01 stress_78
                      8.4463529776e+01 stress_79
                      2.2433957528e+02 stress_80
                      3.5854293340e+02 stress_81
                      4.8436060375e+02 stress_82
                      5.9889243621e+02 stress_83
                      6.9935263044e+02 stress_84
                      7.8319297184e+02 stress_85
                      8.4827204012e+02 stress_86
                      8.9291488631e+02 stress_87
                      9.1592836438e+02 stress_88
                      8.6100571401e+02 stress_89
                      5.3795890137e+02 stress_90
                      3.6746672890e+02 stress_91
                      5.8399769376e+02 stress_92
                      8.9201776917e+02 stress_93
                      9.0032387577e+02 stress_94
                      8.5545765914e+02 stress_95
                      7.7500360970e+02 stress_96
                      6.6261343258e+02 stress_97
                      5.2662271670e+02 stress_98
                      3.7952949498e+02 stress_99
                      2.3291502682e+02 stress_100
                      9.2400231380e+01 stress_101
                     -4.2132968626e+01 stress_102
                     -1.7330558419e+02 stress_103
                     -3.0372544877e+02 stress_104
                     -4.3503696607e+02 stress_105
                     -5.6795576974e+02 stress_106
                     -7.0248028926e+02 stress_107
                     -8.3812717659e+02 stress_108
                     -9.7410555545e+02 stress_109
                     -1.1094396236e+03 stress_110
                     -1.2430385082e+03 stress_111
                     -1.3737392330e+03 stress_112
                     -1.5003716948e+03 stress_113
                     -1.6217714081e+03 stress_114
                     -1.7367957134e+03 stress_115
                     -1.8443533024e+03 stress_116
                     -1.9434039317e+03 stress_117
                     -2.0330060472e+03 stress_118
                     -2.1122947059e+03 stress_119
                     -2.1804842656e+03 stress_120
                     -2.2369289466e+03 stress_121
                     -2.2810727220e+03 stress_122
                     -2.3124796084e+03 stress_123
                     -2.3308552106e+03 stress_124
                     -2.3357919391e+03 stress_125
                     -2.2603476633e+03 stress_126
                     -2.0852811313e+03 stress_127
                     -1.8650644575e+03 stress_128
                     -1.6464490925e+03 stress_129
                     -1.4521469840e+03 stress_130
                     -1.2929119564e+03 stress_131
                     -1.1766979934e+03 stress_132
                     -1.1103120309e+03 stress_133
                     -1.1063032668e+03 stress_134
                     -1.4144723771e+03 stress_135
                     -1.4322284041e+03 stress_136
                     -1.2954838549e+03 stress_137
                     -1.3224268797e+03 stress_138
                     -1.4519197035e+03 stress_139
                     -1.6937065653e+03 stress_140
                     -1.9270897793e+03 stress_141
                     -2.0769300709e+03 stress_142
                     -2.1975767834e+03 stress_143
                     -2.2871734403e+03 stress_144
                     -2.3337530800e+03 stress_145
                     -2.3185694348e+03 stress_146
                     -2.1483256750e+03 stress_147
                     -1.9030366121e+03 stress_148
                     -1.6704843683e+03 stress_149
                     -1.4934401288e+03 stress_150
                     -1.3908506243e+03 stress_151
                     -1.3755345582e+03 stress_152
                     -1.5373102111e+03 stress_153
                     -1.8376435096e+03 stress_154
                     -2.1061770893e+03 stress_155
                     -2.2291114760e+03 stress_156
                     -2.2834306834e+03 stress_157
                     -2.1933235795e+03 stress_158
                     -1.9082688019e+03 stress_159
                     -1.7597188906e+03 stress_160
                     -1.8841317635e+03 stress_161
                     -2.1985938481e+03 stress_162
                     -2.3218051329e+03 stress_163
                     -2.3372978563e+03 stress_164
                     -2.3062952569e+03 stress_165
                     -2.2463580880e+03 stress_166
                     -2.1611977729e+03 stress_167
                     -2.0563945130e+03 stress_168
                     -1.9383076893e+03 stress_169
                     -1.8124468102e+03 stress_170
                     -1.6826829864e+03 stress_171
                     -1.5511442730e+03 stress_172
                     -1.4186477034e+03 stress_173
                     -1.2852950359e+03 stress_174
                     -1.1508456876e+03 stress_175
                     -1.0150367267e+03 stress_176
                     -8.7771740644e+02 stress_177
                     -7.3888398585e+02 stress_178
                     -5.9871266151e+02 stress_179
                     -4.5752570289e+02 stress_180
                     -3.1576538352e+02 stress_181
                     -1.7398855919e+02 stress_182
                     -3.2822238233e+01 stress_183
                      1.0703973744e+02 stress_184
                      2.4486909474e+02 stress_185
                      3.7990717978e+02 stress_186
                      5.1138309477e+02 stress_187
                      6.3852913540e+02 stress_188
                      7.6057908612e+02 stress_189
                      8.7679134786e+02 stress_190
                      9.8645116593e+02 stress_191
                      1.0888623225e+03 stress_192
                      1.1833950854e+03 stress_193
                      1.2694471741e+03 stress_194
                      1.3464588080e+03 stress_195
                      1.4139519563e+03 stress_196
                      1.4714789289e+03 stress_197
                      1.5186804961e+03 stress_198
                      1.5552528032e+03 stress_199
                      1.5809480414e+03 stress_200
                      1.5956092504e+03 stress_201
                      1.5963273861e+03 stress_202
                      1.3511991451e+03 stress_203
                      1.1212900702e+03 stress_204
                      1.2024937956e+03 stress_205
                      1.5406176501e+03 stress_206
                      1.5582548038e+03 stress_207
                      1.5107119190e+03 stress_208
                      1.4289047812e+03 stress_209
                      1.3211698870e+03 stress_210
                      1.1963880125e+03 stress_211
                      1.0616533633e+03 stress_212
                      9.2141707033e+02 stress_213
                      7.7802667385e+02 stress_214
                      6.3249323845e+02 stress_215
                      4.8522475749e+02 stress_216
                      3.3650379292e+02 stress_217
                      1.8668843569e+02 stress_218
                      3.6318258619e+01 stress_219
                     -1.1386375861e+02 stress_220
                     -2.6294805441e+02 stress_221
                     -4.0988101475e+02 stress_222
                     -5.5351114733e+02 stress_223
                     -6.9261737067e+02 stress_224
                     -8.2595619468e+02 stress_225
                     -9.5227997373e+02 stress_226
                     -1.0703660607e+03 stress_227
                     -1.1790605056e+03 stress_228
                     -1.2772494300e+03 stress_229
                     -1.3639442769e+03 stress_230
                     -1.4382523205e+03 stress_231
                     -1.4993796540e+03 stress_232
                     -1.5467086038e+03 stress_233
                     -1.5797365016e+03 stress_234
                     -1.5981004746e+03 stress_235
                     -1.5932615940e+03 stress_236
                     -1.3347543347e+03 stress_237
                     -1.1250104696e+03 stress_238
                     -1.2913641334e+03 stress_239
                     -1.5139437698e+03 stress_240
                     -1.2764111386e+03 stress_241
                     -1.1472776587e+03 stress_242
                     -1.4023579303e+03 stress_243
                     -1.5090891841e+03 stress_244
                     -1.6176314484e+03 stress_245
                     -1.4826801727e+03 stress_246
                     -1.2426567900e+03 stress_247
                     -9.9387667283e+02 stress_248
                     -7.9178844137e+02 stress_249
                     -6.5897538194e+02 stress_250
                     -6.0756517672e+02 stress_251
                     -6.8618334717e+02 stress_252
                     -9.3031663255e+02 stress_253
                     -1.2184330126e+03 stress_254
                     -1.4245846454e+03 stress_255
                     -1.5398207927e+03 stress_256
                     -1.5695555090e+03 stress_257
                     -1.3691516990e+03 stress_258
                     -1.0881343636e+03 stress_259
                     -9.7508216759e+02 stress_260
                     -1.1358841459e+03 stress_261
                     -1.4326460849e+03 stress_262
                     -1.6024728582e+03 stress_263
                     -1.6351597348e+03 stress_264
                     -1.6039166524e+03 stress_265
                     -1.5350795158e+03 stress_266
                     -1.4337427411e+03 stress_267
                     -1.3082082409e+03 stress_268
                     -1.1677437304e+03 stress_269
                     -1.0200791733e+03 stress_270
                     -8.7005508703e+02 stress_271
                     -7.1983008505e+02 stress_272
                     -5.6999225641e+02 stress_273
                     -4.2039661042e+02 stress_274
                     -2.7080152543e+02 stress_275
                     -1.2117696398e+02 stress_276
                      2.8239051112e+01 stress_277
                      1.7692369068e+02 stress_278
                      3.2412263125e+02 stress_279
                      4.6890439392e+02 stress_280
                      6.1021151988e+02 stress_281
                      7.4690829948e+02 stress_282
                      8.7781566747e+02 stress_283
                      1.0017582468e+03 stress_284
                      1.1175704041e+03 stress_285
                      1.2241484868e+03 stress_286
                      1.3204527918e+03 stress_287
                      1.4055167471e+03 stress_288
                      1.4784980018e+03 stress_289
                      1.5386578344e+03 stress_290
                      1.5853764127e+03 stress_291
                      1.6181875435e+03 stress_292
                      1.6367466221e+03 stress_293
                      1.6370206715e+03 stress_294
                      1.3823125589e+03 stress_295
                      1.1538991756e+03 stress_296
                      1.2512780746e+03 stress_297
                      1.5801085454e+03 stress_298
                      1.5925503757e+03 stress_299
                      1.5604221316e+03 stress_300
                      1.5043573689e+03 stress_301
                      1.4279905338e+03 stress_302
                      1.3358976759e+03 stress_303
                      1.2324971676e+03 stress_304
                      1.1215224678e+03 stress_305
                      1.0055755802e+03 stress_306
                      8.8625055164e+02 stress_307
                      7.6440572579e+02 stress_308
                      6.4036885971e+02 stress_309
                      5.1422915937e+02 stress_310
                      3.8596683812e+02 stress_311
                      2.5554983427e+02 stress_312
                      1.2301795176e+02 stress_313
                     -1.1527113229e+01 stress_314
                     -1.4789924732e+02 stress_315
                     -2.8582774817e+02 stress_316
                     -4.2497603431e+02 stress_317
                     -5.6494112799e+02 stress_318
                     -7.0526817188e+02 stress_319
                     -8.4546453604e+02 stress_320
                     -9.8499755043e+02 stress_321
                     -1.1233163314e+03 stress_322
                     -1.2598446964e+03 stress_323
                     -1.3940006622e+03 stress_324
                     -1.5252034973e+03 stress_325
                     -1.6528589501e+03 stress_326
                     -1.7763975523e+03 stress_327
                     -1.8952363460e+03 stress_328
                     -2.0088345928e+03 stress_329
                     -2.1166594329e+03 stress_330
                     -2.2181932706e+03 stress_331
                     -2.3129613218e+03 stress_332
                     -2.4005024569e+03 stress_333
                     -2.4804006086e+03 stress_334
                     -2.5522786690e+03 stress_335
                     -2.6157673970e+03 stress_336
                     -2.6705787797e+03 stress_337
                     -2.7164375832e+03 stress_338
                     -2.7531185162e+03 stress_339
                     -2.7804501904e+03 stress_340
                     -2.7982956504e+03 stress_341
                     -2.8065645157e+03 stress_342



------------------------------------------
Begin Dakota derivative estimation routine
------------------------------------------

>>>>> map at X performed previously and results retrieved

>>>>> Dakota finite difference gradient evaluation for x[1] + h:

---------------------
Begin Evaluation   23
---------------------
Parameters for evaluation 23:
                      3.0030000000e+02 fy
                      1.5494203371e+05 E
                      3.6118500943e-01 b
                      9.8982446159e-01 cR1
                      1.3010428505e+00 cR2
                      1.0000000000e-06 a1
                      2.0260550504e-01 a3

(Asynchronous job 23 added to queue)


>>>>> Dakota finite difference gradient evaluation for x[2] + h:

---------------------
Begin Evaluation   24
---------------------
Parameters for evaluation 24:
                      3.0000000000e+02 fy
                      1.5509697574e+05 E
                      3.6118500943e-01 b
                      9.8982446159e-01 cR1
                      1.3010428505e+00 cR2
                      1.0000000000e-06 a1
                      2.0260550504e-01 a3

(Asynchronous job 24 added to queue)


>>>>> Dakota finite difference gradient evaluation for x[3] + h:

---------------------
Begin Evaluation   25
---------------------
Parameters for evaluation 25:
                      3.0000000000e+02 fy
                      1.5494203371e+05 E
                      3.6154619444e-01 b
                      9.8982446159e-01 cR1
                      1.3010428505e+00 cR2
                      1.0000000000e-06 a1
                      2.0260550504e-01 a3

(Asynchronous job 25 added to queue)


>>>>> Dakota finite difference gradient evaluation for x[4] + h:

---------------------
Begin Evaluation   26
---------------------
Parameters for evaluation 26:
                      3.0000000000e+02 fy
                      1.5494203371e+05 E
                      3.6118500943e-01 b
                      9.9081428605e-01 cR1
                      1.3010428505e+00 cR2
                      1.0000000000e-06 a1
                      2.0260550504e-01 a3

(Asynchronous job 26 added to queue)


>>>>> Dakota finite difference gradient evaluation for x[5] + h:

---------------------
Begin Evaluation   27
---------------------
Parameters for evaluation 27:
                      3.0000000000e+02 fy
                      1.5494203371e+05 E
                      3.6118500943e-01 b
                      9.8982446159e-01 cR1
                      1.3023438933e+00 cR2
                      1.0000000000e-06 a1
                      2.0260550504e-01 a3

(Asynchronous job 27 added to queue)


>>>>> Dakota finite difference gradient evaluation for x[6] + h:

---------------------
Begin Evaluation   28
---------------------
Parameters for evaluation 28:
                      3.0000000000e+02 fy
                      1.5494203371e+05 E
                      3.6118500943e-01 b
                      9.8982446159e-01 cR1
                      1.3010428505e+00 cR2
                      1.1000000000e-05 a1
                      2.0260550504e-01 a3

(Asynchronous job 28 added to queue)


>>>>> Dakota finite difference gradient evaluation for x[7] + h:

---------------------
Begin Evaluation   29
---------------------
Parameters for evaluation 29:
                      3.0000000000e+02 fy
                      1.5494203371e+05 E
                      3.6118500943e-01 b
                      9.8982446159e-01 cR1
                      1.3010428505e+00 cR2
                      1.0000000000e-06 a1
                      2.0280811054e-01 a3

(Asynchronous job 29 added to queue)



Blocking synchronize of 7 asynchronous evaluations
First pass: initiating 7 local asynchronous jobs
Initiating evaluation 23
nonblocking fork: workflow_driver1 paramsDakota.in results.out
Initiating evaluation 24
nonblocking fork: workflow_driver1 paramsDakota.in results.out
Initiating evaluation 25
nonblocking fork: workflow_driver1 paramsDakota.in results.out
Initiating evaluation 26
nonblocking fork: workflow_driver1 paramsDakota.in results.out
Initiating evaluation 27
nonblocking fork: workflow_driver1 paramsDakota.in results.out
Initiating evaluation 28
nonblocking fork: workflow_driver1 paramsDakota.in results.out
Initiating evaluation 29
nonblocking fork: workflow_driver1 paramsDakota.in results.out
Waiting on completed jobs
Evaluation 23 has completed
Evaluation 24 has completed
Evaluation 25 has completed
Evaluation 26 has completed
Evaluation 27 has completed
Waiting on completed jobs
Evaluation 28 has completed
Waiting on completed jobs
Evaluation 29 has completed

Active response data for evaluation 23:
Active set vector = { 1 1 1 1 1 1 1 1 1 1 1 1 1 1 1 1 1 1 1 1 1 1 1 1 1 1 1 1 1 1 1 1 1 1 1 1 1 1 1 1 1 1 1 1 1 1 1 1 1 1 1 1 1 1 1 1 1 1 1 1 1 1 1 1 1 1 1 1 1 1 1 1 1 1 1 1 1 1 1 1 1 1 1 1 1 1 1 1 1 1 1 1 1 1 1 1 1 1 1 1 1 1 1 1 1 1 1 1 1 1 1 1 1 1 1 1 1 1 1 1 1 1 1 1 1 1 1 1 1 1 1 1 1 1 1 1 1 1 1 1 1 1 1 1 1 1 1 1 1 1 1 1 1 1 1 1 1 1 1 1 1 1 1 1 1 1 1 1 1 1 1 1 1 1 1 1 1 1 1 1 1 1 1 1 1 1 1 1 1 1 1 1 1 1 1 1 1 1 1 1 1 1 1 1 1 1 1 1 1 1 1 1 1 1 1 1 1 1 1 1 1 1 1 1 1 1 1 1 1 1 1 1 1 1 1 1 1 1 1 1 1 1 1 1 1 1 1 1 1 1 1 1 1 1 1 1 1 1 1 1 1 1 1 1 1 1 1 1 1 1 1 1 1 1 1 1 1 1 1 1 1 1 1 1 1 1 1 1 1 1 1 1 1 1 1 1 1 1 1 1 1 1 1 1 1 1 1 1 1 1 1 1 1 1 1 1 1 1 1 1 1 1 1 1 1 1 1 1 1 1 1 1 1 1 1 1 1 1 1 1 1 1 }
                      1.8055762400e+00 stress_1
                     -1.8765017977e+02 stress_2
                     -3.8507685239e+02 stress_3
                     -4.0624225890e+02 stress_4
                     -1.6030937221e+02 stress_5
                      2.0195929161e+02 stress_6
                      3.4492008363e+02 stress_7
                      3.4584706098e+02 stress_8
                      1.5948919457e+02 stress_9
                     -1.5837840282e+02 stress_10
                     -4.0607262262e+02 stress_11
                     -5.2951329803e+02 stress_12
                     -6.0988023218e+02 stress_13
                     -6.1724889998e+02 stress_14
                     -3.6763871595e+02 stress_15
                     -4.9285339655e+02 stress_16
                     -6.2284710540e+02 stress_17
                     -4.7727063260e+02 stress_18
                     -2.0572066475e+02 stress_19
                      8.6019749232e+01 stress_20
                      2.5140163723e+02 stress_21
                      3.7443782525e+02 stress_22
                      4.6036860895e+02 stress_23
                      4.9651975630e+02 stress_24
                      2.4646788743e+02 stress_25
                      3.4197386261e+02 stress_26
                      4.4975623080e+02 stress_27
                      4.7871905875e+02 stress_28
                      3.8704211436e+02 stress_29
                      2.2381889624e+02 stress_30
                      2.1762768588e+00 stress_31
                     -2.1093107170e+02 stress_32
                     -3.6163294934e+02 stress_33
                     -4.9639805520e+02 stress_34
                     -6.3195686423e+02 stress_35
                     -7.6645258565e+02 stress_36
                     -8.9495804449e+02 stress_37
                     -1.0122752549e+03 stress_38
                     -1.1135722845e+03 stress_39
                     -1.1946002656e+03 stress_40
                     -1.2520245979e+03 stress_41
                     -1.2834416424e+03 stress_42
                     -1.2719113532e+03 stress_43
                     -9.7909750548e+02 stress_44
                     -7.5000726019e+02 stress_45
                     -9.0373640765e+02 stress_46
                     -1.1835872254e+03 stress_47
                     -9.6060438242e+02 stress_48
                     -1.0373419037e+03 stress_49
                     -1.1571120406e+03 stress_50
                     -1.2873483521e+03 stress_51
                     -1.1604906097e+03 stress_52
                     -8.9864211264e+02 stress_53
                     -6.2082624550e+02 stress_54
                     -4.1760209042e+02 stress_55
                     -2.9179874447e+02 stress_56
                     -2.4021140228e+02 stress_57
                     -3.0461118373e+02 stress_58
                     -5.4588231594e+02 stress_59
                     -8.8183892103e+02 stress_60
                     -1.1001356215e+03 stress_61
                     -1.2019902914e+03 stress_62
                     -1.2338198351e+03 stress_63
                     -1.0324758248e+03 stress_64
                     -7.1610191717e+02 stress_65
                     -6.2411461941e+02 stress_66
                     -8.2795835172e+02 stress_67
                     -1.1688554867e+03 stress_68
                     -1.2820701065e+03 stress_69
                     -1.2839003522e+03 stress_70
                     -1.2127623619e+03 stress_71
                     -1.0833492544e+03 stress_72
                     -9.0682582173e+02 stress_73
                     -7.1013969872e+02 stress_74
                     -5.2406641636e+02 stress_75
                     -3.5821609942e+02 stress_76
                     -2.0553662836e+02 stress_77
                     -5.8815430532e+01 stress_78
                      8.4699827374e+01 stress_79
                      2.2457608474e+02 stress_80
                      3.5877854544e+02 stress_81
                      4.8459510657e+02 stress_82
                      5.9912592521e+02 stress_83
                      6.9958528866e+02 stress_84
                      7.8342499254e+02 stress_85
                      8.4850360280e+02 stress_86
                      8.9314615322e+02 stress_87
                      9.1615948453e+02 stress_88
                      8.6123638044e+02 stress_89
                      5.3810953453e+02 stress_90
                      3.6751628152e+02 stress_91
                      5.8404724639e+02 stress_92
                      8.9211867836e+02 stress_93
                      9.0043821037e+02 stress_94
                      8.5557179952e+02 stress_95
                      7.7511438994e+02 stress_96
                      6.6270764173e+02 stress_97
                      5.2667407987e+02 stress_98
                      3.7951178703e+02 stress_99
                      2.3282180819e+02 stress_100
                      9.2246484811e+01 stress_101
                     -4.2325060359e+01 stress_102
                     -1.7351782026e+02 stress_103
                     -3.0394630494e+02 stress_104
                     -4.3526014547e+02 stress_105
                     -5.6817819057e+02 stress_106
                     -7.0270062892e+02 stress_107
                     -8.3834500955e+02 stress_108
                     -9.7432088569e+02 stress_109
                     -1.1096526428e+03 stress_110
                     -1.2432494754e+03 stress_111
                     -1.3739484171e+03 stress_112
                     -1.5005793489e+03 stress_113
                     -1.6219777597e+03 stress_114
                     -1.7370009627e+03 stress_115
                     -1.8445576236e+03 stress_116
                     -1.9436074765e+03 stress_117
                     -2.0332089476e+03 stress_118
                     -2.1124970775e+03 stress_119
                     -2.1806862112e+03 stress_120
                     -2.2371305579e+03 stress_121
                     -2.2812740830e+03 stress_122
                     -2.3126807970e+03 stress_123
                     -2.3310563003e+03 stress_124
                     -2.3359930025e+03 stress_125
                     -2.2605435867e+03 stress_126
                     -2.0854268259e+03 stress_127
                     -1.8651020268e+03 stress_128
                     -1.6463733482e+03 stress_129
                     -1.4519888155e+03 stress_130
                     -1.2927036415e+03 stress_131
                     -1.1764622524e+03 stress_132
                     -1.1100636087e+03 stress_133
                     -1.1060541413e+03 stress_134
                     -1.4142261690e+03 stress_135
                     -1.4319832731e+03 stress_136
                     -1.2952241656e+03 stress_137
                     -1.3221671904e+03 stress_138
                     -1.4516602701e+03 stress_139
                     -1.6934946055e+03 stress_140
                     -1.9271758299e+03 stress_141
                     -2.0771114347e+03 stress_142
                     -2.1977673470e+03 stress_143
                     -2.2873650719e+03 stress_144
                     -2.3339448629e+03 stress_145
                     -2.3187610493e+03 stress_146
                     -2.1484866114e+03 stress_147
                     -1.9030880692e+03 stress_148
                     -1.6704152529e+03 stress_149
                     -1.4932931203e+03 stress_150
                     -1.3906671561e+03 stress_151
                     -1.3753462095e+03 stress_152
                     -1.5371218675e+03 stress_153
                     -1.8374727516e+03 stress_154
                     -2.1062925949e+03 stress_155
                     -2.2292982539e+03 stress_156
                     -2.2836213449e+03 stress_157
                     -2.1935073450e+03 stress_158
                     -1.9083499040e+03 stress_159
                     -1.7597224511e+03 stress_160
                     -1.8841353240e+03 stress_161
                     -2.1986810166e+03 stress_162
                     -2.3219963111e+03 stress_163
                     -2.3374893052e+03 stress_164
                     -2.3064859233e+03 stress_165
                     -2.2465420911e+03 stress_166
                     -2.1613612645e+03 stress_167
                     -2.0565185564e+03 stress_168
                     -1.9383751664e+03 stress_169
                     -1.8124481900e+03 stress_170
                     -1.6826178004e+03 stress_171
                     -1.5510189236e+03 stress_172
                     -1.4184720725e+03 stress_173
                     -1.2850797099e+03 stress_174
                     -1.1506003082e+03 stress_175
                     -1.0147693214e+03 stress_176
                     -8.7743429942e+02 stress_177
                     -7.3858998286e+02 stress_178
                     -5.9841132853e+02 stress_179
                     -4.5721964001e+02 stress_180
                     -3.1545646040e+02 stress_181
                     -1.7367810343e+02 stress_182
                     -3.2511179325e+01 stress_183
                      1.0735076016e+02 stress_184
                      2.4517965239e+02 stress_185
                      3.8021699566e+02 stress_186
                      5.1169200185e+02 stress_187
                      6.3883704542e+02 stress_188
                      7.6088596721e+02 stress_189
                      8.7709720833e+02 stress_190
                      9.8675604244e+02 stress_191
                      1.0891662717e+03 stress_192
                      1.1836981777e+03 stress_193
                      1.2697494893e+03 stress_194
                      1.3467604324e+03 stress_195
                      1.4142529799e+03 stress_196
                      1.4717794447e+03 stress_197
                      1.5189805984e+03 stress_198
                      1.5555525873e+03 stress_199
                      1.5812476031e+03 stress_200
                      1.5959086857e+03 stress_201
                      1.5966268152e+03 stress_202
                      1.3514237207e+03 stress_203
                      1.1213909254e+03 stress_204
                      1.2025946508e+03 stress_205
                      1.5407228478e+03 stress_206
                      1.5583642111e+03 stress_207
                      1.5108180287e+03 stress_208
                      1.4289933856e+03 stress_209
                      1.3212208230e+03 stress_210
                      1.1963852219e+03 stress_211
                      1.0615906860e+03 stress_212
                      9.2129753855e+02 stress_213
                      7.7785871272e+02 stress_214
                      6.3228699380e+02 stress_215
                      4.8498982819e+02 stress_216
                      3.3624824592e+02 stress_217
                      1.8641859850e+02 stress_218
                      3.6038884999e+01 stress_219
                     -1.1414920049e+02 stress_220
                     -2.6323709086e+02 stress_221
                     -4.1017191651e+02 stress_222
                     -5.5380273184e+02 stress_223
                     -6.9290885202e+02 stress_224
                     -8.2624707256e+02 stress_225
                     -9.5256995245e+02 stress_226
                     -1.0706549906e+03 stress_227
                     -1.1793483408e+03 stress_228
                     -1.2775361982e+03 stress_229
                     -1.3642300579e+03 stress_230
                     -1.4385372303e+03 stress_231
                     -1.4996638342e+03 stress_232
                     -1.5469922129e+03 stress_233
                     -1.5800197097e+03 stress_234
                     -1.5983834590e+03 stress_235
                     -1.5935445666e+03 stress_236
                     -1.3349751185e+03 stress_237
                     -1.1251180594e+03 stress_238
                     -1.2914742738e+03 stress_239
                     -1.5141039298e+03 stress_240
                     -1.2765225906e+03 stress_241
                     -1.1473301013e+03 stress_242
                     -1.4024298738e+03 stress_243
                     -1.5092047840e+03 stress_244
                     -1.6178013954e+03 stress_245
                     -1.4828354308e+03 stress_246
                     -1.2427218897e+03 stress_247
                     -9.9381397666e+02 stress_248
                     -7.9163321611e+02 stress_249
                     -6.5877235366e+02 stress_250
                     -6.0734662032e+02 stress_251
                     -6.8596501939e+02 stress_252
                     -9.3012779871e+02 stress_253
                     -1.2184074942e+03 stress_254
                     -1.4247002910e+03 stress_255
                     -1.5399835314e+03 stress_256
                     -1.5697262485e+03 stress_257
                     -1.3692914726e+03 stress_258
                     -1.0881496018e+03 stress_259
                     -9.7503837013e+02 stress_260
                     -1.1358436518e+03 stress_261
                     -1.4327208414e+03 stress_262
                     -1.6026422642e+03 stress_263
                     -1.6353388598e+03 stress_264
                     -1.6040951437e+03 stress_265
                     -1.5352509557e+03 stress_266
                     -1.4338898249e+03 stress_267
                     -1.3083067509e+03 stress_268
                     -1.1677734164e+03 stress_269
                     -1.0200319748e+03 stress_270
                     -8.6993535616e+02 stress_271
                     -7.1964959974e+02 stress_272
                     -5.6976496157e+02 stress_273
                     -4.2013531408e+02 stress_274
                     -2.7051659390e+02 stress_275
                     -1.2087620062e+02 stress_276
                      2.8550031798e+01 stress_277
                      1.7724096636e+02 stress_278
                      3.2444352107e+02 stress_279
                      4.6922710060e+02 stress_280
                      6.1053486401e+02 stress_281
                      7.4723152915e+02 stress_282
                      8.7813832472e+02 stress_283
                      1.0020800749e+03 stress_284
                      1.1178912833e+03 stress_285
                      1.2244683907e+03 stress_286
                      1.3207717570e+03 stress_287
                      1.4058348524e+03 stress_288
                      1.4788153542e+03 stress_289
                      1.5389745595e+03 stress_290
                      1.5856926481e+03 stress_291
                      1.6185034341e+03 stress_292
                      1.6370623176e+03 stress_293
                      1.6373363642e+03 stress_294
                      1.3825527755e+03 stress_295
                      1.1540181528e+03 stress_296
                      1.2513970518e+03 stress_297
                      1.5802615906e+03 stress_298
                      1.5927186138e+03 stress_299
                      1.5605888671e+03 stress_300
                      1.5045154432e+03 stress_301
                      1.4281275070e+03 stress_302
                      1.3359995952e+03 stress_303
                      1.2325528406e+03 stress_304
                      1.1215260064e+03 stress_305
                      1.0055265560e+03 stress_306
                      8.8615267403e+02 stress_307
                      7.6426509851e+02 stress_308
                      6.4019246330e+02 stress_309
                      5.1402384876e+02 stress_310
                      3.8573878654e+02 stress_311
                      2.5530430734e+02 stress_312
                      1.2275928462e+02 stress_313
                     -1.1795441326e+01 stress_314
                     -1.4817449391e+02 stress_315
                     -2.8610778112e+02 stress_316
                     -4.2525921495e+02 stress_317
                     -5.6522620980e+02 stress_318
                     -7.0555421664e+02 stress_319
                     -8.4575084602e+02 stress_320
                     -9.8528361448e+02 stress_321
                     -1.1236017825e+03 stress_322
                     -1.2601292789e+03 stress_323
                     -1.3942842056e+03 stress_324
                     -1.5254858967e+03 stress_325
                     -1.6531401506e+03 stress_326
                     -1.7766775373e+03 stress_327
                     -1.8955151279e+03 stress_328
                     -2.0091122061e+03 stress_329
                     -2.1169359284e+03 stress_330
                     -2.2184687116e+03 stress_331
                     -2.3132357807e+03 stress_332
                     -2.4007760129e+03 stress_333
                     -2.4806733457e+03 stress_334
                     -2.5525506745e+03 stress_335
                     -2.6160387611e+03 stress_336
                     -2.6708495939e+03 stress_337
                     -2.7167079402e+03 stress_338
                     -2.7533885096e+03 stress_339
                     -2.7807199141e+03 stress_340
                     -2.7985651986e+03 stress_341
                     -2.8068339826e+03 stress_342


Active response data for evaluation 24:
Active set vector = { 1 1 1 1 1 1 1 1 1 1 1 1 1 1 1 1 1 1 1 1 1 1 1 1 1 1 1 1 1 1 1 1 1 1 1 1 1 1 1 1 1 1 1 1 1 1 1 1 1 1 1 1 1 1 1 1 1 1 1 1 1 1 1 1 1 1 1 1 1 1 1 1 1 1 1 1 1 1 1 1 1 1 1 1 1 1 1 1 1 1 1 1 1 1 1 1 1 1 1 1 1 1 1 1 1 1 1 1 1 1 1 1 1 1 1 1 1 1 1 1 1 1 1 1 1 1 1 1 1 1 1 1 1 1 1 1 1 1 1 1 1 1 1 1 1 1 1 1 1 1 1 1 1 1 1 1 1 1 1 1 1 1 1 1 1 1 1 1 1 1 1 1 1 1 1 1 1 1 1 1 1 1 1 1 1 1 1 1 1 1 1 1 1 1 1 1 1 1 1 1 1 1 1 1 1 1 1 1 1 1 1 1 1 1 1 1 1 1 1 1 1 1 1 1 1 1 1 1 1 1 1 1 1 1 1 1 1 1 1 1 1 1 1 1 1 1 1 1 1 1 1 1 1 1 1 1 1 1 1 1 1 1 1 1 1 1 1 1 1 1 1 1 1 1 1 1 1 1 1 1 1 1 1 1 1 1 1 1 1 1 1 1 1 1 1 1 1 1 1 1 1 1 1 1 1 1 1 1 1 1 1 1 1 1 1 1 1 1 1 1 1 1 1 1 1 1 1 1 1 1 1 1 1 1 1 1 1 1 1 1 1 1 }
                      1.8073818163e+00 stress_1
                     -1.8783780822e+02 stress_2
                     -3.8507845222e+02 stress_3
                     -4.0626502064e+02 stress_4
                     -1.6008620201e+02 stress_5
                      2.0237381878e+02 stress_6
                      3.4485589437e+02 stress_7
                      3.4578287731e+02 stress_8
                      1.5923865306e+02 stress_9
                     -1.5893084193e+02 stress_10
                     -4.0610999760e+02 stress_11
                     -5.2965935956e+02 stress_12
                     -6.1010662579e+02 stress_13
                     -6.1748266264e+02 stress_14
                     -3.6762325249e+02 stress_15
                     -4.9296314778e+02 stress_16
                     -6.2308653619e+02 stress_17
                     -4.7736449497e+02 stress_18
                     -2.0556170731e+02 stress_19
                      8.5944786787e+01 stress_20
                      2.5122866661e+02 stress_21
                      3.7437209078e+02 stress_22
                      4.6038751062e+02 stress_23
                      4.9657465629e+02 stress_24
                      2.4627501478e+02 stress_25
                      3.4187649594e+02 stress_26
                      4.4976667151e+02 stress_27
                      4.7875896093e+02 stress_28
                      3.8699034583e+02 stress_29
                      2.2360681415e+02 stress_30
                      1.8452280158e+00 stress_31
                     -2.1101143172e+02 stress_32
                     -3.6164027800e+02 stress_33
                     -4.9651206303e+02 stress_34
                     -6.3220428095e+02 stress_35
                     -7.6683475455e+02 stress_36
                     -8.9546901660e+02 stress_37
                     -1.0129037232e+03 stress_38
                     -1.1143021499e+03 stress_39
                     -1.1954112143e+03 stress_40
                     -1.2528930008e+03 stress_41
                     -1.2843414762e+03 stress_42
                     -1.2727996576e+03 stress_43
                     -9.7974622664e+02 stress_44
                     -7.5064176925e+02 stress_45
                     -9.0452464586e+02 stress_46
                     -1.1846385237e+03 stress_47
                     -9.6145334823e+02 stress_48
                     -1.0382676070e+03 stress_49
                     -1.1581573491e+03 stress_50
                     -1.2882571528e+03 stress_51
                     -1.1612757904e+03 stress_52
                     -8.9927385303e+02 stress_53
                     -6.2151987830e+02 stress_54
                     -4.1833809454e+02 stress_55
                     -2.9249666139e+02 stress_56
                     -2.4087991907e+02 stress_57
                     -3.0534410029e+02 stress_58
                     -5.4685569472e+02 stress_59
                     -8.8295390568e+02 stress_60
                     -1.1009195474e+03 stress_61
                     -1.2028149833e+03 stress_62
                     -1.2346724768e+03 stress_63
                     -1.0331395618e+03 stress_64
                     -7.1667364407e+02 stress_65
                     -6.2471865203e+02 stress_66
                     -8.2876622730e+02 stress_67
                     -1.1698411218e+03 stress_68
                     -1.2829711563e+03 stress_69
                     -1.2848029941e+03 stress_70
                     -1.2135943328e+03 stress_71
                     -1.0840656196e+03 stress_72
                     -9.0745322664e+02 stress_73
                     -7.1079022012e+02 stress_74
                     -5.2478728322e+02 stress_75
                     -3.5893746703e+02 stress_76
                     -2.0618038935e+02 stress_77
                     -5.9339621260e+01 stress_78
                      8.4311630729e+01 stress_79
                      2.2432734512e+02 stress_80
                      3.5866580705e+02 stress_81
                      4.8461040669e+02 stress_82
                      5.9925778679e+02 stress_83
                      6.9981927362e+02 stress_84
                      7.8374409417e+02 stress_85
                      8.4888870047e+02 stress_86
                      8.9357648592e+02 stress_87
                      9.1661312454e+02 stress_88
                      8.6163600880e+02 stress_89
                      5.3834642414e+02 stress_90
                      3.6778492004e+02 stress_91
                      5.8453241586e+02 stress_92
                      8.9280870163e+02 stress_93
                      9.0110962695e+02 stress_94
                      8.5619873986e+02 stress_95
                      7.7566761582e+02 stress_96
                      6.6318168668e+02 stress_97
                      5.2709793583e+02 stress_98
                      3.7992677998e+02 stress_99
                      2.3324123230e+02 stress_100
                      9.2646437889e+01 stress_101
                     -4.1982962348e+01 stress_102
                     -1.7326660861e+02 stress_103
                     -3.0380826967e+02 stress_104
                     -4.3524877097e+02 stress_105
                     -5.6830124901e+02 stress_106
                     -7.0296237294e+02 stress_107
                     -8.3874741404e+02 stress_108
                     -9.7486427521e+02 stress_109
                     -1.1103359903e+03 stress_110
                     -1.2440705280e+03 stress_111
                     -1.3749037388e+03 stress_112
                     -1.5016643653e+03 stress_113
                     -1.6231867830e+03 stress_114
                     -1.7383272168e+03 stress_115
                     -1.8459932931e+03 stress_116
                     -1.9451437510e+03 stress_117
                     -2.0348361144e+03 stress_118
                     -2.1142045916e+03 stress_119
                     -2.1824627680e+03 stress_120
                     -2.2389642286e+03 stress_121
                     -2.2831523987e+03 stress_122
                     -2.3145908648e+03 stress_123
                     -2.3329849417e+03 stress_124
                     -2.3379266333e+03 stress_125
                     -2.2624120770e+03 stress_126
                     -2.0872208321e+03 stress_127
                     -1.8668921681e+03 stress_128
                     -1.6481715006e+03 stress_129
                     -1.4537574793e+03 stress_130
                     -1.2944133366e+03 stress_131
                     -1.1781105721e+03 stress_132
                     -1.1116708993e+03 stress_133
                     -1.1076588293e+03 stress_134
                     -1.4161331600e+03 stress_135
                     -1.4339058558e+03 stress_136
                     -1.2970391581e+03 stress_137
                     -1.3240091259e+03 stress_138
                     -1.4536311828e+03 stress_139
                     -1.6956119760e+03 stress_140
                     -1.9289303908e+03 stress_141
                     -2.0788255986e+03 stress_142
                     -2.1995837923e+03 stress_143
                     -2.2892689807e+03 stress_144
                     -2.3358950493e+03 stress_145
                     -2.3206963900e+03 stress_146
                     -2.1503131616e+03 stress_147
                     -1.9048884242e+03 stress_148
                     -1.6722242097e+03 stress_149
                     -1.4950807869e+03 stress_150
                     -1.3924251323e+03 stress_151
                     -1.3770986279e+03 stress_152
                     -1.5390360514e+03 stress_153
                     -1.8396519204e+03 stress_154
                     -2.1081674258e+03 stress_155
                     -2.2311537870e+03 stress_156
                     -2.2855234464e+03 stress_157
                     -2.1953331619e+03 stress_158
                     -1.9100961784e+03 stress_159
                     -1.7614752960e+03 stress_160
                     -1.8860125817e+03 stress_161
                     -2.2007050487e+03 stress_162
                     -2.3239357581e+03 stress_163
                     -2.3394437045e+03 stress_164
                     -2.3084108897e+03 stress_165
                     -2.2484204743e+03 stress_166
                     -2.1631955698e+03 stress_167
                     -2.0583270284e+03 stress_168
                     -1.9401787425e+03 stress_169
                     -1.8142581252e+03 stress_170
                     -1.6844310981e+03 stress_171
                     -1.5528209870e+03 stress_172
                     -1.4202421759e+03 stress_173
                     -1.2867958281e+03 stress_174
                     -1.1522420676e+03 stress_175
                     -1.0163193137e+03 stress_176
                     -8.7887837109e+02 stress_177
                     -7.3991701165e+02 stress_178
                     -5.9961284668e+02 stress_179
                     -4.5828943282e+02 stress_180
                     -3.1639021563e+02 stress_181
                     -1.7447314943e+02 stress_182
                     -3.3166267456e+01 stress_183
                      1.0683560454e+02 stress_184
                      2.4480325473e+02 stress_185
                      3.7997711843e+02 stress_186
                      5.1158541725e+02 stress_187
                      6.3885960037e+02 stress_188
                      7.6103262955e+02 stress_189
                      8.7736212397e+02 stress_190
                      9.8713258573e+02 stress_191
                      1.0896470807e+03 stress_192
                      1.1842752334e+03 stress_193
                      1.2704141515e+03 stress_194
                      1.3475034882e+03 stress_195
                      1.4150647304e+03 stress_196
                      1.4726497380e+03 stress_197
                      1.5198989204e+03 stress_198
                      1.5565081182e+03 stress_199
                      1.5822292742e+03 stress_200
                      1.5969052709e+03 stress_201
                      1.5976241309e+03 stress_202
                      1.3523257752e+03 stress_203
                      1.1223105813e+03 stress_204
                      1.2035955104e+03 stress_205
                      1.5420530971e+03 stress_206
                      1.5597036372e+03 stress_207
                      1.5121165204e+03 stress_208
                      1.4302451265e+03 stress_209
                      1.3224402247e+03 stress_210
                      1.1975873379e+03 stress_211
                      1.0627778574e+03 stress_212
                      9.2245818082e+02 stress_213
                      7.7897281431e+02 stress_214
                      6.3333212082e+02 stress_215
                      4.8594505167e+02 stress_216
                      3.3709598344e+02 stress_217
                      1.8714510351e+02 stress_218
                      3.6634096812e+01 stress_219
                     -1.1369202939e+02 stress_220
                     -2.6292181012e+02 stress_221
                     -4.0999983370e+02 stress_222
                     -5.5377290982e+02 stress_223
                     -6.9301833933e+02 stress_224
                     -8.2649110302e+02 stress_225
                     -9.5294210296e+02 stress_226
                     -1.0711473232e+03 stress_227
                     -1.1799515562e+03 stress_228
                     -1.2782397355e+03 stress_229
                     -1.3650222639e+03 stress_230
                     -1.4394054863e+03 stress_231
                     -1.5005946766e+03 stress_232
                     -1.5479715262e+03 stress_233
                     -1.5810328528e+03 stress_234
                     -1.5994154134e+03 stress_235
                     -1.5945717059e+03 stress_236
                     -1.3358683119e+03 stress_237
                     -1.1260280255e+03 stress_238
                     -1.2925454783e+03 stress_239
                     -1.5152975617e+03 stress_240
                     -1.2775762424e+03 stress_241
                     -1.1483727135e+03 stress_242
                     -1.4036884777e+03 stress_243
                     -1.5104827117e+03 stress_244
                     -1.6190791376e+03 stress_245
                     -1.4840076562e+03 stress_246
                     -1.2438345647e+03 stress_247
                     -9.9493350524e+02 stress_248
                     -7.9273568363e+02 stress_249
                     -6.5983758822e+02 stress_250
                     -6.0839149198e+02 stress_251
                     -6.8708804973e+02 stress_252
                     -9.3143582065e+02 stress_253
                     -1.2196767260e+03 stress_254
                     -1.4258934464e+03 stress_255
                     -1.5411978046e+03 stress_256
                     -1.5709542667e+03 stress_257
                     -1.3703811218e+03 stress_258
                     -1.0892074609e+03 stress_259
                     -9.7610126375e+02 stress_260
                     -1.1370607179e+03 stress_261
                     -1.4340039079e+03 stress_262
                     -1.6039058941e+03 stress_263
                     -1.6366157472e+03 stress_264
                     -1.6053420592e+03 stress_265
                     -1.5364431667e+03 stress_266
                     -1.4350294819e+03 stress_267
                     -1.3094181073e+03 stress_268
                     -1.1688820168e+03 stress_269
                     -1.0211466966e+03 stress_270
                     -8.7104510323e+02 stress_271
                     -7.2073060365e+02 stress_272
                     -5.7078972215e+02 stress_273
                     -4.2107846526e+02 stress_274
                     -2.7135741139e+02 stress_275
                     -1.2159905394e+02 stress_276
                      2.7956159594e+01 stress_277
                      1.7678318674e+02 stress_278
                      3.2412570936e+02 stress_279
                      4.6905043411e+02 stress_280
                      6.1049822723e+02 stress_281
                      7.4733181596e+02 stress_282
                      8.7837066207e+02 stress_283
                      1.0024380120e+03 stress_284
                      1.1183669293e+03 stress_285
                      1.2250525647e+03 stress_286
                      1.3214541125e+03 stress_287
                      1.4066039913e+03 stress_288
                      1.4796589800e+03 stress_289
                      1.5398795997e+03 stress_290
                      1.5866453864e+03 stress_291
                      1.6194896730e+03 stress_292
                      1.6380675058e+03 stress_293
                      1.6383418322e+03 stress_294
                      1.3834546526e+03 stress_295
                      1.1549341722e+03 stress_296
                      1.2524104501e+03 stress_297
                      1.5815354416e+03 stress_298
                      1.5939744658e+03 stress_299
                      1.5618156032e+03 stress_300
                      1.5057034664e+03 stress_301
                      1.4292814162e+03 stress_302
                      1.3371315762e+03 stress_303
                      1.2336739608e+03 stress_304
                      1.1226404511e+03 stress_305
                      1.0066301942e+03 stress_306
                      8.8723469906e+02 stress_307
                      7.6531077933e+02 stress_308
                      6.4118564689e+02 stress_309
                      5.1494872440e+02 stress_310
                      3.8658088757e+02 stress_311
                      2.5605094983e+02 stress_312
                      1.2339968478e+02 stress_313
                     -1.1270254551e+01 stress_314
                     -1.4777183240e+02 stress_315
                     -2.8583346587e+02 stress_316
                     -4.2511774366e+02 stress_317
                     -5.6522089306e+02 stress_318
                     -7.0568729369e+02 stress_319
                     -8.4602358247e+02 stress_320
                     -9.8569637009e+02 stress_321
                     -1.1241540778e+03 stress_322
                     -1.2608198356e+03 stress_323
                     -1.3951109928e+03 stress_324
                     -1.5264461718e+03 stress_325
                     -1.6542304763e+03 stress_326
                     -1.7778938304e+03 stress_327
                     -1.8968526641e+03 stress_328
                     -2.0105656763e+03 stress_329
                     -2.1184994579e+03 stress_330
                     -2.2201358828e+03 stress_331
                     -2.3149996835e+03 stress_332
                     -2.4026292620e+03 stress_333
                     -2.4826081303e+03 stress_334
                     -2.5545587998e+03 stress_335
                     -2.6181116576e+03 stress_336
                     -2.6729784014e+03 stress_337
                     -2.7188835206e+03 stress_338
                     -2.7556014981e+03 stress_339
                     -2.7829607736e+03 stress_340
                     -2.8008242546e+03 stress_341
                     -2.8091014699e+03 stress_342


Active response data for evaluation 25:
Active set vector = { 1 1 1 1 1 1 1 1 1 1 1 1 1 1 1 1 1 1 1 1 1 1 1 1 1 1 1 1 1 1 1 1 1 1 1 1 1 1 1 1 1 1 1 1 1 1 1 1 1 1 1 1 1 1 1 1 1 1 1 1 1 1 1 1 1 1 1 1 1 1 1 1 1 1 1 1 1 1 1 1 1 1 1 1 1 1 1 1 1 1 1 1 1 1 1 1 1 1 1 1 1 1 1 1 1 1 1 1 1 1 1 1 1 1 1 1 1 1 1 1 1 1 1 1 1 1 1 1 1 1 1 1 1 1 1 1 1 1 1 1 1 1 1 1 1 1 1 1 1 1 1 1 1 1 1 1 1 1 1 1 1 1 1 1 1 1 1 1 1 1 1 1 1 1 1 1 1 1 1 1 1 1 1 1 1 1 1 1 1 1 1 1 1 1 1 1 1 1 1 1 1 1 1 1 1 1 1 1 1 1 1 1 1 1 1 1 1 1 1 1 1 1 1 1 1 1 1 1 1 1 1 1 1 1 1 1 1 1 1 1 1 1 1 1 1 1 1 1 1 1 1 1 1 1 1 1 1 1 1 1 1 1 1 1 1 1 1 1 1 1 1 1 1 1 1 1 1 1 1 1 1 1 1 1 1 1 1 1 1 1 1 1 1 1 1 1 1 1 1 1 1 1 1 1 1 1 1 1 1 1 1 1 1 1 1 1 1 1 1 1 1 1 1 1 1 1 1 1 1 1 1 1 1 1 1 1 1 1 1 1 1 1 }
                      1.8055762400e+00 stress_1
                     -1.8765016933e+02 stress_2
                     -3.8497009478e+02 stress_3
                     -4.0615666480e+02 stress_4
                     -1.6022377856e+02 stress_5
                      2.0196369060e+02 stress_6
                      3.4467890006e+02 stress_7
                      3.4560626807e+02 stress_8
                      1.5924840167e+02 stress_9
                     -1.5861152326e+02 stress_10
                     -4.0599594842e+02 stress_11
                     -5.2955101046e+02 stress_12
                     -6.0999827510e+02 stress_13
                     -6.1737431137e+02 stress_14
                     -3.6776431024e+02 stress_15
                     -4.9297899084e+02 stress_16
                     -6.2298058514e+02 stress_17
                     -4.7740411620e+02 stress_18
                     -2.0586295419e+02 stress_19
                      8.5650089563e+01 stress_20
                      2.5101885739e+02 stress_21
                      3.7416650963e+02 stress_22
                      4.6018207394e+02 stress_23
                      4.9636920423e+02 stress_24
                      2.4631841590e+02 stress_25
                      3.4182439108e+02 stress_26
                      4.4960678791e+02 stress_27
                      4.7857008137e+02 stress_28
                      3.8689313997e+02 stress_29
                      2.2367130039e+02 stress_30
                      2.0761050461e+00 stress_31
                     -2.1083949546e+02 stress_32
                     -3.6152914132e+02 stress_33
                     -4.9640582514e+02 stress_34
                     -6.3209723481e+02 stress_35
                     -7.6672708648e+02 stress_36
                     -8.9536104038e+02 stress_37
                     -1.0127955968e+03 stress_38
                     -1.1141939471e+03 stress_39
                     -1.1953029713e+03 stress_40
                     -1.2527847368e+03 stress_41
                     -1.2842332026e+03 stress_42
                     -1.2727029138e+03 stress_43
                     -9.7991285188e+02 stress_44
                     -7.5091070088e+02 stress_45
                     -9.0463984834e+02 stress_46
                     -1.1844828418e+03 stress_47
                     -9.6150923972e+02 stress_48
                     -1.0382467610e+03 stress_49
                     -1.1580168189e+03 stress_50
                     -1.2881467286e+03 stress_51
                     -1.1612904830e+03 stress_52
                     -8.9948934427e+02 stress_53
                     -6.2179913481e+02 stress_54
                     -4.1861273928e+02 stress_55
                     -2.9277290299e+02 stress_56
                     -2.4115845611e+02 stress_57
                     -3.0555823755e+02 stress_58
                     -5.4682898347e+02 stress_59
                     -8.8269583718e+02 stress_60
                     -1.1007949574e+03 stress_61
                     -1.2027071147e+03 stress_62
                     -1.2345652068e+03 stress_63
                     -1.0332268890e+03 stress_64
                     -7.1694752754e+02 stress_65
                     -6.2500655975e+02 stress_66
                     -8.2885029169e+02 stress_67
                     -1.1696740503e+03 stress_68
                     -1.2828623461e+03 stress_69
                     -1.2846942455e+03 stress_70
                     -1.2135564736e+03 stress_71
                     -1.0841496577e+03 stress_72
                     -9.0766444036e+02 stress_73
                     -7.1106527740e+02 stress_74
                     -5.2506622614e+02 stress_75
                     -3.5921289211e+02 stress_76
                     -2.0646125566e+02 stress_77
                     -5.9629740145e+01 stress_78
                      8.4012764876e+01 stress_79
                      2.2402151419e+02 stress_80
                      3.5835476582e+02 stress_81
                      4.8429555616e+02 stress_82
                      5.9894017624e+02 stress_83
                      6.9949967825e+02 stress_84
                      7.8342309411e+02 stress_85
                      8.4856674227e+02 stress_86
                      8.9325392878e+02 stress_87
                      9.1629027555e+02 stress_88
                      8.6136759310e+02 stress_89
                      5.3830828157e+02 stress_90
                      3.6778801886e+02 stress_91
                      5.8431898373e+02 stress_92
                      8.9234229924e+02 stress_93
                      9.0064954571e+02 stress_94
                      8.5578331512e+02 stress_95
                      7.7532893372e+02 stress_96
                      6.6293652495e+02 stress_97
                      5.2693760099e+02 stress_98
                      3.7982396132e+02 stress_99
                      2.3317135580e+02 stress_100
                      9.2598702465e+01 stress_101
                     -4.2010646023e+01 stress_102
                     -1.7327471022e+02 stress_103
                     -3.0379823458e+02 stress_104
                     -4.3522292434e+02 stress_105
                     -5.6826216739e+02 stress_106
                     -7.0291246555e+02 stress_107
                     -8.3868875002e+02 stress_108
                     -9.7479855553e+02 stress_109
                     -1.1102645829e+03 stress_110
                     -1.2439945230e+03 stress_111
                     -1.3748240038e+03 stress_112
                     -1.5015815919e+03 stress_113
                     -1.6231015258e+03 stress_114
                     -1.7382399244e+03 stress_115
                     -1.8459043311e+03 stress_116
                     -1.9450534212e+03 stress_117
                     -2.0347446686e+03 stress_118
                     -2.1141122428e+03 stress_119
                     -2.1823696995e+03 stress_120
                     -2.2388706006e+03 stress_121
                     -2.2830583544e+03 stress_122
                     -2.3144965352e+03 stress_123
                     -2.3328904490e+03 stress_124
                     -2.3378320973e+03 stress_125
                     -2.2623872107e+03 stress_126
                     -2.0873109792e+03 stress_127
                     -1.8670582375e+03 stress_128
                     -1.6483741999e+03 stress_129
                     -1.4539820004e+03 stress_130
                     -1.2946544282e+03 stress_131
                     -1.1783638098e+03 stress_132
                     -1.1119310898e+03 stress_133
                     -1.1079194391e+03 stress_134
                     -1.4160886975e+03 stress_135
                     -1.4338447855e+03 stress_136
                     -1.2970968406e+03 stress_137
                     -1.3240398654e+03 stress_138
                     -1.4535326988e+03 stress_139
                     -1.6953225568e+03 stress_140
                     -1.9287580977e+03 stress_141
                     -2.0787135296e+03 stress_142
                     -2.1994760954e+03 stress_143
                     -2.2891613752e+03 stress_144
                     -2.3357873519e+03 stress_145
                     -2.3206036925e+03 stress_146
                     -2.1503549478e+03 stress_147
                     -1.9050337407e+03 stress_148
                     -1.6724144829e+03 stress_149
                     -1.4952929759e+03 stress_150
                     -1.3926487596e+03 stress_151
                     -1.3773239424e+03 stress_152
                     -1.5390995955e+03 stress_153
                     -1.8394338254e+03 stress_154
                     -2.1080138076e+03 stress_155
                     -2.2310443409e+03 stress_156
                     -2.2854156379e+03 stress_157
                     -2.1953076851e+03 stress_158
                     -1.9102281353e+03 stress_159
                     -1.7616464646e+03 stress_160
                     -1.8860593375e+03 stress_161
                     -2.2005287052e+03 stress_162
                     -2.3238272126e+03 stress_163
                     -2.3393352979e+03 stress_164
                     -2.3083326231e+03 stress_165
                     -2.2483945921e+03 stress_166
                     -2.1632307751e+03 stress_167
                     -2.0584185322e+03 stress_168
                     -1.9403141369e+03 stress_169
                     -1.8144245376e+03 stress_170
                     -1.6846193320e+03 stress_171
                     -1.5530261411e+03 stress_172
                     -1.4204623871e+03 stress_173
                     -1.2870307468e+03 stress_174
                     -1.1524917970e+03 stress_175
                     -1.0165838649e+03 stress_176
                     -8.7915747612e+02 stress_177
                     -7.4021012126e+02 stress_178
                     -5.9991919710e+02 stress_179
                     -4.5860812732e+02 stress_180
                     -3.1672029490e+02 stress_181
                     -1.7481364255e+02 stress_182
                     -3.3516227677e+01 stress_183
                      1.0647707881e+02 stress_184
                      2.4443700785e+02 stress_185
                      3.7960393298e+02 stress_186
                      5.1120601359e+02 stress_187
                      6.3847463876e+02 stress_188
                      7.6064271444e+02 stress_189
                      8.7696780844e+02 stress_190
                      9.8673437659e+02 stress_191
                      1.0892454440e+03 stress_192
                      1.1838705985e+03 stress_193
                      1.2700069162e+03 stress_194
                      1.3470940235e+03 stress_195
                      1.4146533838e+03 stress_196
                      1.4722368379e+03 stress_197
                      1.5194847788e+03 stress_198
                      1.5560930347e+03 stress_199
                      1.5818135391e+03 stress_200
                      1.5964891677e+03 stress_201
                      1.5972080098e+03 stress_202
                      1.3520627479e+03 stress_203
                      1.1220996485e+03 stress_204
                      1.2033033739e+03 stress_205
                      1.5414274516e+03 stress_206
                      1.5590648471e+03 stress_207
                      1.5115215104e+03 stress_208
                      1.4297109305e+03 stress_209
                      1.3219654395e+03 stress_210
                      1.1971616014e+03 stress_211
                      1.0623906824e+03 stress_212
                      9.2210255206e+02 stress_213
                      7.7864493094e+02 stress_214
                      6.3302999753e+02 stress_215
                      4.8566736872e+02 stress_216
                      3.3684147688e+02 stress_217
                      1.8691235620e+02 stress_218
                      3.6421528056e+01 stress_219
                     -1.1388610164e+02 stress_220
                     -2.6309909482e+02 stress_221
                     -4.1016200811e+02 stress_222
                     -5.5392157930e+02 stress_223
                     -6.9315501527e+02 stress_224
                     -8.2661719240e+02 stress_225
                     -9.5305890797e+02 stress_226
                     -1.0712560461e+03 stress_227
                     -1.1800533063e+03 stress_228
                     -1.2783355410e+03 stress_229
                     -1.3651130806e+03 stress_230
                     -1.4394922089e+03 stress_231
                     -1.5006781504e+03 stress_232
                     -1.5480525552e+03 stress_233
                     -1.5811122110e+03 stress_234
                     -1.5994938549e+03 stress_235
                     -1.5946549736e+03 stress_236
                     -1.3361370141e+03 stress_237
                     -1.1263593694e+03 stress_238
                     -1.2927133169e+03 stress_239
                     -1.5153070602e+03 stress_240
                     -1.2777657283e+03 stress_241
                     -1.1486158247e+03 stress_242
                     -1.4036987533e+03 stress_243
                     -1.5104407235e+03 stress_244
                     -1.6190152839e+03 stress_245
                     -1.4840619780e+03 stress_246
                     -1.2440165755e+03 stress_247
                     -9.9517716335e+02 stress_248
                     -7.9300829056e+02 stress_249
                     -6.6012647488e+02 stress_250
                     -6.0868655139e+02 stress_251
                     -6.8730473492e+02 stress_252
                     -9.3144101209e+02 stress_253
                     -1.2195911590e+03 stress_254
                     -1.4258215023e+03 stress_255
                     -1.5411296434e+03 stress_256
                     -1.5708858731e+03 stress_257
                     -1.3704771766e+03 stress_258
                     -1.0894226105e+03 stress_259
                     -9.7634158097e+02 stress_260
                     -1.1371438356e+03 stress_261
                     -1.4339302467e+03 stress_262
                     -1.6038288267e+03 stress_263
                     -1.6365373622e+03 stress_264
                     -1.6052942212e+03 stress_265
                     -1.5364561916e+03 stress_266
                     -1.4351152457e+03 stress_267
                     -1.3095692810e+03 stress_268
                     -1.1690816499e+03 stress_269
                     -1.0213790739e+03 stress_270
                     -8.7130067340e+02 stress_271
                     -7.2100532333e+02 stress_272
                     -5.7108250273e+02 stress_273
                     -4.2138914590e+02 stress_274
                     -2.7168574258e+02 stress_275
                     -1.2194438716e+02 stress_276
                      2.7594844308e+01 stress_277
                      1.7640715232e+02 stress_278
                      3.2373633180e+02 stress_279
                      4.6864910498e+02 stress_280
                      6.1008629129e+02 stress_281
                      7.4691053638e+02 stress_282
                      8.7794120525e+02 stress_283
                      1.0020014438e+03 stress_284
                      1.1179242200e+03 stress_285
                      1.2246045962e+03 stress_286
                      1.3210016886e+03 stress_287
                      1.4061478490e+03 stress_288
                      1.4791997989e+03 stress_289
                      1.5394180128e+03 stress_290
                      1.5861819902e+03 stress_291
                      1.6190250358e+03 stress_292
                      1.6376021772e+03 stress_293
                      1.6378764935e+03 stress_294
                      1.3831514878e+03 stress_295
                      1.1546873297e+03 stress_296
                      1.2520662287e+03 stress_297
                      1.5808992555e+03 stress_298
                      1.5933426299e+03 stress_299
                      1.5612142058e+03 stress_300
                      1.5051480419e+03 stress_301
                      1.4287766897e+03 stress_302
                      1.3366738804e+03 stress_303
                      1.2332557668e+03 stress_304
                      1.1222541129e+03 stress_305
                      1.0062698954e+03 stress_306
                      8.8689677054e+02 stress_307
                      7.6499320445e+02 stress_308
                      6.4088740027e+02 stress_309
                      5.1466922766e+02 stress_310
                      3.8631967205e+02 stress_311
                      2.5580748796e+02 stress_312
                      1.2317332722e+02 stress_313
                     -1.1480276917e+01 stress_314
                     -1.4796638206e+02 stress_315
                     -2.8601346499e+02 stress_316
                     -4.2528414115e+02 stress_317
                     -5.6537463853e+02 stress_318
                     -7.0582931751e+02 stress_319
                     -8.4615478164e+02 stress_320
                     -9.8581760001e+02 stress_321
                     -1.1242661468e+03 stress_322
                     -1.2609235036e+03 stress_323
                     -1.3952069709e+03 stress_324
                     -1.5265351231e+03 stress_325
                     -1.6543130195e+03 stress_326
                     -1.7779705414e+03 stress_327
                     -1.8969240801e+03 stress_328
                     -2.0106322982e+03 stress_329
                     -2.1185617537e+03 stress_330
                     -2.2201942916e+03 stress_331
                     -2.3150546172e+03 stress_332
                     -2.4026811096e+03 stress_333
                     -2.4826572594e+03 stress_334
                     -2.5546055598e+03 stress_335
                     -2.6181563826e+03 stress_336
                     -2.6730214115e+03 stress_337
                     -2.7189251246e+03 stress_338
                     -2.7556419959e+03 stress_339
                     -2.7830004576e+03 stress_340
                     -2.8008634120e+03 stress_341
                     -2.8091403845e+03 stress_342


Active response data for evaluation 26:
Active set vector = { 1 1 1 1 1 1 1 1 1 1 1 1 1 1 1 1 1 1 1 1 1 1 1 1 1 1 1 1 1 1 1 1 1 1 1 1 1 1 1 1 1 1 1 1 1 1 1 1 1 1 1 1 1 1 1 1 1 1 1 1 1 1 1 1 1 1 1 1 1 1 1 1 1 1 1 1 1 1 1 1 1 1 1 1 1 1 1 1 1 1 1 1 1 1 1 1 1 1 1 1 1 1 1 1 1 1 1 1 1 1 1 1 1 1 1 1 1 1 1 1 1 1 1 1 1 1 1 1 1 1 1 1 1 1 1 1 1 1 1 1 1 1 1 1 1 1 1 1 1 1 1 1 1 1 1 1 1 1 1 1 1 1 1 1 1 1 1 1 1 1 1 1 1 1 1 1 1 1 1 1 1 1 1 1 1 1 1 1 1 1 1 1 1 1 1 1 1 1 1 1 1 1 1 1 1 1 1 1 1 1 1 1 1 1 1 1 1 1 1 1 1 1 1 1 1 1 1 1 1 1 1 1 1 1 1 1 1 1 1 1 1 1 1 1 1 1 1 1 1 1 1 1 1 1 1 1 1 1 1 1 1 1 1 1 1 1 1 1 1 1 1 1 1 1 1 1 1 1 1 1 1 1 1 1 1 1 1 1 1 1 1 1 1 1 1 1 1 1 1 1 1 1 1 1 1 1 1 1 1 1 1 1 1 1 1 1 1 1 1 1 1 1 1 1 1 1 1 1 1 1 1 1 1 1 1 1 1 1 1 1 1 1 }
                      1.8055762400e+00 stress_1
                     -1.8765016902e+02 stress_2
                     -3.8488520972e+02 stress_3
                     -4.0605061447e+02 stress_4
                     -1.6011772838e+02 stress_5
                      2.0205816055e+02 stress_6
                      3.4471277940e+02 stress_7
                      3.4563937007e+02 stress_8
                      1.5928150367e+02 stress_9
                     -1.5857710044e+02 stress_10
                     -4.0588620441e+02 stress_11
                     -5.2932161019e+02 stress_12
                     -6.0968857703e+02 stress_13
                     -6.1705724623e+02 stress_14
                     -3.6744746997e+02 stress_15
                     -4.9266215058e+02 stress_16
                     -6.2265552878e+02 stress_17
                     -4.7707906540e+02 stress_18
                     -2.0554658601e+02 stress_19
                      8.5858456892e+01 stress_20
                      2.5116731040e+02 stress_21
                      3.7421214257e+02 stress_22
                      4.6014555072e+02 stress_23
                      4.9629730909e+02 stress_24
                      2.4624825878e+02 stress_25
                      3.4175423396e+02 stress_26
                      4.4953660494e+02 stress_27
                      4.7849961008e+02 stress_28
                      3.8682267434e+02 stress_29
                      2.2360300367e+02 stress_30
                      2.0623437952e+00 stress_31
                     -2.1072820668e+02 stress_32
                     -3.6139036921e+02 stress_33
                     -4.9618469288e+02 stress_34
                     -6.3175644407e+02 stress_35
                     -7.6625700473e+02 stress_36
                     -8.9476439663e+02 stress_37
                     -1.0120824563e+03 stress_38
                     -1.1133798926e+03 stress_39
                     -1.1944080802e+03 stress_40
                     -1.2518325184e+03 stress_41
                     -1.2832496103e+03 stress_42
                     -1.2717193243e+03 stress_43
                     -9.7904740557e+02 stress_44
                     -7.5041665399e+02 stress_45
                     -9.0414580146e+02 stress_46
                     -1.1839596667e+03 stress_47
                     -9.6103291589e+02 stress_48
                     -1.0377704372e+03 stress_49
                     -1.1575402031e+03 stress_50
                     -1.2871681891e+03 stress_51
                     -1.1603202717e+03 stress_52
                     -8.9874347434e+02 stress_53
                     -6.2154444943e+02 stress_54
                     -4.1852229851e+02 stress_55
                     -2.9267375476e+02 stress_56
                     -2.4104736942e+02 stress_57
                     -3.0544715086e+02 stress_58
                     -5.4671708361e+02 stress_59
                     -8.8240511017e+02 stress_60
                     -1.1000062410e+03 stress_61
                     -1.2017985753e+03 stress_62
                     -1.2336255990e+03 stress_63
                     -1.0323157264e+03 stress_64
                     -7.1642332440e+02 stress_65
                     -6.2464479770e+02 stress_66
                     -8.2848852862e+02 stress_67
                     -1.1690697697e+03 stress_68
                     -1.2818845856e+03 stress_69
                     -1.2837142859e+03 stress_70
                     -1.2125777768e+03 stress_71
                     -1.0832041068e+03 stress_72
                     -9.0689789160e+02 stress_73
                     -7.1065059530e+02 stress_74
                     -5.2491806385e+02 stress_75
                     -3.5912177023e+02 stress_76
                     -2.0634075792e+02 stress_77
                     -5.9493160892e+01 stress_78
                      8.4127028014e+01 stress_79
                      2.2408093815e+02 stress_80
                      3.5833885398e+02 stress_81
                      4.8419470606e+02 stress_82
                      5.9875337152e+02 stress_83
                      6.9923244553e+02 stress_84
                      7.8308594062e+02 stress_85
                      8.4817388240e+02 stress_86
                      8.9282223467e+02 stress_87
                      9.1583838425e+02 stress_88
                      8.6091913752e+02 stress_89
                      5.3832720057e+02 stress_90
                      3.6826966868e+02 stress_91
                      5.8480063350e+02 stress_92
                      8.9259391186e+02 stress_93
                      9.0084074893e+02 stress_94
                      8.5597601081e+02 stress_95
                      7.7554532912e+02 stress_96
                      6.6325841307e+02 stress_97
                      5.2749781135e+02 stress_98
                      3.8070070074e+02 stress_99
                      2.3430099359e+02 stress_100
                      9.3834076533e+01 stress_101
                     -4.0790707711e+01 stress_102
                     -1.7212381081e+02 stress_103
                     -3.0271819858e+02 stress_104
                     -4.3419027264e+02 stress_105
                     -5.6724596832e+02 stress_106
                     -7.0188303510e+02 stress_107
                     -8.3762094012e+02 stress_108
                     -9.7367248736e+02 stress_109
                     -1.1090653581e+03 stress_110
                     -1.2427116238e+03 stress_111
                     -1.3734506730e+03 stress_112
                     -1.5001142653e+03 stress_113
                     -1.6215393620e+03 stress_114
                     -1.7365844220e+03 stress_115
                     -1.8441590026e+03 stress_116
                     -1.9432235291e+03 stress_117
                     -2.0328369680e+03 stress_118
                     -2.1121347774e+03 stress_119
                     -2.1803316230e+03 stress_120
                     -2.2367819626e+03 stress_121
                     -2.2809299457e+03 stress_122
                     -2.3123397160e+03 stress_123
                     -2.3307169648e+03 stress_124
                     -2.3356541307e+03 stress_125
                     -2.2602789205e+03 stress_126
                     -2.0858107995e+03 stress_127
                     -1.8666991836e+03 stress_128
                     -1.6490225956e+03 stress_129
                     -1.4552215798e+03 stress_130
                     -1.2961711185e+03 stress_131
                     -1.1799937503e+03 stress_132
                     -1.1136010542e+03 stress_133
                     -1.1095913528e+03 stress_134
                     -1.4177418806e+03 stress_135
                     -1.4354909698e+03 stress_136
                     -1.2988678089e+03 stress_137
                     -1.3258108337e+03 stress_138
                     -1.4553019940e+03 stress_139
                     -1.6967630366e+03 stress_140
                     -1.9279759020e+03 stress_141
                     -2.0770449038e+03 stress_142
                     -2.1975990785e+03 stress_143
                     -2.2871808582e+03 stress_144
                     -2.3337573745e+03 stress_145
                     -2.3185761647e+03 stress_146
                     -2.1487138632e+03 stress_147
                     -1.9045846121e+03 stress_148
                     -1.6730612103e+03 stress_149
                     -1.4965147915e+03 stress_150
                     -1.3940920388e+03 stress_151
                     -1.3787939782e+03 stress_152
                     -1.5405695965e+03 stress_153
                     -1.8407710764e+03 stress_154
                     -2.1069400253e+03 stress_155
                     -2.2291877196e+03 stress_156
                     -2.2834566437e+03 stress_157
                     -2.1934387625e+03 stress_158
                     -1.9095024164e+03 stress_159
                     -1.7616652726e+03 stress_160
                     -1.8860781451e+03 stress_161
                     -2.1997159643e+03 stress_162
                     -2.3218136494e+03 stress_163
                     -2.3373020687e+03 stress_164
                     -2.3063104840e+03 stress_165
                     -2.2464609856e+03 stress_166
                     -2.1615524153e+03 stress_167
                     -2.0571975762e+03 stress_168
                     -1.9396990760e+03 stress_169
                     -1.8144554504e+03 stress_170
                     -1.6852336139e+03 stress_171
                     -1.5541017982e+03 stress_172
                     -1.4218636690e+03 stress_173
                     -1.2886375963e+03 stress_174
                     -1.1542121266e+03 stress_175
                     -1.0183543307e+03 stress_176
                     -8.8093896443e+02 stress_177
                     -7.4198179540e+02 stress_178
                     -6.0167297876e+02 stress_179
                     -4.6034426655e+02 stress_180
                     -3.1844407921e+02 stress_181
                     -1.7653307361e+02 stress_182
                     -3.5240436504e+01 stress_183
                      1.0473887801e+02 stress_184
                      2.4267618510e+02 stress_185
                      3.7781285036e+02 stress_186
                      5.0937825635e+02 stress_187
                      6.3660512648e+02 stress_188
                      7.5872773710e+02 stress_189
                      8.7500500598e+02 stress_190
                      9.8472268581e+02 stress_191
                      1.0871850309e+03 stress_192
                      1.1817627566e+03 stress_193
                      1.2678539769e+03 stress_194
                      1.3448992567e+03 stress_195
                      1.4124208760e+03 stress_196
                      1.4699713978e+03 stress_197
                      1.5171918119e+03 stress_198
                      1.5537784356e+03 stress_199
                      1.5794835867e+03 stress_200
                      1.5941503986e+03 stress_201
                      1.5948688077e+03 stress_202
                      1.3509105327e+03 stress_203
                      1.1226599377e+03 stress_204
                      1.2038636631e+03 stress_205
                      1.5419506494e+03 stress_206
                      1.5595517881e+03 stress_207
                      1.5120667478e+03 stress_208
                      1.4305448164e+03 stress_209
                      1.3233773899e+03 stress_210
                      1.1993355847e+03 stress_211
                      1.0653403393e+03 stress_212
                      9.2571247411e+02 stress_213
                      7.8274542658e+02 stress_214
                      6.3745459250e+02 stress_215
                      4.9028076611e+02 stress_216
                      3.4154617925e+02 stress_217
                      1.9164465016e+02 stress_218
                      4.1143894122e+01 stress_219
                     -1.0919257057e+02 stress_220
                     -2.5844095799e+02 stress_221
                     -4.0553818908e+02 stress_222
                     -5.4932671890e+02 stress_223
                     -6.8858176105e+02 stress_224
                     -8.2205771015e+02 stress_225
                     -9.4850583601e+02 stress_226
                     -1.0667030638e+03 stress_227
                     -1.1754954349e+03 stress_228
                     -1.2737692628e+03 stress_229
                     -1.3605363299e+03 stress_230
                     -1.4349042791e+03 stress_231
                     -1.4960795464e+03 stress_232
                     -1.5434447943e+03 stress_233
                     -1.5764976086e+03 stress_234
                     -1.5948752905e+03 stress_235
                     -1.5900365911e+03 stress_236
                     -1.3323314447e+03 stress_237
                     -1.1239019277e+03 stress_238
                     -1.2902515518e+03 stress_239
                     -1.5129129038e+03 stress_240
                     -1.2759718918e+03 stress_241
                     -1.1474823042e+03 stress_242
                     -1.4024820216e+03 stress_243
                     -1.5090637033e+03 stress_244
                     -1.6174793375e+03 stress_245
                     -1.4827114683e+03 stress_246
                     -1.2436641059e+03 stress_247
                     -9.9602286823e+02 stress_248
                     -7.9456276238e+02 stress_249
                     -6.6197670067e+02 stress_250
                     -6.1061890427e+02 stress_251
                     -6.8923529177e+02 stress_252
                     -9.3314334992e+02 stress_253
                     -1.2200333290e+03 stress_254
                     -1.4251382859e+03 stress_255
                     -1.5400275156e+03 stress_256
                     -1.5697034550e+03 stress_257
                     -1.3696565064e+03 stress_258
                     -1.0898385842e+03 stress_259
                     -9.7726223524e+02 stress_260
                     -1.1380383216e+03 stress_261
                     -1.4338429920e+03 stress_262
                     -1.6028068981e+03 stress_263
                     -1.6353940531e+03 stress_264
                     -1.6041594278e+03 stress_265
                     -1.5354098083e+03 stress_266
                     -1.4343526893e+03 stress_267
                     -1.3093282468e+03 stress_268
                     -1.1695121677e+03 stress_269
                     -1.0224777739e+03 stress_270
                     -8.7294428287e+02 stress_271
                     -7.2302569587e+02 stress_272
                     -5.7332469929e+02 stress_273
                     -4.2373717011e+02 stress_274
                     -2.7406487576e+02 stress_275
                     -1.2431327863e+02 stress_276
                      2.5254168108e+01 stress_277
                      1.7409789480e+02 stress_278
                      3.2145328084e+02 stress_279
                      4.6638294369e+02 stress_280
                      6.0782635767e+02 stress_281
                      7.4464650301e+02 stress_282
                      8.7566404208e+02 stress_283
                      9.9970391682e+02 stress_284
                      1.1156010997e+03 stress_285
                      1.2222526780e+03 stress_286
                      1.3186197032e+03 stress_287
                      1.4037363076e+03 stress_288
                      1.4767607837e+03 stress_289
                      1.5369549533e+03 stress_290
                      1.5836994232e+03 stress_291
                      1.6165283459e+03 stress_292
                      1.6350973482e+03 stress_293
                      1.6353715434e+03 stress_294
                      1.3818494856e+03 stress_295
                      1.1550908917e+03 stress_296
                      1.2524697907e+03 stress_297
                      1.5810219638e+03 stress_298
                      1.5933375735e+03 stress_299
                      1.5612358331e+03 stress_300
                      1.5053148258e+03 stress_301
                      1.4292778692e+03 stress_302
                      1.3376994503e+03 stress_303
                      1.2349315901e+03 stress_304
                      1.1246143723e+03 stress_305
                      1.0092685064e+03 stress_306
                      8.9043734208e+02 stress_307
                      7.6895961983e+02 stress_308
                      6.4516625943e+02 stress_309
                      5.1916213576e+02 stress_310
                      3.9094797778e+02 stress_311
                      2.6051227598e+02 stress_312
                      1.2791304025e+02 stress_313
                     -6.7330225799e+00 stress_314
                     -1.4322799744e+02 stress_315
                     -2.8129220904e+02 stress_316
                     -4.2058244383e+02 stress_317
                     -5.6069093181e+02 stress_318
                     -7.0115943788e+02 stress_319
                     -8.4149302102e+02 stress_320
                     -9.8115747819e+02 stress_321
                     -1.1196009707e+03 stress_322
                     -1.2562467645e+03 stress_323
                     -1.3905126198e+03 stress_324
                     -1.5218177544e+03 stress_325
                     -1.6495679913e+03 stress_326
                     -1.7731940398e+03 stress_327
                     -1.8921131570e+03 stress_328
                     -2.0057848687e+03 stress_329
                     -2.1136765833e+03 stress_330
                     -2.2152709691e+03 stress_331
                     -2.3100935079e+03 stress_332
                     -2.3976833119e+03 stress_333
                     -2.4776245448e+03 stress_334
                     -2.5495403108e+03 stress_335
                     -2.6130615431e+03 stress_336
                     -2.6679004016e+03 stress_337
                     -2.7137817865e+03 stress_338
                     -2.7504805208e+03 stress_339
                     -2.7778253109e+03 stress_340
                     -2.7956792672e+03 stress_341
                     -2.8039520514e+03 stress_342


Active response data for evaluation 27:
Active set vector = { 1 1 1 1 1 1 1 1 1 1 1 1 1 1 1 1 1 1 1 1 1 1 1 1 1 1 1 1 1 1 1 1 1 1 1 1 1 1 1 1 1 1 1 1 1 1 1 1 1 1 1 1 1 1 1 1 1 1 1 1 1 1 1 1 1 1 1 1 1 1 1 1 1 1 1 1 1 1 1 1 1 1 1 1 1 1 1 1 1 1 1 1 1 1 1 1 1 1 1 1 1 1 1 1 1 1 1 1 1 1 1 1 1 1 1 1 1 1 1 1 1 1 1 1 1 1 1 1 1 1 1 1 1 1 1 1 1 1 1 1 1 1 1 1 1 1 1 1 1 1 1 1 1 1 1 1 1 1 1 1 1 1 1 1 1 1 1 1 1 1 1 1 1 1 1 1 1 1 1 1 1 1 1 1 1 1 1 1 1 1 1 1 1 1 1 1 1 1 1 1 1 1 1 1 1 1 1 1 1 1 1 1 1 1 1 1 1 1 1 1 1 1 1 1 1 1 1 1 1 1 1 1 1 1 1 1 1 1 1 1 1 1 1 1 1 1 1 1 1 1 1 1 1 1 1 1 1 1 1 1 1 1 1 1 1 1 1 1 1 1 1 1 1 1 1 1 1 1 1 1 1 1 1 1 1 1 1 1 1 1 1 1 1 1 1 1 1 1 1 1 1 1 1 1 1 1 1 1 1 1 1 1 1 1 1 1 1 1 1 1 1 1 1 1 1 1 1 1 1 1 1 1 1 1 1 1 1 1 1 1 1 1 }
                      1.8055762400e+00 stress_1
                     -1.8765016902e+02 stress_2
                     -3.8488520972e+02 stress_3
                     -4.0605061447e+02 stress_4
                     -1.6011772815e+02 stress_5
                      2.0207106850e+02 stress_6
                      3.4471758598e+02 stress_7
                      3.4564405100e+02 stress_8
                      1.5928618460e+02 stress_9
                     -1.5857422276e+02 stress_10
                     -4.0588986302e+02 stress_11
                     -5.2932170654e+02 stress_12
                     -6.0968858980e+02 stress_13
                     -6.1705725699e+02 stress_14
                     -3.6744719025e+02 stress_15
                     -4.9266187085e+02 stress_16
                     -6.2265548117e+02 stress_17
                     -4.7707901056e+02 stress_18
                     -2.0553563415e+02 stress_19
                      8.5966729434e+01 stress_20
                      2.5119700767e+02 stress_21
                      3.7421975550e+02 stress_22
                      4.6014880099e+02 stress_23
                      4.9629964305e+02 stress_24
                      2.4624846757e+02 stress_25
                      3.4175444275e+02 stress_26
                      4.4953683253e+02 stress_27
                      4.7849997617e+02 stress_28
                      3.8682303343e+02 stress_29
                      2.2360071370e+02 stress_30
                      1.9959171764e+00 stress_31
                     -2.1090214769e+02 stress_32
                     -3.6147305720e+02 stress_33
                     -4.9621276802e+02 stress_34
                     -6.3176683866e+02 stress_35
                     -7.6626145963e+02 stress_36
                     -8.9476660260e+02 stress_37
                     -1.0120837047e+03 stress_38
                     -1.1133806916e+03 stress_39
                     -1.1944086539e+03 stress_40
                     -1.2518329775e+03 stress_41
                     -1.2832500184e+03 stress_42
                     -1.2717197293e+03 stress_43
                     -9.7891843058e+02 stress_44
                     -7.4989243568e+02 stress_45
                     -9.0362158314e+02 stress_46
                     -1.1834678782e+03 stress_47
                     -9.6048965598e+02 stress_48
                     -1.0372271772e+03 stress_49
                     -1.1569972711e+03 stress_50
                     -1.2871582044e+03 stress_51
                     -1.1603010906e+03 stress_52
                     -8.9848029143e+02 stress_53
                     -6.2077957251e+02 stress_54
                     -4.1766860480e+02 stress_55
                     -2.9192006491e+02 stress_56
                     -2.4034995641e+02 stress_57
                     -3.0474973786e+02 stress_58
                     -5.4602065024e+02 stress_59
                     -8.8191250133e+02 stress_60
                     -1.0999859688e+03 stress_61
                     -1.2018061958e+03 stress_62
                     -1.2336326336e+03 stress_63
                     -1.0322912827e+03 stress_64
                     -7.1598187954e+02 stress_65
                     -6.2403764294e+02 stress_66
                     -8.2788137508e+02 stress_67
                     -1.1687314551e+03 stress_68
                     -1.2818798245e+03 stress_69
                     -1.2837099602e+03 stress_70
                     -1.2125720530e+03 stress_71
                     -1.0831618920e+03 stress_72
                     -9.0666100646e+02 stress_73
                     -7.1004432961e+02 stress_74
                     -5.2407305945e+02 stress_75
                     -3.5830946401e+02 stress_76
                     -2.0568454639e+02 stress_77
                     -5.8994012101e+01 stress_78
                      8.4504245235e+01 stress_79
                      2.2437082569e+02 stress_80
                      3.5856756217e+02 stress_81
                      4.8438060438e+02 stress_82
                      5.9890918776e+02 stress_83
                      6.9936709788e+02 stress_84
                      7.8320584900e+02 stress_85
                      8.4828384501e+02 stress_86
                      8.9292602610e+02 stress_87
                      9.1593918153e+02 stress_88
                      8.6101621876e+02 stress_89
                      5.3792668229e+02 stress_90
                      3.6739326802e+02 stress_91
                      5.8392423289e+02 stress_92
                      8.9196593620e+02 stress_93
                      9.0027757796e+02 stress_94
                      8.5541122204e+02 stress_95
                      7.7495494531e+02 stress_96
                      6.6255483671e+02 stress_97
                      5.2654180965e+02 stress_98
                      3.7941964687e+02 stress_99
                      2.3278394876e+02 stress_100
                      9.2264090847e+01 stress_101
                     -4.2260592507e+01 stress_102
                     -1.7341796033e+02 stress_103
                     -3.0382118006e+02 stress_104
                     -4.3511737491e+02 stress_105
                     -5.6802311941e+02 stress_106
                     -7.0253690994e+02 stress_107
                     -8.3817512788e+02 stress_108
                     -9.7414654333e+02 stress_109
                     -1.1094750197e+03 stress_110
                     -1.2430694021e+03 stress_111
                     -1.3737664878e+03 stress_112
                     -1.5003959953e+03 stress_113
                     -1.6217933012e+03 stress_114
                     -1.7368156391e+03 stress_115
                     -1.8443716181e+03 stress_116
                     -1.9434209312e+03 stress_117
                     -2.0330219746e+03 stress_118
                     -2.1123097671e+03 stress_119
                     -2.1804986375e+03 stress_120
                     -2.2369427831e+03 stress_121
                     -2.2810861605e+03 stress_122
                     -2.3124927742e+03 stress_123
                     -2.3308682206e+03 stress_124
                     -2.3358049078e+03 stress_125
                     -2.2603568050e+03 stress_126
                     -2.0852565392e+03 stress_127
                     -1.8649768338e+03 stress_128
                     -1.6463075378e+03 stress_129
                     -1.4519764935e+03 stress_130
                     -1.2927307131e+03 stress_131
                     -1.1765145313e+03 stress_132
                     -1.1101288866e+03 stress_133
                     -1.1061201721e+03 stress_134
                     -1.4142911510e+03 stress_135
                     -1.4320478503e+03 stress_136
                     -1.2952939002e+03 stress_137
                     -1.3222369250e+03 stress_138
                     -1.4517299137e+03 stress_139
                     -1.6935434642e+03 stress_140
                     -1.9270636587e+03 stress_141
                     -2.0769323395e+03 stress_142
                     -2.1975787329e+03 stress_143
                     -2.2871746630e+03 stress_144
                     -2.3337540298e+03 stress_145
                     -2.3185702520e+03 stress_146
                     -2.1483051403e+03 stress_147
                     -1.9029503190e+03 stress_148
                     -1.6703394397e+03 stress_149
                     -1.4932668556e+03 stress_150
                     -1.3906678996e+03 stress_151
                     -1.3753508171e+03 stress_152
                     -1.5371264735e+03 stress_153
                     -1.8374704486e+03 stress_154
                     -2.1061515076e+03 stress_155
                     -2.2291123217e+03 stress_156
                     -2.2834318030e+03 stress_157
                     -2.1933196403e+03 stress_158
                     -1.9082002426e+03 stress_159
                     -1.7596088026e+03 stress_160
                     -1.8840216755e+03 stress_161
                     -2.1985356899e+03 stress_162
                     -2.3218050499e+03 stress_163
                     -2.3372978527e+03 stress_164
                     -2.3062946504e+03 stress_165
                     -2.2463526191e+03 stress_166
                     -2.1611782135e+03 stress_167
                     -2.0563496844e+03 stress_168
                     -1.9382295519e+03 stress_169
                     -1.8123336340e+03 stress_170
                     -1.6825390274e+03 stress_171
                     -1.5509772446e+03 stress_172
                     -1.4184660972e+03 stress_173
                     -1.2851063868e+03 stress_174
                     -1.1506558508e+03 stress_175
                     -1.0148498305e+03 stress_176
                     -8.7753611550e+02 stress_177
                     -7.3870984889e+02 stress_178
                     -5.9854643234e+02 stress_179
                     -4.5736759801e+02 stress_180
                     -3.1561527329e+02 stress_181
                     -1.7384610175e+02 stress_182
                     -3.2686971645e+01 stress_183
                      1.0716833497e+02 stress_184
                      2.4499156548e+02 stress_185
                      3.8002406248e+02 stress_186
                      5.1149491029e+02 stress_187
                      6.3863637871e+02 stress_188
                      7.6068222297e+02 stress_189
                      8.7689081367e+02 stress_190
                      9.8654736651e+02 stress_191
                      1.0889556362e+03 stress_192
                      1.1834858648e+03 stress_193
                      1.2695357490e+03 stress_194
                      1.3465454882e+03 stress_195
                      1.4140370337e+03 stress_196
                      1.4715626811e+03 stress_197
                      1.5187631879e+03 stress_198
                      1.5553346897e+03 stress_199
                      1.5810293704e+03 stress_200
                      1.5956902643e+03 stress_201
                      1.5964083846e+03 stress_202
                      1.3512265911e+03 stress_203
                      1.1212401339e+03 stress_204
                      1.2024438593e+03 stress_205
                      1.5405692859e+03 stress_206
                      1.5582079189e+03 stress_207
                      1.5106623830e+03 stress_208
                      1.4288419580e+03 stress_209
                      1.3210803018e+03 stress_210
                      1.1962631851e+03 stress_211
                      1.0614930301e+03 stress_212
                      9.2122726973e+02 stress_213
                      7.7781612983e+02 stress_214
                      6.3227053963e+02 stress_215
                      4.8499696470e+02 stress_216
                      3.3627609131e+02 stress_217
                      1.8646431331e+02 stress_218
                      3.6099864505e+01 stress_219
                     -1.1407525327e+02 stress_220
                     -2.6315215589e+02 stress_221
                     -4.1007768038e+02 stress_222
                     -5.5370062323e+02 stress_223
                     -6.9280008018e+02 stress_224
                     -8.2613266287e+02 stress_225
                     -9.5245077843e+02 stress_226
                     -1.0705318012e+03 stress_227
                     -1.1792217831e+03 stress_228
                     -1.2774068373e+03 stress_229
                     -1.3640983919e+03 stress_230
                     -1.4384037045e+03 stress_231
                     -1.4995288529e+03 stress_232
                     -1.5468561479e+03 stress_233
                     -1.5798829098e+03 stress_234
                     -1.5982462579e+03 stress_235
                     -1.5934073674e+03 stress_236
                     -1.3348554314e+03 stress_237
                     -1.1250386914e+03 stress_238
                     -1.2913941332e+03 stress_239
                     -1.5139973343e+03 stress_240
                     -1.2764301256e+03 stress_241
                     -1.1472587576e+03 stress_242
                     -1.4023514939e+03 stress_243
                     -1.5091049863e+03 stress_244
                     -1.6176636188e+03 stress_245
                     -1.4827014719e+03 stress_246
                     -1.2426188229e+03 stress_247
                     -9.9376789962e+02 stress_248
                     -7.9163943719e+02 stress_249
                     -6.5881113526e+02 stress_250
                     -6.0739719267e+02 stress_251
                     -6.8601554038e+02 stress_252
                     -9.3016950988e+02 stress_253
                     -1.2183845260e+03 stress_254
                     -1.4246017532e+03 stress_255
                     -1.5398511184e+03 stress_256
                     -1.5695869528e+03 stress_257
                     -1.3691609512e+03 stress_258
                     -1.0880663515e+03 stress_259
                     -9.7498252136e+02 stress_260
                     -1.1357870416e+03 stress_261
                     -1.4326225406e+03 stress_262
                     -1.6024912607e+03 stress_263
                     -1.6351800033e+03 stress_264
                     -1.6039364249e+03 stress_265
                     -1.5350940550e+03 stress_266
                     -1.4337402778e+03 stress_267
                     -1.3081742645e+03 stress_268
                     -1.1676690025e+03 stress_269
                     -1.0199640249e+03 stress_270
                     -8.6990754119e+02 stress_271
                     -7.1966122231e+02 stress_272
                     -5.6981250792e+02 stress_273
                     -4.2021404130e+02 stress_274
                     -2.7062160076e+02 stress_275
                     -1.2100298561e+02 stress_276
                      2.8405351441e+01 stress_277
                      1.7708162889e+02 stress_278
                      3.2427217902e+02 stress_279
                      4.6904590882e+02 stress_280
                      6.1034556942e+02 stress_281
                      7.4703555072e+02 stress_282
                      8.7793682070e+02 stress_283
                      1.0018739969e+03 stress_284
                      1.1176814203e+03 stress_285
                      1.2242554030e+03 stress_286
                      1.3205562039e+03 stress_287
                      1.4056172141e+03 stress_288
                      1.4785960488e+03 stress_289
                      1.5387539575e+03 stress_290
                      1.5854710843e+03 stress_291
                      1.6182812173e+03 stress_292
                      1.6368397392e+03 stress_293
                      1.6371137805e+03 stress_294
                      1.3823508625e+03 stress_295
                      1.1538595029e+03 stress_296
                      1.2512384019e+03 stress_297
                      1.5800802308e+03 stress_298
                      1.5925267315e+03 stress_299
                      1.5603972736e+03 stress_300
                      1.5043258260e+03 stress_301
                      1.4279434782e+03 stress_302
                      1.3358262115e+03 stress_303
                      1.2323954631e+03 stress_304
                      1.1213891362e+03 stress_305
                      1.0054131660e+03 stress_306
                      8.8606408725e+02 stress_307
                      7.6420123470e+02 stress_308
                      6.4015224790e+02 stress_309
                      5.1400560089e+02 stress_310
                      3.8574053293e+02 stress_311
                      2.5532400116e+02 stress_312
                      1.2279493855e+02 stress_313
                     -1.1745677516e+01 stress_314
                     -1.4811229888e+02 stress_315
                     -2.8603465295e+02 stress_316
                     -4.2517647584e+02 stress_317
                     -5.6513501932e+02 stress_318
                     -7.0545558791e+02 stress_319
                     -8.4564566251e+02 stress_320
                     -9.8517264676e+02 stress_321
                     -1.1234857031e+03 stress_322
                     -1.2600086759e+03 stress_323
                     -1.3941595946e+03 stress_324
                     -1.5253577307e+03 stress_325
                     -1.6530088296e+03 stress_326
                     -1.7765434151e+03 stress_327
                     -1.8953785193e+03 stress_328
                     -2.0089733922e+03 stress_329
                     -2.1167951612e+03 stress_330
                     -2.2183262186e+03 stress_331
                     -2.3130917682e+03 stress_332
                     -2.4006306691e+03 stress_333
                     -2.4805268432e+03 stress_334
                     -2.5524031730e+03 stress_335
                     -2.6158904092e+03 stress_336
                     -2.6707005311e+03 stress_337
                     -2.7165582983e+03 stress_338
                     -2.7532384145e+03 stress_339
                     -2.7805694870e+03 stress_340
                     -2.7984145572e+03 stress_341
                     -2.8066832426e+03 stress_342


Active response data for evaluation 28:
Active set vector = { 1 1 1 1 1 1 1 1 1 1 1 1 1 1 1 1 1 1 1 1 1 1 1 1 1 1 1 1 1 1 1 1 1 1 1 1 1 1 1 1 1 1 1 1 1 1 1 1 1 1 1 1 1 1 1 1 1 1 1 1 1 1 1 1 1 1 1 1 1 1 1 1 1 1 1 1 1 1 1 1 1 1 1 1 1 1 1 1 1 1 1 1 1 1 1 1 1 1 1 1 1 1 1 1 1 1 1 1 1 1 1 1 1 1 1 1 1 1 1 1 1 1 1 1 1 1 1 1 1 1 1 1 1 1 1 1 1 1 1 1 1 1 1 1 1 1 1 1 1 1 1 1 1 1 1 1 1 1 1 1 1 1 1 1 1 1 1 1 1 1 1 1 1 1 1 1 1 1 1 1 1 1 1 1 1 1 1 1 1 1 1 1 1 1 1 1 1 1 1 1 1 1 1 1 1 1 1 1 1 1 1 1 1 1 1 1 1 1 1 1 1 1 1 1 1 1 1 1 1 1 1 1 1 1 1 1 1 1 1 1 1 1 1 1 1 1 1 1 1 1 1 1 1 1 1 1 1 1 1 1 1 1 1 1 1 1 1 1 1 1 1 1 1 1 1 1 1 1 1 1 1 1 1 1 1 1 1 1 1 1 1 1 1 1 1 1 1 1 1 1 1 1 1 1 1 1 1 1 1 1 1 1 1 1 1 1 1 1 1 1 1 1 1 1 1 1 1 1 1 1 1 1 1 1 1 1 1 1 1 1 1 1 }
                      1.8055762400e+00 stress_1
                     -1.8765016909e+02 stress_2
                     -3.8488712614e+02 stress_3
                     -4.0605253091e+02 stress_4
                     -1.6011964468e+02 stress_5
                      2.0206448295e+02 stress_6
                      3.4471564159e+02 stress_7
                      3.4564215812e+02 stress_8
                      1.5928429173e+02 stress_9
                     -1.5857544292e+02 stress_10
                     -4.0589097724e+02 stress_11
                     -5.2932430341e+02 stress_12
                     -6.0969122040e+02 stress_13
                     -6.1705988839e+02 stress_14
                     -3.6744989403e+02 stress_15
                     -4.9266457464e+02 stress_16
                     -6.2265921026e+02 stress_17
                     -4.7708274142e+02 stress_18
                     -2.0554201855e+02 stress_19
                      8.5938184955e+01 stress_20
                      2.5118946377e+02 stress_21
                      3.7421783812e+02 stress_22
                      4.6014798516e+02 stress_23
                      4.9629905787e+02 stress_24
                      2.4624831345e+02 stress_25
                      3.4175428863e+02 stress_26
                      4.4953666939e+02 stress_27
                      4.7849974751e+02 stress_28
                      3.8682280619e+02 stress_29
                      2.2360102354e+02 stress_30
                      2.0091198462e+00 stress_31
                     -2.1086887353e+02 stress_32
                     -3.6146021307e+02 stress_33
                     -4.9621154027e+02 stress_34
                     -6.3176932546e+02 stress_35
                     -7.6626518689e+02 stress_36
                     -8.9477079783e+02 stress_37
                     -1.0120880987e+03 stress_38
                     -1.1133851787e+03 stress_39
                     -1.1944131876e+03 stress_40
                     -1.2518375349e+03 stress_41
                     -1.2832545864e+03 stress_42
                     -1.2717242976e+03 stress_43
                     -9.7893684540e+02 stress_44
                     -7.4995315753e+02 stress_45
                     -9.0368230499e+02 stress_46
                     -1.1835250334e+03 stress_47
                     -9.6055243061e+02 stress_48
                     -1.0372899519e+03 stress_49
                     -1.1570600094e+03 stress_50
                     -1.2871672151e+03 stress_51
                     -1.1603110724e+03 stress_52
                     -8.9851610917e+02 stress_53
                     -6.2086771174e+02 stress_54
                     -4.1776417138e+02 stress_55
                     -2.9200363863e+02 stress_56
                     -2.4042706092e+02 stress_57
                     -3.0482684236e+02 stress_58
                     -5.4609757761e+02 stress_59
                     -8.8195863041e+02 stress_60
                     -1.0999849887e+03 stress_61
                     -1.2018097301e+03 stress_62
                     -1.2336373913e+03 stress_63
                     -1.0322995249e+03 stress_64
                     -7.1603632957e+02 stress_65
                     -6.2411028797e+02 stress_66
                     -8.2795401990e+02 stress_67
                     -1.1687707857e+03 stress_68
                     -1.2818877985e+03 stress_69
                     -1.2837179273e+03 stress_70
                     -1.2125801676e+03 stress_71
                     -1.0831738811e+03 stress_72
                     -9.0669368427e+02 stress_73
                     -7.1011597266e+02 stress_74
                     -5.2416887507e+02 stress_75
                     -3.5840006281e+02 stress_76
                     -2.0575707899e+02 stress_77
                     -5.9048864189e+01 stress_78
                      8.4462962270e+01 stress_79
                      2.2433919698e+02 stress_80
                      3.5854266707e+02 stress_81
                      4.8436040627e+02 stress_82
                      5.9889228248e+02 stress_83
                      6.9935250516e+02 stress_84
                      7.8319286522e+02 stress_85
                      8.4827194552e+02 stress_86
                      8.9291479895e+02 stress_87
                      9.1592828046e+02 stress_88
                      8.6100562676e+02 stress_89
                      5.3795793620e+02 stress_90
                      3.6746435797e+02 stress_91
                      5.8399532284e+02 stress_92
                      8.9201605316e+02 stress_93
                      9.0032233308e+02 stress_94
                      8.5545611516e+02 stress_95
                      7.7500203919e+02 stress_96
                      6.6261170682e+02 stress_97
                      5.2662051140e+02 stress_98
                      3.7952635349e+02 stress_99
                      2.3291061988e+02 stress_100
                      9.2394531736e+01 stress_101
                     -4.2139760477e+01 stress_102
                     -1.7331320110e+02 stress_103
                     -3.0373365485e+02 stress_104
                     -4.3504558376e+02 stress_105
                     -5.6796467447e+02 stress_106
                     -7.0248939583e+02 stress_107
                     -8.3813642705e+02 stress_108
                     -9.7411491009e+02 stress_109
                     -1.1094490548e+03 stress_110
                     -1.2430479967e+03 stress_111
                     -1.3737487649e+03 stress_112
                     -1.5003812600e+03 stress_113
                     -1.6217809991e+03 stress_114
                     -1.7368053247e+03 stress_115
                     -1.8443629296e+03 stress_116
                     -1.9434135715e+03 stress_117
                     -2.0330156970e+03 stress_118
                     -2.1123043635e+03 stress_119
                     -2.1804939295e+03 stress_120
                     -2.2369386152e+03 stress_121
                     -2.2810823940e+03 stress_122
                     -2.3124892828e+03 stress_123
                     -2.3308648863e+03 stress_124
                     -2.3358016151e+03 stress_125
                     -2.2603573103e+03 stress_126
                     -2.0852904135e+03 stress_127
                     -1.8650727440e+03 stress_128
                     -1.6464560686e+03 stress_129
                     -1.4521527801e+03 stress_130
                     -1.2929168835e+03 stress_131
                     -1.1767023644e+03 stress_132
                     -1.1103161151e+03 stress_133
                     -1.1063073344e+03 stress_134
                     -1.4144764873e+03 stress_135
                     -1.4322325307e+03 stress_136
                     -1.2954878668e+03 stress_137
                     -1.3224308916e+03 stress_138
                     -1.4519237190e+03 stress_139
                     -1.6937114163e+03 stress_140
                     -1.9271010665e+03 stress_141
                     -2.0769440254e+03 stress_142
                     -2.1975911178e+03 stress_143
                     -2.2871878463e+03 stress_144
                     -2.3337675030e+03 stress_145
                     -2.3185838566e+03 stress_146
                     -2.1483397911e+03 stress_147
                     -1.9030492978e+03 stress_148
                     -1.6704950292e+03 stress_149
                     -1.4934491705e+03 stress_150
                     -1.3908587834e+03 stress_151
                     -1.3755425911e+03 stress_152
                     -1.5373182441e+03 stress_153
                     -1.8376517704e+03 stress_154
                     -2.1061898947e+03 stress_155
                     -2.2291257448e+03 stress_156
                     -2.2834450701e+03 stress_157
                     -2.1933379059e+03 stress_158
                     -1.9082818825e+03 stress_159
                     -1.7597307931e+03 stress_160
                     -1.8841436659e+03 stress_161
                     -2.1986067912e+03 stress_162
                     -2.3218195758e+03 stress_163
                     -2.3373123055e+03 stress_164
                     -2.3063097002e+03 stress_165
                     -2.2463724722e+03 stress_166
                     -2.1612119466e+03 stress_167
                     -2.0564082223e+03 stress_168
                     -1.9383206374e+03 stress_169
                     -1.8124587425e+03 stress_170
                     -1.6826937485e+03 stress_171
                     -1.5511538223e+03 stress_172
                     -1.4186560856e+03 stress_173
                     -1.2853023506e+03 stress_174
                     -1.1508520586e+03 stress_175
                     -1.0150422813e+03 stress_176
                     -8.7772226431e+02 stress_177
                     -7.3888825339e+02 stress_178
                     -5.9871643062e+02 stress_179
                     -4.5752905148e+02 stress_180
                     -3.1576837694e+02 stress_181
                     -1.7399125204e+02 stress_182
                     -3.2824676010e+01 stress_183
                      1.0703751677e+02 stress_184
                      2.4486705939e+02 stress_185
                      3.7990530308e+02 stress_186
                      5.1138135422e+02 stress_187
                      6.3852751191e+02 stress_188
                      7.6057756340e+02 stress_189
                      8.7678991194e+02 stress_190
                      9.8644980472e+02 stress_191
                      1.0888610254e+03 stress_192
                      1.1833938433e+03 stress_193
                      1.2694459788e+03 stress_194
                      1.3464576521e+03 stress_195
                      1.4139508332e+03 stress_196
                      1.4714778326e+03 stress_197
                      1.5186794210e+03 stress_198
                      1.5552517440e+03 stress_199
                      1.5809469933e+03 stress_200
                      1.5956082085e+03 stress_201
                      1.5963263444e+03 stress_202
                      1.3511972802e+03 stress_203
                      1.1212864166e+03 stress_204
                      1.2024901420e+03 stress_205
                      1.5406140899e+03 stress_206
                      1.5582513355e+03 stress_207
                      1.5107084257e+03 stress_208
                      1.4289011251e+03 stress_209
                      1.3211658106e+03 stress_210
                      1.1963832240e+03 stress_211
                      1.0616476360e+03 stress_212
                      9.2141028887e+02 stress_213
                      7.7801882677e+02 stress_214
                      6.3248438570e+02 stress_215
                      4.8521499671e+02 stress_216
                      3.3649323497e+02 stress_217
                      1.8667718979e+02 stress_218
                      3.6306424981e+01 stress_219
                     -1.1387609161e+02 stress_220
                     -2.6296081057e+02 stress_221
                     -4.0989412916e+02 stress_222
                     -5.5352456499e+02 stress_223
                     -6.9263104503e+02 stress_224
                     -8.2597008625e+02 stress_225
                     -9.5229404888e+02 stress_226
                     -1.0703802905e+03 stress_227
                     -1.1790748653e+03 stress_228
                     -1.2772638977e+03 stress_229
                     -1.3639588334e+03 stress_230
                     -1.4382669487e+03 stress_231
                     -1.4993943384e+03 stress_232
                     -1.5467233299e+03 stress_233
                     -1.5797512560e+03 stress_234
                     -1.5981152445e+03 stress_235
                     -1.5932763639e+03 stress_236
                     -1.3347684520e+03 stress_237
                     -1.1250230868e+03 stress_238
                     -1.2913767800e+03 stress_239
                     -1.5139574192e+03 stress_240
                     -1.2764242608e+03 stress_241
                     -1.1472899940e+03 stress_242
                     -1.4023705315e+03 stress_243
                     -1.5091025933e+03 stress_244
                     -1.6176462887e+03 stress_245
                     -1.4826948701e+03 stress_246
                     -1.2426703338e+03 stress_247
                     -9.9388809073e+02 stress_248
                     -7.9179790933e+02 stress_249
                     -6.5898363600e+02 stress_250
                     -6.0757299120e+02 stress_251
                     -6.8619116359e+02 stress_252
                     -9.3032477966e+02 stress_253
                     -1.2184435804e+03 stress_254
                     -1.4245980365e+03 stress_255
                     -1.5398354490e+03 stress_256
                     -1.5695704224e+03 stress_257
                     -1.3691662839e+03 stress_258
                     -1.0881471821e+03 stress_259
                     -9.7509396285e+02 stress_260
                     -1.1358959697e+03 stress_261
                     -1.4326594687e+03 stress_262
                     -1.6024882103e+03 stress_263
                     -1.6351753801e+03 stress_264
                     -1.6039322926e+03 stress_265
                     -1.5350950878e+03 stress_266
                     -1.4337580379e+03 stress_267
                     -1.3082228998e+03 stress_268
                     -1.1677573404e+03 stress_269
                     -1.0200914217e+03 stress_270
                     -8.7006583710e+02 stress_271
                     -7.1983936306e+02 stress_272
                     -5.7000019354e+02 stress_273
                     -4.2040338363e+02 stress_274
                     -2.7080731756e+02 stress_275
                     -1.2118194296e+02 stress_276
                      2.8234740403e+01 stress_277
                      1.7691992740e+02 stress_278
                      3.2411931640e+02 stress_279
                      4.6890144704e+02 stress_280
                      6.1020887577e+02 stress_281
                      7.4690590514e+02 stress_282
                      8.7781347964e+02 stress_283
                      1.0017562300e+03 stress_284
                      1.1175685287e+03 stress_285
                      1.2241467282e+03 stress_286
                      1.3204511292e+03 stress_287
                      1.4055151624e+03 stress_288
                      1.4784964794e+03 stress_289
                      1.5386563605e+03 stress_290
                      1.5853749748e+03 stress_291
                      1.6181861300e+03 stress_292
                      1.6367452221e+03 stress_293
                      1.6370192718e+03 stress_294
                      1.3823103861e+03 stress_295
                      1.1538953869e+03 stress_296
                      1.2512742859e+03 stress_297
                      1.5801056092e+03 stress_298
                      1.5925478337e+03 stress_299
                      1.5604195788e+03 stress_300
                      1.5043547421e+03 stress_301
                      1.4279876979e+03 stress_302
                      1.3358944421e+03 stress_303
                      1.2324933357e+03 stress_304
                      1.1215178699e+03 stress_305
                      1.0055701056e+03 stress_306
                      8.8624415098e+02 stress_307
                      7.6439840219e+02 stress_308
                      6.4036065329e+02 stress_309
                      5.1422013285e+02 stress_310
                      3.8595706514e+02 stress_311
                      2.5553939118e+02 stress_312
                      1.2300691271e+02 stress_313
                     -1.1538679204e+01 stress_314
                     -1.4791127757e+02 stress_315
                     -2.8584018681e+02 stress_316
                     -4.2498883197e+02 stress_317
                     -5.6495424138e+02 stress_318
                     -7.0528156320e+02 stress_319
                     -8.4547817228e+02 stress_320
                     -9.8501140282e+02 stress_321
                     -1.1233303748e+03 stress_322
                     -1.2598589089e+03 stress_323
                     -1.3940150245e+03 stress_324
                     -1.5252179925e+03 stress_325
                     -1.6528735633e+03 stress_326
                     -1.7764122702e+03 stress_327
                     -1.8952511568e+03 stress_328
                     -2.0088494861e+03 stress_329
                     -2.1166743992e+03 stress_330
                     -2.2182083014e+03 stress_331
                     -2.3129764095e+03 stress_332
                     -2.4005175944e+03 stress_333
                     -2.4804157894e+03 stress_334
                     -2.5522938871e+03 stress_335
                     -2.6157826469e+03 stress_336
                     -2.6705940563e+03 stress_337
                     -2.7164528813e+03 stress_338
                     -2.7531338313e+03 stress_339
                     -2.7804655180e+03 stress_340
                     -2.7983109860e+03 stress_341
                     -2.8065798550e+03 stress_342


Active response data for evaluation 29:
Active set vector = { 1 1 1 1 1 1 1 1 1 1 1 1 1 1 1 1 1 1 1 1 1 1 1 1 1 1 1 1 1 1 1 1 1 1 1 1 1 1 1 1 1 1 1 1 1 1 1 1 1 1 1 1 1 1 1 1 1 1 1 1 1 1 1 1 1 1 1 1 1 1 1 1 1 1 1 1 1 1 1 1 1 1 1 1 1 1 1 1 1 1 1 1 1 1 1 1 1 1 1 1 1 1 1 1 1 1 1 1 1 1 1 1 1 1 1 1 1 1 1 1 1 1 1 1 1 1 1 1 1 1 1 1 1 1 1 1 1 1 1 1 1 1 1 1 1 1 1 1 1 1 1 1 1 1 1 1 1 1 1 1 1 1 1 1 1 1 1 1 1 1 1 1 1 1 1 1 1 1 1 1 1 1 1 1 1 1 1 1 1 1 1 1 1 1 1 1 1 1 1 1 1 1 1 1 1 1 1 1 1 1 1 1 1 1 1 1 1 1 1 1 1 1 1 1 1 1 1 1 1 1 1 1 1 1 1 1 1 1 1 1 1 1 1 1 1 1 1 1 1 1 1 1 1 1 1 1 1 1 1 1 1 1 1 1 1 1 1 1 1 1 1 1 1 1 1 1 1 1 1 1 1 1 1 1 1 1 1 1 1 1 1 1 1 1 1 1 1 1 1 1 1 1 1 1 1 1 1 1 1 1 1 1 1 1 1 1 1 1 1 1 1 1 1 1 1 1 1 1 1 1 1 1 1 1 1 1 1 1 1 1 1 1 }
                      1.8055762400e+00 stress_1
                     -1.8765016902e+02 stress_2
                     -3.8488520972e+02 stress_3
                     -4.0605061447e+02 stress_4
                     -1.6011772817e+02 stress_5
                      2.0207743599e+02 stress_6
                      3.4476760379e+02 stress_7
                      3.4569417574e+02 stress_8
                      1.5933630934e+02 stress_9
                     -1.5852433252e+02 stress_10
                     -4.0588723323e+02 stress_11
                     -5.2932166106e+02 stress_12
                     -6.0968858441e+02 stress_13
                     -6.1705725248e+02 stress_14
                     -3.6744723049e+02 stress_15
                     -4.9266191109e+02 stress_16
                     -6.2265548789e+02 stress_17
                     -4.7707901851e+02 stress_18
                     -2.0553686094e+02 stress_19
                      8.5989592727e+01 stress_20
                      2.5126771327e+02 stress_21
                      3.7429819546e+02 stress_22
                      4.6022858821e+02 stress_23
                      4.9637970140e+02 stress_24
                      2.4632882810e+02 stress_25
                      3.4183480328e+02 stress_26
                      4.4961721721e+02 stress_27
                      4.7858078035e+02 stress_28
                      3.8690383872e+02 stress_29
                      2.2368188784e+02 stress_30
                      2.0829264626e+00 stress_31
                     -2.1083399019e+02 stress_32
                     -3.6144965554e+02 stress_33
                     -4.9620570417e+02 stress_34
                     -6.3176437148e+02 stress_35
                     -7.6626043801e+02 stress_36
                     -8.9476610787e+02 stress_37
                     -1.0120834290e+03 stress_38
                     -1.1133805170e+03 stress_39
                     -1.1944085294e+03 stress_40
                     -1.2518328783e+03 stress_41
                     -1.2832499304e+03 stress_42
                     -1.2717196416e+03 stress_43
                     -9.7892735993e+02 stress_44
                     -7.4991899609e+02 stress_45
                     -9.0364814355e+02 stress_46
                     -1.1834924135e+03 stress_47
                     -9.6051803510e+02 stress_48
                     -1.0372555564e+03 stress_49
                     -1.1570256288e+03 stress_50
                     -1.2871585949e+03 stress_51
                     -1.1603022143e+03 stress_52
                     -8.9849680205e+02 stress_53
                     -6.2080505132e+02 stress_54
                     -4.1765892917e+02 stress_55
                     -2.9187777538e+02 stress_56
                     -2.4029471176e+02 stress_57
                     -3.0469449320e+02 stress_58
                     -5.4596531186e+02 stress_59
                     -8.8185079768e+02 stress_60
                     -1.0999610749e+03 stress_61
                     -1.2017987572e+03 stress_62
                     -1.2336275864e+03 stress_63
                     -1.0322887152e+03 stress_64
                     -7.1600121781e+02 stress_65
                     -6.2405897317e+02 stress_66
                     -8.2790270516e+02 stress_67
                     -1.1687372312e+03 stress_68
                     -1.2818791539e+03 stress_69
                     -1.2837093240e+03 stress_70
                     -1.2125715329e+03 stress_71
                     -1.0831641332e+03 stress_72
                     -9.0667543512e+02 stress_73
                     -7.1007158009e+02 stress_74
                     -5.2408611625e+02 stress_75
                     -3.5828469486e+02 stress_76
                     -2.0562119119e+02 stress_77
                     -5.8901436713e+01 stress_78
                      8.4616790838e+01 stress_79
                      2.2449667076e+02 stress_80
                      3.5870229793e+02 stress_81
                      4.8452136361e+02 stress_82
                      5.9905408264e+02 stress_83
                      6.9951485342e+02 stress_84
                      7.8335557286e+02 stress_85
                      8.4843488489e+02 stress_86
                      8.9307787766e+02 stress_87
                      9.1609142553e+02 stress_88
                      8.6116871891e+02 stress_89
                      5.3810711535e+02 stress_90
                      3.6759125569e+02 stress_91
                      5.8412222055e+02 stress_92
                      8.9216248871e+02 stress_93
                      9.0047394308e+02 stress_94
                      8.5560770291e+02 stress_95
                      7.7515316916e+02 stress_96
                      6.6276015761e+02 stress_97
                      5.2676068585e+02 stress_98
                      3.7965036879e+02 stress_99
                      2.3301279030e+02 stress_100
                      9.2474384724e+01 stress_101
                     -4.2078765026e+01 stress_102
                     -1.7326645153e+02 stress_103
                     -3.0369707827e+02 stress_104
                     -4.3501611475e+02 stress_105
                     -5.6794016171e+02 stress_106
                     -7.0246836859e+02 stress_107
                     -8.3811788437e+02 stress_108
                     -9.7409816624e+02 stress_109
                     -1.1094336343e+03 stress_110
                     -1.2430335647e+03 stress_111
                     -1.3737350818e+03 stress_112
                     -1.5003681516e+03 stress_113
                     -1.6217683367e+03 stress_114
                     -1.7367930115e+03 stress_115
                     -1.8443508917e+03 stress_116
                     -1.9434017516e+03 stress_117
                     -2.0330040498e+03 stress_118
                     -2.1122928525e+03 stress_119
                     -2.1804825248e+03 stress_120
                     -2.2369272917e+03 stress_121
                     -2.2810711303e+03 stress_122
                     -2.3124780595e+03 stress_123
                     -2.3308536860e+03 stress_124
                     -2.3357904209e+03 stress_125
                     -2.2603452697e+03 stress_126
                     -2.0852677596e+03 stress_127
                     -1.8650211094e+03 stress_128
                     -1.6463662929e+03 stress_129
                     -1.4520286549e+03 stress_130
                     -1.2927674596e+03 stress_131
                     -1.1765367507e+03 stress_132
                     -1.1101421519e+03 stress_133
                     -1.1061328875e+03 stress_134
                     -1.4143026962e+03 stress_135
                     -1.4320589924e+03 stress_136
                     -1.2953110110e+03 stress_137
                     -1.3222540358e+03 stress_138
                     -1.4517469203e+03 stress_139
                     -1.6935475931e+03 stress_140
                     -1.9270373065e+03 stress_141
                     -2.0769217741e+03 stress_142
                     -2.1975747771e+03 stress_143
                     -2.2871726214e+03 stress_144
                     -2.3337525420e+03 stress_145
                     -2.3185688730e+03 stress_146
                     -2.1483189206e+03 stress_147
                     -1.9030008710e+03 stress_148
                     -1.6704075944e+03 stress_149
                     -1.4933305367e+03 stress_150
                     -1.3907231435e+03 stress_151
                     -1.3754045181e+03 stress_152
                     -1.5371801721e+03 stress_153
                     -1.8375180776e+03 stress_154
                     -2.1061436568e+03 stress_155
                     -2.2291076931e+03 stress_156
                     -2.2834292896e+03 stress_157
                     -2.1933209646e+03 stress_158
                     -1.9082409543e+03 stress_159
                     -1.7596671788e+03 stress_160
                     -1.8840800516e+03 stress_161
                     -2.1985632023e+03 stress_162
                     -2.3218048789e+03 stress_163
                     -2.3372977289e+03 stress_164
                     -2.3062950100e+03 stress_165
                     -2.2463566443e+03 stress_166
                     -2.1611920666e+03 stress_167
                     -2.0563794014e+03 stress_168
                     -1.9382771601e+03 stress_169
                     -1.8123957012e+03 stress_170
                     -1.6826081734e+03 stress_171
                     -1.5510448907e+03 stress_172
                     -1.4185246733e+03 stress_173
                     -1.2851503781e+03 stress_174
                     -1.1506819081e+03 stress_175
                     -1.0148564063e+03 stress_176
                     -8.7752296770e+02 stress_177
                     -7.3867758514e+02 stress_178
                     -5.9849616097e+02 stress_179
                     -4.5730068117e+02 stress_180
                     -3.1553316498e+02 stress_181
                     -1.7375024989e+02 stress_182
                     -3.2578760185e+01 stress_183
                      1.0728761472e+02 stress_184
                      2.4512072753e+02 stress_185
                      3.8016202749e+02 stress_186
                      5.1164070133e+02 stress_187
                      6.3878911406e+02 stress_188
                      7.6084110686e+02 stress_189
                      8.7705512740e+02 stress_190
                      9.8671645939e+02 stress_191
                      1.0891289164e+03 stress_192
                      1.1836627926e+03 stress_193
                      1.2697158289e+03 stress_194
                      1.3467282618e+03 stress_195
                      1.4142220751e+03 stress_196
                      1.4717495904e+03 stress_197
                      1.5189515870e+03 stress_198
                      1.5555242174e+03 stress_199
                      1.5812196782e+03 stress_200
                      1.5958810124e+03 stress_201
                      1.5965991542e+03 stress_202
                      1.3514567826e+03 stress_203
                      1.1215170048e+03 stress_204
                      1.2027207302e+03 stress_205
                      1.5408475100e+03 stress_206
                      1.5584875447e+03 stress_207
                      1.5109442263e+03 stress_208
                      1.4291342631e+03 stress_209
                      1.3213920702e+03 stress_210
                      1.1965978332e+03 stress_211
                      1.0618468841e+03 stress_212
                      9.2159228521e+02 stress_213
                      7.7818338437e+02 stress_214
                      6.3263248509e+02 stress_215
                      4.8534823541e+02 stress_216
                      3.3661342691e+02 stress_217
                      1.8678612242e+02 stress_218
                      3.6405738234e+01 stress_219
                     -1.1378495132e+02 stress_220
                     -2.6287659623e+02 stress_221
                     -4.0981577836e+02 stress_222
                     -5.5345117763e+02 stress_223
                     -6.9256185913e+02 stress_224
                     -8.2590445560e+02 stress_225
                     -9.5223142287e+02 stress_226
                     -1.0703201970e+03 stress_227
                     -1.1790168963e+03 stress_228
                     -1.2772076969e+03 stress_229
                     -1.3639040867e+03 stress_230
                     -1.4382133752e+03 stress_231
                     -1.4993416832e+03 stress_232
                     -1.5466713584e+03 stress_233
                     -1.5796997481e+03 stress_234
                     -1.5980639897e+03 stress_235
                     -1.5932251076e+03 stress_236
                     -1.3347043647e+03 stress_237
                     -1.1249294987e+03 stress_238
                     -1.2912837214e+03 stress_239
                     -1.5138824402e+03 stress_240
                     -1.2763389815e+03 stress_241
                     -1.1471893360e+03 stress_242
                     -1.4022747839e+03 stress_243
                     -1.5090217670e+03 stress_244
                     -1.6175918975e+03 stress_245
                     -1.4826377139e+03 stress_246
                     -1.2425908422e+03 stress_247
                     -9.9376743473e+02 stress_248
                     -7.9163949075e+02 stress_249
                     -6.5880170742e+02 stress_250
                     -6.0738254890e+02 stress_251
                     -6.8600075837e+02 stress_252
                     -9.3014070827e+02 stress_253
                     -1.2183058876e+03 stress_254
                     -1.4245144571e+03 stress_255
                     -1.5397761239e+03 stress_256
                     -1.5695160261e+03 stress_257
                     -1.3691055604e+03 stress_258
                     -1.0880524250e+03 stress_259
                     -9.7497949047e+02 stress_260
                     -1.1357820472e+03 stress_261
                     -1.4325755353e+03 stress_262
                     -1.6024421281e+03 stress_263
                     -1.6351349380e+03 stress_264
                     -1.6038917510e+03 stress_265
                     -1.5350532346e+03 stress_266
                     -1.4337108858e+03 stress_267
                     -1.3081634648e+03 stress_268
                     -1.1676777075e+03 stress_269
                     -1.0199855644e+03 stress_270
                     -8.6993112186e+02 stress_271
                     -7.1967629328e+02 stress_272
                     -5.6981129445e+02 stress_273
                     -4.2019206294e+02 stress_274
                     -2.7057709686e+02 stress_275
                     -1.2093605709e+02 stress_276
                      2.8493500714e+01 stress_277
                      1.7718923420e+02 stress_278
                      3.2439726243e+02 stress_279
                      4.6918648259e+02 stress_280
                      6.1049974423e+02 stress_281
                      7.4720158565e+02 stress_282
                      8.7811313875e+02 stress_283
                      1.0020591828e+03 stress_284
                      1.1178742074e+03 stress_285
                      1.2244546573e+03 stress_286
                      1.3207609061e+03 stress_287
                      1.4058264414e+03 stress_288
                      1.4788089593e+03 stress_289
                      1.5389697744e+03 stress_290
                      1.5856890815e+03 stress_291
                      1.6185007072e+03 stress_292
                      1.6370600598e+03 stress_293
                      1.6373341133e+03 stress_294
                      1.3826103438e+03 stress_295
                      1.1541642299e+03 stress_296
                      1.2515431289e+03 stress_297
                      1.5803908451e+03 stress_298
                      1.5928406540e+03 stress_299
                      1.5607121907e+03 stress_300
                      1.5046459294e+03 stress_301
                      1.4282748603e+03 stress_302
                      1.3361739425e+03 stress_303
                      1.2327613209e+03 stress_304
                      1.1217711068e+03 stress_305
                      1.0058064597e+03 stress_306
                      8.8646267300e+02 stress_307
                      7.6459915050e+02 stress_308
                      6.4054440010e+02 stress_309
                      5.1438808569e+02 stress_310
                      3.8611064152e+02 stress_311
                      2.5568006155e+02 stress_312
                      1.2313610491e+02 stress_313
                     -1.1419635675e+01 stress_314
                     -1.4780117633e+02 stress_315
                     -2.8573795110e+02 stress_316
                     -4.2489351132e+02 stress_317
                     -5.6486500212e+02 stress_318
                     -7.0519767683e+02 stress_319
                     -8.4539900347e+02 stress_320
                     -9.8493639734e+02 stress_321
                     -1.1232590489e+03 stress_322
                     -1.2597908395e+03 stress_323
                     -1.3939498406e+03 stress_324
                     -1.5251553682e+03 stress_325
                     -1.6528132107e+03 stress_326
                     -1.7763539347e+03 stress_327
                     -1.8951946118e+03 stress_328
                     -2.0087945293e+03 stress_329
                     -2.1166208491e+03 stress_330
                     -2.2181559942e+03 stress_331
                     -2.3129251967e+03 stress_332
                     -2.4004673406e+03 stress_333
                     -2.4803663701e+03 stress_334
                     -2.5522451876e+03 stress_335
                     -2.6157345598e+03 stress_336
                     -2.6705464813e+03 stress_337
                     -2.7164057235e+03 stress_338
                     -2.7530870000e+03 stress_339
                     -2.7804189258e+03 stress_340
                     -2.7982645482e+03 stress_341
                     -2.8065334882e+03 stress_342

>>>>> Total response returned to iterator:

Active set vector = { 2 2 2 2 2 2 2 2 2 2 2 2 2 2 2 2 2 2 2 2 2 2 2 2 2 2 2 2 2 2 2 2 2 2 2 2 2 2 2 2 2 2 2 2 2 2 2 2 2 2 2 2 2 2 2 2 2 2 2 2 2 2 2 2 2 2 2 2 2 2 2 2 2 2 2 2 2 2 2 2 2 2 2 2 2 2 2 2 2 2 2 2 2 2 2 2 2 2 2 2 2 2 2 2 2 2 2 2 2 2 2 2 2 2 2 2 2 2 2 2 2 2 2 2 2 2 2 2 2 2 2 2 2 2 2 2 2 2 2 2 2 2 2 2 2 2 2 2 2 2 2 2 2 2 2 2 2 2 2 2 2 2 2 2 2 2 2 2 2 2 2 2 2 2 2 2 2 2 2 2 2 2 2 2 2 2 2 2 2 2 2 2 2 2 2 2 2 2 2 2 2 2 2 2 2 2 2 2 2 2 2 2 2 2 2 2 2 2 2 2 2 2 2 2 2 2 2 2 2 2 2 2 2 2 2 2 2 2 2 2 2 2 2 2 2 2 2 2 2 2 2 2 2 2 2 2 2 2 2 2 2 2 2 2 2 2 2 2 2 2 2 2 2 2 2 2 2 2 2 2 2 2 2 2 2 2 2 2 2 2 2 2 2 2 2 2 2 2 2 2 2 2 2 2 2 2 2 2 2 2 2 2 2 2 2 2 2 2 2 2 2 2 2 2 2 2 2 2 2 2 2 2 2 2 2 2 2 2 2 2 2 2 } Deriv vars vector = { 1 2 3 4 5 6 7 }
 [  0.0000000000e+00  1.1653237387e-05  0.0000000000e+00  0.0000000000e+00 
    0.0000000000e+00  0.0000000000e+00  0.0000000000e+00 ] stress_1 gradient
 [ -3.5833333338e-05 -1.2110283795e-03 -8.5828594890e-04  0.0000000000e+00 
    0.0000000000e+00 -6.9999998686e-03  0.0000000000e+00 ] stress_2 gradient
 [ -6.3880890000e-01 -1.2471922265e-03 -2.3501822552e+02  0.0000000000e+00 
    0.0000000000e+00 -1.9164200000e+02  0.0000000000e+00 ] stress_3 gradient
 [ -6.3881476667e-01 -1.3837831147e-03 -2.9361775055e+02  0.0000000000e+00 
    0.0000000000e+00 -1.9164399999e+02  0.0000000000e+00 ] stress_4 gradient
 [ -6.3881323333e-01  2.0347112559e-04 -2.9361772286e+02 -1.4143921756e-04 
    6.9175266669e-05 -1.9164400000e+02  3.4549899655e-04 ] stress_5 gradient
 [ -3.5565556667e-01  1.9867462214e-03 -2.8322792289e+02 -7.9082001949e+00 
    3.9047291933e+00 -1.5053300000e+02  5.6502462743e+01 ] stress_6 gradient
 [  6.8129506667e-01  9.0484974701e-04 -1.0187313714e+02 -2.9456839199e+00 
    1.4533495183e+00 -5.3519999994e+00  2.5620567413e+02 ] stress_7 gradient
 [  6.8283800000e-01  9.0787326483e-04 -9.9509971516e+01 -2.8687005729e+00 
    1.4153415465e+00 -5.1460000009e+00  2.5648937817e+02 ] stress_8 gradient
 [  6.8283796667e-01 -2.9488524777e-04 -9.9509971516e+01 -2.8687005729e+00 
    1.4153415465e+00 -5.1450000001e+00  2.5648937817e+02 ] stress_9 gradient
 [  6.5647040000e-01 -2.2943934677e-03 -1.0016838755e+02 -1.7745570737e+00 
    8.6175486042e-01 -9.8979999990e+00  2.5177706791e+02 ] stress_10 gradient
 [ -6.1407706667e-01 -1.4302000219e-03 -2.9776684301e+02  2.2176558422e+00 
   -1.1248822431e+00 -2.5777400000e+02  5.7563588896e+00 ] stress_11 gradient
 [ -6.3876660000e-01 -2.1794699729e-03 -6.3497211682e+02  5.8454809126e-02 
   -2.9583960322e-02 -2.6353600000e+02  3.4500543177e-02 ] stress_12 gradient
 [ -6.3882493333e-01 -2.6980482959e-03 -8.5742871912e+02  7.7488486525e-03 
   -3.9199324333e-03 -2.6357000000e+02  1.4313530258e-03 ] stress_13 gradient
 [ -6.3882430000e-01 -2.7456071140e-03 -8.7782901207e+02  6.5264097417e-03 
   -3.3050410284e-03 -2.6356999999e+02  1.0364972702e-03 ] stress_14 gradient
 [ -6.3818890000e-01 -1.1358648508e-03 -8.7780763798e+02 -2.1285592359e-01 
    5.3057437727e-02 -2.6347500000e+02  1.4209880447e-01 ] stress_15 gradient
 [ -6.3818886667e-01 -1.9440037206e-03 -8.7780761030e+02 -2.1285592364e-01 
    5.3065123832e-02 -2.6347500000e+02  1.4214816123e-01 ] stress_16 gradient
 [ -6.3870856667e-01 -2.7819652917e-03 -9.0007143573e+02 -3.6319571290e-02 
    8.9620414293e-03 -3.7174300001e+02  2.4382357917e-02 ] stress_17 gradient
 [ -6.3869526667e-01 -1.8424370919e-03 -9.0007107580e+02 -4.1805392346e-02 
    1.0345547069e-02 -3.7174000000e+02  2.7195707210e-02 ] stress_18 gradient
 [ -6.0764760000e-01 -1.5061658507e-04 -8.9866332081e+02 -8.2999969377e+00 
    2.1031743874e+00 -3.6480800000e+02  7.4505872864e+00 ] stress_19 gradient
 [  2.6716586333e-01  3.3479062304e-05 -8.0155571921e+02 -8.1976738451e+01 
    2.0852473068e+01 -1.4145180000e+02  2.4675170594e+02 ] stress_20 gradient
 [  7.0684833333e-01  2.5224839939e-04 -4.7268113444e+02 -2.2501292769e+01 
    5.7069142628e+00 -1.1896000001e+01  3.8562890967e+02 ] stress_21 gradient
 [  7.3323296667e-01  9.9543949638e-04 -1.4215908374e+02 -5.7715183062e+00 
    1.4604745719e+00 -1.7239999977e+00  3.9653463505e+02 ] stress_22 gradient
 [  7.3539473333e-01  1.5458690213e-03  9.4365516592e+01 -2.4648915992e+00 
    6.2293105847e-01 -5.3699999967e-01  3.9780597267e+02 ] stress_23 gradient
 [  7.3565003333e-01  1.7786974484e-03  1.9420224585e+02 -1.7702128690e+00 
    4.4714899265e-01 -3.4199999845e-01  3.9801539442e+02 ] stress_24 gradient
 [  7.3187556667e-01  1.7225809783e-04  1.9405882905e+02 -6.6658283945e-02 
    1.0976579284e-01 -1.1309999991e+00  3.9734033873e+02 ] stress_25 gradient
 [  7.3187556667e-01  7.8865622890e-04  1.9405882905e+02 -6.6658283917e-02 
    1.0976579284e-01 -1.1309999991e+00  3.9734033873e+02 ] stress_26 gradient
 [  7.3183373333e-01  1.4843669242e-03  1.9410337686e+02 -7.6518618138e-02 
    1.1671406515e-01 -1.1290000032e+00  3.9750415461e+02 ] stress_27 gradient
 [  7.3100116667e-01  1.6729000117e-03  1.9470068847e+02 -1.4984475101e-01 
    1.6738111272e-01 -1.0889999999e+00  3.9990004213e+02 ] stress_28 gradient
 [  7.3099090000e-01  1.0812349367e-03  1.9470043929e+02 -1.4421749062e-01 
    1.6628199442e-01 -1.0900000007e+00  3.9989846270e+02 ] stress_29 gradient
 [  7.2617190000e-01  3.7236377128e-05  1.9451449580e+02  1.9791388029e+00 
   -2.5438823930e-01 -2.1129999993e+00  3.9901763767e+02 ] stress_30 gradient
 [  5.5568932967e-01 -1.0606679167e-03  1.8421303339e+02  5.3316256920e+01 
   -1.0493800027e+01 -4.5021369999e+01  3.6206519999e+02 ] stress_31 gradient
 [ -2.1671270000e-01 -9.3824655920e-04  7.3542448625e+01  1.3926834035e+02 
   -2.7739132486e+01 -2.8156400000e+02  1.5827654828e+02 ] stress_32 gradient
 [ -5.9009886667e-01 -1.1898534929e-03 -2.0272613228e+02  6.6224338298e+01 
   -1.3172141097e+01 -4.2933900000e+02  3.0917916070e+01 ] stress_33 gradient
 [ -6.3698370000e-01 -1.9691424767e-03 -5.5059054171e+02  2.2496120135e+01 
   -4.4640574274e+00 -4.5801800000e+02  6.1988443985e+00 ] stress_34 gradient
 [ -6.4057510000e-01 -2.8371206927e-03 -9.2070019885e+02  8.3324168274e+00 
   -1.6501839268e+00 -4.6337600000e+02  1.5805098676e+00 ] stress_35 gradient
 [ -6.4014993333e-01 -3.7059916297e-03 -1.2917086751e+03  3.5722899739e+00 
   -7.0632569842e-01 -4.6462200000e+02  5.0669896608e-01 ] stress_36 gradient
 [ -6.3965486667e-01 -4.5363324154e-03 -1.6470571438e+03  1.7694046449e+00 
   -3.4938895359e-01 -4.6498000000e+02  1.9821771331e-01 ] stress_37 gradient
 [ -6.3935733333e-01 -5.2940798593e-03 -1.9717017080e+03  1.0015917352e+00 
   -1.9753384751e-01 -4.6510000001e+02  9.2297590522e-02 ] stress_38 gradient
 [ -6.3919100000e-01 -5.9481773794e-03 -2.2520865450e+03  6.4112377966e-01 
   -1.2636017336e-01 -4.6515000001e+02  5.0344139978e-02 ] stress_39 gradient
 [ -6.3909900000e-01 -6.4713130196e-03 -2.4763912584e+03  4.6038466179e-01 
   -9.0696474667e-02 -4.6516999998e+02  3.2082051042e-02 ] stress_40 gradient
 [ -6.3904933333e-01 -6.8420277871e-03 -2.6353632492e+03  3.6844916853e-01 
   -7.2557179838e-02 -4.6518000001e+02  2.3691359924e-02 ] stress_41 gradient
 [ -6.3902633333e-01 -7.0448391175e-03 -2.7223391734e+03  3.2753282284e-01 
   -6.4486730706e-02 -4.6519000000e+02  2.0236370519e-02 ] stress_42 gradient
 [ -6.3902500000e-01 -6.9704254822e-03 -2.7223391734e+03  3.2470403849e-01 
   -6.4256146440e-02 -4.6519000000e+02  2.0236370519e-02 ] stress_43 gradient
 [ -5.5057063333e-01 -5.2528828397e-03 -2.7147239348e+03 -1.1625422938e+02 
    1.0686588835e+01 -4.5111100001e+02  2.4551948868e+01 ] stress_44 gradient
 [ -1.9298233333e-01 -4.4687922537e-03 -2.6616148647e+03 -4.7209229326e+02 
    4.3757059945e+01 -3.7920400000e+02  1.4989424890e+02 ] stress_45 gradient
 [ -1.9298233333e-01 -5.4609642701e-03 -2.6616148647e+03 -4.7209230337e+02 
    4.3757059945e+01 -3.7920400000e+02  1.4989424890e+02 ] stress_46 gradient
 [ -2.2079933333e-01 -7.2126205735e-03 -2.6630568127e+03 -4.4319080506e+02 
    4.0819101369e+01 -4.0478000001e+02  1.4102331521e+02 ] stress_47 gradient
 [ -1.8648370000e-01 -5.8403191075e-03 -2.6601392221e+03 -4.8945908977e+02 
    4.5180164495e+01 -3.9932999999e+02  1.5005618922e+02 ] stress_48 gradient
 [ -1.8648366667e-01 -6.3355848411e-03 -2.6601391944e+03 -4.8945910998e+02 
    4.5180218298e+01 -3.9933000000e+02  1.5005613986e+02 ] stress_49 gradient
 [ -1.8675600000e-01 -7.1080472720e-03 -2.6601466698e+03 -4.8916683593e+02 
    4.5150472929e+01 -3.9955999998e+02  1.4997124582e+02 ] stress_50 gradient
 [ -6.3056366667e-01 -7.0863262456e-03 -2.7341821344e+03 -9.0986840087e+00 
    7.5216584887e-01 -8.0321000000e+02  2.9026851953e+00 ] stress_51 gradient
 [ -6.2519066667e-01 -6.2780762375e-03 -2.7338634612e+03 -1.7396215863e+01 
    1.5079441843e+00 -8.0199000001e+02  4.1371037757e+00 ] stress_52 gradient
 [ -4.4495193333e-01 -4.9387887308e-03 -2.7152766156e+03 -2.3726154395e+02 
    2.1779167373e+01 -7.4821100001e+02  5.8364702369e+01 ] stress_53 gradient
 [  1.2071590000e-01 -4.2429934233e-03 -2.5933372525e+03 -6.8900010706e+02 
    6.3708708725e+01 -5.2514700000e+02  2.8335335700e+02 ] stress_54 gradient
 [  5.3006623333e-01 -3.7238716712e-03 -2.3578746841e+03 -7.6901334483e+02 
    7.1101032503e+01 -3.0610900000e+02  5.0433535841e+02 ] stress_55 gradient
 [  6.7631220000e-01 -3.1948932653e-03 -2.1353733955e+03 -6.7902608602e+02 
    6.2698334624e+01 -2.0004999999e+02  6.1134938055e+02 ] stress_56 gradient
 [  7.1330570000e-01 -2.9335169362e-03 -2.0296028375e+03 -6.2836942724e+02 
    5.7982394640e+01 -1.6669300001e+02  6.4500828828e+02 ] stress_57 gradient
 [  7.1330566667e-01 -3.3491548264e-03 -2.0296028375e+03 -6.2836942724e+02 
    5.7982386954e+01 -1.6669299999e+02  6.4500828828e+02 ] stress_58 gradient
 [  7.1196800000e-01 -4.9036943806e-03 -2.0296443952e+03 -6.2756306204e+02 
    5.7842906536e+01 -1.6712700000e+02  6.4457518060e+02 ] stress_59 gradient
 [  3.8921780000e-01 -6.4425339343e-03 -2.0492290396e+03 -4.5404394157e+02 
    3.3192634650e+01 -2.9440400000e+02  5.1769911178e+02 ] stress_60 gradient
 [ -5.2648033333e-01 -6.0788539912e-03 -2.2627738657e+03 -2.8857237933e+01 
   -6.3728877161e+00 -7.3113000001e+02  8.1944959969e+01 ] stress_61 gradient
 [ -6.2848533333e-01 -6.5394617314e-03 -2.5066624482e+03  3.2030931978e+00 
   -3.4203331570e+00 -7.9843000001e+02  1.4750833149e+01 ] stress_62 gradient
 [ -6.3496300000e-01 -6.7323925926e-03 -2.5910837260e+03  3.7857217573e+00 
   -2.5267422965e+00 -8.0450999999e+02  8.6858449371e+00 ] stress_63 gradient
 [ -6.1430933333e-01 -5.4732068485e-03 -2.5896894267e+03 -2.4443121926e+01 
    1.9161551817e-01 -7.9929000001e+02  1.3902879882e+01 ] stress_64 gradient
 [ -2.4106100000e-01 -4.1566848233e-03 -2.5414362336e+03 -3.9777308531e+02 
    3.6677754297e+01 -6.7307000000e+02  1.4008039907e+02 ] stress_65 gradient
 [ -3.4069100000e-02 -3.9644074323e-03 -2.4977810442e+03 -5.4595439997e+02 
    5.1309409199e+01 -5.8892899999e+02  2.2420669168e+02 ] stress_66 gradient
 [ -3.4070366667e-02 -5.2800177617e-03 -2.4977810719e+03 -5.4595337959e+02 
    5.1309247789e+01 -5.8892900000e+02  2.2420639553e+02 ] stress_67 gradient
 [ -3.0504400000e-01 -6.9519437317e-03 -2.5196970424e+03 -3.0893982910e+02 
    2.4994103759e+01 -6.8122000000e+02  1.3199197127e+02 ] stress_68 gradient
 [ -6.3471166667e-01 -7.0443331218e-03 -2.7206364449e+03 -4.9428966345e+00 
   -1.0107276628e-01 -8.1054999998e+02  2.6608358943e+00 ] stress_69 gradient
 [ -6.3510866667e-01 -7.0553772521e-03 -2.7255447328e+03 -4.5122142091e+00 
   -1.0806715557e-01 -8.1077000000e+02  2.4461329416e+00 ] stress_70 gradient
 [ -6.3433433333e-01 -6.5977654711e-03 -2.7255062483e+03 -5.7739530813e+00 
    6.6100820567e-03 -8.1060000000e+02  2.6095046136e+00 ] stress_71 gradient
 [ -6.1140533333e-01 -5.8072479009e-03 -2.7238807656e+03 -3.8667462247e+01 
    3.0289548100e+00 -8.0482999999e+02  8.3887157945e+00 ] stress_72 gradient
 [ -4.6581363333e-01 -4.9512000175e-03 -2.7087578235e+03 -2.1399143810e+02 
    1.9270064772e+01 -7.6066299999e+02  5.2528286426e+01 ] stress_73 gradient
 [ -9.9916466667e-02 -4.3919414488e-03 -2.6456070852e+03 -5.4643175734e+02 
    5.0262887172e+01 -6.2488800000e+02  1.8826581239e+02 ] stress_74 gradient
 [  3.2733980000e-01 -4.0186959285e-03 -2.4962493361e+03 -7.6119107906e+02 
    7.0373431564e+01 -4.2567700000e+02  3.8746257159e+02 ] stress_75 gradient
 [  6.0466496667e-01 -3.4849685853e-03 -2.2575499501e+03 -7.3171693377e+02 
    6.7664873580e+01 -2.5638999999e+02  5.5676695448e+02 ] stress_76 gradient
 [  7.2983963333e-01 -2.7417292121e-03 -1.9537782344e+03 -5.9119338096e+02 
    5.4597632948e+01 -1.4987400000e+02  6.6330408927e+02 ] stress_77 gradient
 [  7.7511299000e-01 -1.8823609322e-03 -1.6107415890e+03 -4.4977314693e+02 
    4.1468525022e+01 -8.9975999998e+01  7.2321685421e+02 ] stress_78 gradient
 [  7.8765866000e-01 -9.8036048299e-04 -1.2480166348e+03 -3.3996104871e+02 
    3.1294479644e+01 -5.6750599998e+01  7.5645063036e+02 ] stress_79 gradient
 [  7.8836486667e-01 -7.8933777410e-05 -8.8060434874e+02 -2.6129595705e+02 
    2.4019508649e+01 -3.7829999997e+01  7.7537616745e+02 ] stress_80 gradient
 [  7.8537346667e-01  7.9302979999e-04 -5.2097283965e+02 -2.0617738591e+02 
    1.8930022167e+01 -2.6632999999e+01  7.8657551763e+02 ] stress_81 gradient
 [  7.8167606667e-01  1.6122348082e-03 -1.8009493280e+02 -1.6760314221e+02 
    1.5372768078e+01 -1.9748000000e+01  7.9346244797e+02 ] stress_82 gradient
 [  7.7829666667e-01  2.3579823452e-03  1.3217611128e+02 -1.4049429510e+02 
    1.2875479077e+01 -1.5373000008e+01  7.9783829156e+02 ] stress_83 gradient
 [  7.7552740000e-01  3.0117274754e-03  4.0712600513e+02 -1.2142042823e+02 
    1.1119879714e+01 -1.2528000002e+01  8.0068396942e+02 ] stress_84 gradient
 [  7.7340233333e-01  3.5569581528e-03  6.3713128727e+02 -1.0813151640e+02 
    9.8975679357e+00 -1.0662000000e+01  8.0254986146e+02 ] stress_85 gradient
 [  7.7187560000e-01  3.9799422742e-03  8.1593128814e+02 -9.9166795537e+01 
    9.0734059955e+00 -9.4600000011e+00  8.0375293835e+02 ] stress_86 gradient
 [  7.7088970000e-01  4.2699814516e-03  9.3869474411e+02 -9.3604112240e+01 
    8.5622006960e+00 -8.7360000066e+00  8.0447641326e+02 ] stress_87 gradient
 [  7.7040050000e-01  4.4194602563e-03  1.0020104948e+03 -9.0905138731e+01 
    8.3142150130e+00 -8.3919999952e+00  8.0482092512e+02 ] stress_88 gradient
 [  7.6888810000e-01  4.0679393120e-03  1.0019216760e+03 -8.7466508820e+01 
    8.0740999392e+00 -8.7249999979e+00  8.0454329200e+02 ] stress_89 gradient
 [  5.0211053333e-01  2.5010822482e-03  9.6731644692e+02  3.7208536896e+02 
   -2.4764042159e+01 -9.6517000009e+01  7.3153974751e+02 ] stress_90 gradient
 [  1.6517540000e-01  2.0536140671e-03  8.8954400546e+02  8.1119411690e+02 
   -5.6463074965e+01 -2.3709300001e+02  6.1462688280e+02 ] stress_91 gradient
 [  1.6517543333e-01  3.4511106329e-03  8.8954403315e+02  8.1119407649e+02 
   -5.6463067279e+01 -2.3709200000e+02  6.1462688280e+02 ] stress_92 gradient
 [  3.3636396667e-01  5.1046990999e-03  8.9851478198e+02  5.8206552006e+02 
   -3.9839556384e+01 -1.7160100000e+02  7.1429223985e+02 ] stress_93 gradient
 [  3.8111533333e-01  5.0712589812e-03  9.0167069922e+02  5.2218669073e+02 
   -3.5585153850e+01 -1.5426900000e+02  7.4068722847e+02 ] stress_94 gradient
 [  3.8046793333e-01  4.7829546462e-03  9.0163204867e+02  5.2368040003e+02 
   -3.5692214121e+01 -1.5439800001e+02  7.4057104209e+02 ] stress_95 gradient
 [  3.6926746667e-01  4.2855131311e-03  9.0071296291e+02  5.4728837387e+02 
   -3.7404140826e+01 -1.5705100000e+02  7.3818063321e+02 ] stress_96 gradient
 [  3.1403050000e-01  3.6675270513e-03  8.9453427348e+02  6.5161098258e+02 
   -4.5037617307e+01 -1.7257600000e+02  7.2419073693e+02 ] stress_97 gradient
 [  1.7121056667e-01  3.0670768844e-03  8.7180885635e+02  8.8409074938e+02 
   -6.2186306908e+01 -2.2052999999e+02  6.8097433964e+02 ] stress_98 gradient
 [ -5.9026500000e-02  2.5640879398e-03  8.1527840944e+02  1.1832459244e+03 
   -8.4430816371e+01 -3.1414900000e+02  5.9659686926e+02 ] stress_99 gradient
 [ -3.1072876667e-01  2.1053388303e-03  7.0968886667e+02  1.4002147086e+03 
   -1.0074845725e+02 -4.4069400000e+02  4.8253121247e+02 ] stress_100 gradient
 [ -5.1248856333e-01  1.5890233471e-03  5.4949978493e+02  1.4485852882e+03 
   -1.0463954585e+02 -5.6996440000e+02  3.6599866320e+02 ] stress_101 gradient
 [ -6.4030577667e-01  9.6814450161e-04  3.3867021002e+02  1.3560595511e+03 
   -9.8093526245e+01 -6.7918510000e+02  2.6753271087e+02 ] stress_102 gradient
 [ -7.0745356667e-01  2.5154942831e-04  8.5479655008e+01  1.1939221810e+03 
   -8.6373896108e+01 -7.6169100000e+02  1.9314707166e+02 ] stress_103 gradient
 [ -7.3618723333e-01 -5.3452828790e-04 -2.0151946537e+02  1.0176048674e+03 
   -7.3580428165e+01 -8.2060800000e+02  1.4002827808e+02 ] stress_104 gradient
 [ -7.4393133333e-01 -1.3669944490e-03 -5.1485600218e+02  8.5539756074e+02 
   -6.1803375631e+01 -8.6176900000e+02  1.0291586103e+02 ] stress_105 gradient
 [ -7.4140276667e-01 -2.2297323827e-03 -8.4831220013e+02  7.1709828111e+02 
   -5.1765912226e+01 -8.9047299999e+02  7.7036554348e+01 ] stress_106 gradient
 [ -7.3446553333e-01 -3.1113808724e-03 -1.1965510160e+03  6.0339401902e+02 
   -4.3519458240e+01 -9.1065700001e+02  5.8836851436e+01 ] stress_107 gradient
 [ -7.2610986667e-01 -4.0030289726e-03 -1.5548082433e+03  5.1144065402e+02 
   -3.6856042045e+01 -9.2504600000e+02  4.5863610657e+01 ] stress_108 gradient
 [ -7.1776746667e-01 -4.8967974787e-03 -1.9186845022e+03  4.3752009251e+02 
   -3.1503866291e+01 -9.3546400000e+02  3.6470924118e+01 ] stress_109 gradient
 [ -7.1006400000e-01 -5.7851744847e-03 -2.2840352685e+03  3.7811300339e+02 
   -2.7205944821e+01 -9.4312000001e+02  2.9561388270e+01 ] stress_110 gradient
 [ -7.0322400000e-01 -6.6606831943e-03 -2.6468839377e+03  3.3024481884e+02 
   -2.3745490003e+01 -9.4885000001e+02  2.4399633165e+01 ] stress_111 gradient
 [ -6.9728033333e-01 -7.5157513565e-03 -3.0033660636e+03  2.9152643847e+02 
   -2.0948426095e+01 -9.5319000000e+02  2.0489078020e+01 ] stress_112 gradient
 [ -6.9218033333e-01 -8.3429297337e-03 -3.3497987691e+03  2.6007591244e+02 
   -1.8677709186e+01 -9.5652000002e+02  1.7488172393e+01 ] stress_113 gradient
 [ -6.8783866667e-01 -9.1348671897e-03 -3.6826492387e+03  2.3443156742e+02 
   -1.6827347379e+01 -9.5910000000e+02  1.5159509113e+01 ] stress_114 gradient
 [ -6.8416433333e-01 -9.8843636124e-03 -3.9985352722e+03  2.1346350611e+02 
   -1.5315175817e+01 -9.6113000000e+02  1.3335767947e+01 ] stress_115 gradient
 [ -6.8107066667e-01 -1.0584543528e-02 -4.2942776126e+03  1.9629723000e+02 
   -1.4077706966e+01 -9.6271999996e+02  1.1898492096e+01 ] stress_116 gradient
 [ -6.7848266667e-01 -1.1228839963e-02 -4.5668825033e+03  1.8225716478e+02 
   -1.3066056966e+01 -9.6398000001e+02  1.0760319665e+01 ] stress_117 gradient
 [ -6.7633466667e-01 -1.1811302306e-02 -4.8136588026e+03  1.7081735859e+02 
   -1.2242025690e+01 -9.6498000000e+02  9.8585672663e+00 ] stress_118 gradient
 [ -6.7457200000e-01 -1.2326453025e-02 -5.0321493211e+03  1.6157258808e+02 
   -1.1576252077e+01 -9.6576000001e+02  9.1478264585e+00 ] stress_119 gradient
 [ -6.7315200000e-01 -1.2769307028e-02 -5.2201333134e+03  1.5421178797e+02 
   -1.1046446314e+01 -9.6638999999e+02  8.5920666349e+00 ] stress_120 gradient
 [ -6.7203766667e-01 -1.3135764075e-02 -5.3757878907e+03  1.4849501675e+02 
   -1.0634930275e+01 -9.6686000002e+02  8.1680900026e+00 ] stress_121 gradient
 [ -6.7120333333e-01 -1.3422288647e-02 -5.4975493118e+03  1.4424406098e+02 
   -1.0329021827e+01 -9.6720000001e+02  7.8561537593e+00 ] stress_122 gradient
 [ -6.7062866667e-01 -1.3626104870e-02 -5.5841929963e+03  1.4133051407e+02 
   -1.0119420736e+01 -9.6744000002e+02  7.6449057960e+00 ] stress_123 gradient
 [ -6.7029900000e-01 -1.3745341074e-02 -5.6348916674e+03  1.3966698679e+02 
   -9.9996706449e+00 -9.6756999997e+02  7.5249682874e+00 ] stress_124 gradient
 [ -6.7021133333e-01 -1.3777373053e-02 -5.6485129414e+03  1.3922509025e+02 
   -9.9679268789e+00 -9.6760000001e+02  7.4933798068e+00 ] stress_125 gradient
 [ -6.5307800000e-01 -1.3323780840e-02 -5.6468218413e+03  6.9449485912e+01 
   -7.0264403640e+00 -9.6469999999e+02  1.1814091625e+01 ] stress_126 gradient
 [ -4.8564866667e-01 -1.2518880472e-02 -5.6199671831e+03 -5.3511326559e+02 
    1.8901837085e+01 -9.2821999997e+02  6.5998700271e+01 ] stress_127 gradient
 [ -1.2523100000e-01 -1.1796092747e-02 -5.5201072801e+03 -1.6515313204e+03 
    6.7348819424e+01 -8.2865000002e+02  2.1395321905e+02 ] stress_128 gradient
 [  2.5248100000e-01 -1.1116467616e-02 -5.3299759119e+03 -2.5999590835e+03 
    1.0880095144e+02 -6.9761000000e+02  4.0867398931e+02 ] stress_129 gradient
 [  5.2722833333e-01 -1.0394179433e-02 -5.0805441868e+03 -3.1062030889e+03 
    1.3104141800e+02 -5.7961000002e+02  5.8403694400e+02 ] stress_130 gradient
 [  6.9438300000e-01 -9.6899476797e-03 -4.8243192672e+03 -3.2926667571e+03 
    1.3930617269e+02 -4.9270999998e+02  7.1319286203e+02 ] stress_131 gradient
 [  7.8580333333e-01 -9.1168204406e-03 -4.6120862066e+03 -3.3296377569e+03 
    1.4101157386e+02 -4.3710000000e+02  7.9584560138e+02 ] stress_132 gradient
 [  8.2807400000e-01 -8.7701727381e-03 -4.4826303909e+03 -3.3228349345e+03 
    1.4076730827e+02 -4.0841999999e+02  8.3847178767e+02 ] stress_133 gradient
 [  8.3041833333e-01 -8.7488363718e-03 -4.4746383649e+03 -3.3218879989e+03 
    1.4072918500e+02 -4.0675999999e+02  8.4094111840e+02 ] stress_134 gradient
 [  8.2069366667e-01 -1.0718736938e-02 -4.4750484040e+03 -3.3031144682e+03 
    1.3929295252e+02 -4.1102000000e+02  8.3749402549e+02 ] stress_135 gradient
 [  8.1710333333e-01 -1.0826317816e-02 -4.4752172925e+03 -3.2961053466e+03 
    1.3877621320e+02 -4.1266000001e+02  8.3616533503e+02 ] stress_136 gradient
 [  8.6563100000e-01 -1.0037968154e-02 -4.4658157396e+03 -3.4187415358e+03 
    1.4600187836e+02 -4.0118999998e+02  8.5310564472e+02 ] stress_137 gradient
 [  8.6563100000e-01 -1.0211858991e-02 -4.4658157396e+03 -3.4187415358e+03 
    1.4600187836e+02 -4.0119000000e+02  8.5310564472e+02 ] stress_138 gradient
 [  8.6477800000e-01 -1.1045932850e-02 -4.4658423188e+03 -3.4170609348e+03 
    1.4587513388e+02 -4.0154999999e+02  8.5280604773e+02 ] stress_139 gradient
 [  7.0653266667e-01 -1.2297571256e-02 -4.4741377904e+03 -3.0878922664e+03 
    1.2536182028e+02 -4.8510000001e+02  7.8463909443e+02 ] stress_140 gradient
 [ -2.8683533333e-01 -1.1879355498e-02 -4.6190134044e+03 -8.9523216933e+02 
    2.0076663878e+01 -1.1287200000e+03  2.5899000123e+02 ] stress_141 gradient
 [ -6.0454600000e-01 -1.2233786111e-02 -4.9377982293e+03 -1.1601339880e+02 
   -1.7436781574e+00 -1.3954500000e+03  4.0950516118e+01 ] stress_142 gradient
 [ -6.3521200000e-01 -1.2953288736e-02 -5.2585571118e+03 -2.2524296848e+01 
   -1.4984133685e+00 -1.4334400000e+03  9.9024949956e+00 ] stress_143 gradient
 [ -6.3877200000e-01 -1.3524673388e-02 -5.5039241611e+03 -7.4941570831e+00 
   -9.3978457304e-01 -1.4406000000e+03  4.0418447656e+00 ] stress_144 gradient
 [ -6.3927633333e-01 -1.3824326742e-02 -5.6322157534e+03 -4.3386480802e+00 
   -7.3002976004e-01 -1.4423000000e+03  2.6554066222e+00 ] stress_145 gradient
 [ -6.3871500000e-01 -1.3727425342e-02 -5.6321764384e+03 -6.7990843437e+00 
   -6.2811151800e-01 -1.4421800000e+03  2.7728762844e+00 ] stress_146 gradient
 [ -5.3645466667e-01 -1.2827291294e-02 -5.6183749243e+03 -3.9217883076e+02 
    1.5783261860e+01 -1.4116100000e+03  3.3337692372e+01 ] stress_147 gradient
 [ -1.7152366667e-01 -1.1951644468e-02 -5.5293784290e+03 -1.5639136636e+03 
    6.6326101379e+01 -1.2685700000e+03  1.7640734882e+02 ] stress_148 gradient
 [  2.3038466667e-01 -1.1228982597e-02 -5.3438391672e+03 -2.6033323079e+03 
    1.1139417887e+02 -1.0660900000e+03  3.7893294156e+02 ] stress_149 gradient
 [  4.9002833333e-01 -1.0588850945e-02 -5.1299114073e+03 -3.1062706766e+03 
    1.3318024071e+02 -9.0417000001e+02  5.4091373272e+02 ] stress_150 gradient
 [  6.1156066667e-01 -1.0161916443e-02 -4.9784328061e+03 -3.2747367092e+03 
    1.4044479775e+02 -8.1591000001e+02  6.2920699009e+02 ] stress_151 gradient
 [  6.2782900000e-01 -1.0094547377e-02 -4.9542039489e+03 -3.2929273083e+03 
    1.4122601722e+02 -8.0328999998e+02  6.4183892721e+02 ] stress_152 gradient
 [  6.2781200000e-01 -1.1138619126e-02 -4.9542045027e+03 -3.2928923526e+03 
    1.4122332707e+02 -8.0329999998e+02  6.4183349794e+02 ] stress_153 gradient
 [  5.6919333333e-01 -1.2962336636e-02 -4.9567832365e+03 -3.1597186384e+03 
    1.3301714078e+02 -8.2608000000e+02  6.1909472784e+02 ] stress_154 gradient
 [ -3.8501866667e-01 -1.2845684624e-02 -5.0852561764e+03 -7.7077909226e+02 
    1.9662457689e+01 -1.2805400000e+03  1.6501279170e+02 ] stress_155 gradient
 [ -6.2259300000e-01 -1.3181129427e-02 -5.3514538244e+03 -7.7027395219e+01 
   -6.5001702257e-01 -1.4268800000e+03  1.8671259695e+01 ] stress_156 gradient
 [ -6.3553833333e-01 -1.3506747975e-02 -5.4956724343e+03 -2.6227175633e+01 
   -8.6054045001e-01 -1.4386700000e+03  6.8793787191e+00 ] stress_157 gradient
 [ -6.1255166667e-01 -1.2969898174e-02 -5.4933221153e+03 -1.1636709787e+02 
    3.0277250272e+00 -1.4326400000e+03  1.2906362043e+01 ] stress_158 gradient
 [ -2.7034033333e-01 -1.1793936457e-02 -5.4247362124e+03 -1.2462962352e+03 
    5.2695651012e+01 -1.3080600000e+03  1.3744740053e+02 ] stress_159 gradient
 [ -1.1868333333e-02 -1.1335887093e-02 -5.3368050990e+03 -1.9663910881e+03 
    8.4615199230e+01 -1.1902500000e+03  2.5523393350e+02 ] stress_160 gradient
 [ -1.1868333333e-02 -1.2138850608e-02 -5.3368050990e+03 -1.9663906839e+03 
    8.4615199230e+01 -1.1902400000e+03  2.5523442707e+02 ] stress_161 gradient
 [ -2.9056166667e-01 -1.3625744735e-02 -5.3569695571e+03 -1.1336517166e+03 
    4.4701217933e+01 -1.2943100000e+03  1.5125847639e+02 ] stress_162 gradient
 [ -6.3726066667e-01 -1.3751111619e-02 -5.5984596459e+03 -8.6040508500e+00 
    6.3794977908e-02 -1.4442900000e+03  1.2536678112e+00 ] stress_163 gradient
 [ -6.3816300000e-01 -1.3849361265e-02 -5.6409915883e+03 -4.2557040800e+00 
    2.7670111911e-03 -1.4449200000e+03  6.2880818607e-01 ] stress_164 gradient
 [ -6.3555466667e-01 -1.3654350272e-02 -5.6407828310e+03 -1.5383636787e+01 
    4.6616450761e-01 -1.4443300000e+03  1.2186243412e+00 ] stress_165 gradient
 [ -6.1334366667e-01 -1.3310695947e-02 -5.6383959656e+03 -1.0395540219e+02 
    4.2034741576e+00 -1.4384200000e+03  7.1256701525e+00 ] stress_166 gradient
 [ -5.4497200000e-01 -1.2893834244e-02 -5.6287003805e+03 -3.5828817509e+02 
    1.5033632438e+01 -1.4173700000e+03  2.8164585157e+01 ] stress_167 gradient
 [ -4.1347800000e-01 -1.2472505709e-02 -5.6038294701e+03 -8.1131880567e+02 
    3.4455898192e+01 -1.3709300000e+03  7.4586324776e+01 ] stress_168 gradient
 [ -2.2492366667e-01 -1.2075827038e-02 -5.5551796105e+03 -1.4056903562e+03 
    6.0057514609e+01 -1.2948100000e+03  1.5068297376e+02 ] stress_169 gradient
 [ -4.5993333333e-03 -1.1690275109e-02 -5.4756630214e+03 -2.0292893113e+03 
    8.6988833579e+01 -1.1932300000e+03  2.5225869352e+02 ] stress_170 gradient
 [  2.1728666667e-01 -1.1282359333e-02 -5.3610907138e+03 -2.5768483191e+03 
    1.1064893055e+02 -1.0762100000e+03  3.6925452734e+02 ] stress_171 gradient
 [  4.1783133333e-01 -1.0821556681e-02 -5.2102608106e+03 -2.9879289862e+03 
    1.2838039880e+02 -9.5492999999e+02  4.9052122242e+02 ] stress_172 gradient
 [  5.8543633333e-01 -1.0290767856e-02 -5.0242497685e+03 -3.2490261908e+03 
    1.3958510278e+02 -8.3822000001e+02  6.0723966990e+02 ] stress_173 gradient
 [  7.1775333333e-01 -9.6861527121e-03 -4.8056006055e+03 -3.3769224036e+03 
    1.4499837567e+02 -7.3147000003e+02  7.1398750973e+02 ] stress_174 gradient
 [  8.1793133333e-01 -9.0122736007e-03 -4.5575241415e+03 -3.4010464791e+03 
    1.4591125875e+02 -6.3709999999e+02  8.0836648525e+02 ] stress_175 gradient
 [  8.9135100000e-01 -8.2778505569e-03 -4.2835061246e+03 -3.3517094482e+03 
    1.4365107185e+02 -5.5545999999e+02  8.9000740610e+02 ] stress_176 gradient
 [  9.4369006667e-01 -7.4928966803e-03 -3.9870693479e+03 -3.2546760714e+03 
    1.3934278947e+02 -4.8578700000e+02  9.5969129745e+02 ] stress_177 gradient
 [  9.8000996667e-01 -6.6671759450e-03 -3.6716236150e+03 -3.1296554796e+03 
    1.3384413890e+02 -4.2675400000e+02  1.0187319933e+03 ] stress_178 gradient
 [  1.0044432667e+00 -5.8098189915e-03 -3.3404918768e+03 -2.9907497389e+03 
    1.2776609928e+02 -3.7691100001e+02  1.0685817247e+03 ] stress_179 gradient
 [  1.0202096000e+00 -4.9291332490e-03 -2.9968697530e+03 -2.8475389015e+03 
    1.2152165468e+02 -3.3485900001e+02  1.1106397132e+03 ] stress_180 gradient
 [  1.0297437333e+00 -4.0326830303e-03 -2.6438289383e+03 -2.7062330685e+03 
    1.1537685323e+02 -2.9934200001e+02  1.1461610579e+03 ] stress_181 gradient
 [  1.0348525333e+00 -3.1275582772e-03 -2.2843787490e+03 -2.5706723957e+03 
    1.0949481022e+02 -2.6928500001e+02  1.1762232223e+03 ] stress_182 gradient
 [  1.0368630267e+00 -2.2203737409e-03 -1.9214237188e+03 -2.4430576985e+03 
    1.0396781932e+02 -2.4377770000e+02  1.2017346121e+03 ] stress_183 gradient
 [  1.0367424000e+00 -1.3174791573e-03 -1.5578127976e+03 -2.3245125972e+03 
    9.8841886685e+01 -2.2206700000e+02  1.2234479016e+03 ] stress_184 gradient
 [  1.0351921667e+00 -4.2493317291e-04 -1.1963034974e+03 -2.2154530678e+03 
    9.4132748936e+01 -2.0353500000e+02  1.2419839725e+03 ] stress_185 gradient
 [  1.0327196000e+00  4.5138590431e-04 -8.3958855458e+02 -2.1158594289e+03 
    8.9837702084e+01 -1.8767000000e+02  1.2578518533e+03 ] stress_186 gradient
 [  1.0296902667e+00  1.3057946586e-03 -4.9027832102e+02 -2.0254484485e+03 
    8.5942995620e+01 -1.7405500000e+02  1.2714687094e+03 ] stress_187 gradient
 [  1.0263667333e+00  2.1328296918e-03 -1.5088289541e+02 -1.9437880096e+03 
    8.2428730122e+01 -1.6234899999e+02  1.2831766834e+03 ] stress_188 gradient
 [  1.0229369667e+00  2.9271813410e-03  1.7616545078e+02 -1.8703811553e+03 
    7.9272446685e+01 -1.5227200000e+02  1.2932557778e+03 ] stress_189 gradient
 [  1.0195349000e+00  3.6838041708e-03  4.8856008803e+02 -1.8047057325e+03 
    7.6450833240e+01 -1.4359199999e+02  1.3019366870e+03 ] stress_190 gradient
 [  1.0162550333e+00  4.3979014842e-03  7.8411521134e+02 -1.7462491453e+03 
    7.3941131120e+01 -1.3612100000e+02  1.3094089420e+03 ] stress_191 gradient
 [  1.0131640000e+00  5.0648502619e-03  1.0607347758e+03 -1.6945343999e+03 
    7.1722234180e+01 -1.2970999999e+02  1.3158275238e+03 ] stress_192 gradient
 [  1.0103076667e+00  5.6804985642e-03  1.3165360898e+03 -1.6491093758e+03 
    6.9774335231e+01 -1.2420999999e+02  1.3213224386e+03 ] stress_193 gradient
 [  1.0077173333e+00  6.2408978175e-03  1.5497379055e+03 -1.6095754973e+03 
    6.8079925244e+01 -1.1953000001e+02  1.3259995080e+03 ] stress_194 gradient
 [  1.0054146667e+00  6.7423937521e-03  1.7586984050e+03 -1.5755837126e+03 
    6.6623631933e+01 -1.1559000002e+02  1.3299431323e+03 ] stress_195 gradient
 [  1.0034120000e+00  7.1818735910e-03  1.9420171981e+03 -1.5468200266e+03 
    6.5391697106e+01 -1.1230999999e+02  1.3332253729e+03 ] stress_196 gradient
 [  1.0017193333e+00  7.5564330221e-03  2.0983955043e+03 -1.5230287374e+03 
    6.4373129577e+01 -1.0963000000e+02  1.3359039773e+03 ] stress_197 gradient
 [  1.0003410000e+00  7.8637427873e-03  2.2267887066e+03 -1.5039880886e+03 
    6.3558091088e+01 -1.0751000000e+02  1.3380233669e+03 ] stress_198 gradient
 [  9.9928033333e-01  8.1018363447e-03  2.3263188617e+03 -1.4895243119e+03 
    6.2939126078e+01 -1.0592000001e+02  1.3396190787e+03 ] stress_199 gradient
 [  9.9853900000e-01  8.2691105141e-03  2.3962724848e+03 -1.4795095058e+03 
    6.2510623666e+01 -1.0480999999e+02  1.3407177655e+03 ] stress_200 gradient
 [  9.9811766667e-01  8.3645507226e-03  2.4361955149e+03 -1.4738490072e+03 
    6.2268433334e+01 -1.0419000000e+02  1.3413357152e+03 ] stress_201 gradient
 [  9.9809700000e-01  8.3692253741e-03  2.4381512992e+03 -1.4735727966e+03 
    6.2256596676e+01 -1.0417000001e+02  1.3413658230e+03 ] stress_202 gradient
 [  7.4858533333e-01  7.2713005829e-03  2.3910261430e+03 -2.9157937715e+02 
    2.1095385129e+01 -1.8648999999e+02  1.2716214199e+03 ] stress_203 gradient
 [  3.3618400000e-01  6.5864057389e-03  2.2414504447e+03  1.3839499357e+03 
   -3.8381748904e+01 -3.6536000000e+02  1.1200811151e+03 ] stress_204 gradient
 [  3.3618400000e-01  7.1104965751e-03  2.2414504447e+03  1.3839499357e+03 
   -3.8381748904e+01 -3.6536000000e+02  1.1200811151e+03 ] stress_205 gradient
 [  3.5065900000e-01  9.2644130561e-03  2.2420684105e+03  1.3467027253e+03 
   -3.7173410531e+01 -3.5601999998e+02  1.1345195184e+03 ] stress_206 gradient
 [  3.6469100000e-01  9.3508092372e-03  2.2427378735e+03  1.3103174859e+03 
   -3.6036399556e+01 -3.4682999999e+02  1.1487392702e+03 ] stress_207 gradient
 [  3.5369900000e-01  9.0653347346e-03  2.2414867142e+03  1.3687566357e+03 
   -3.8074072642e+01 -3.4933000002e+02  1.1465991507e+03 ] stress_208 gradient
 [  2.9534800000e-01  8.6506241589e-03  2.2319566952e+03  1.6568949987e+03 
   -4.8286803142e+01 -3.6560999999e+02  1.1326538238e+03 ] stress_209 gradient
 [  1.6978666667e-01  8.1987932494e-03  2.2026177146e+03  2.2301963486e+03 
   -6.8856456163e+01 -4.0764000000e+02  1.0966296299e+03 ] stress_210 gradient
 [ -9.3020000001e-03  7.7404779795e-03  2.1418078819e+03  2.9778736679e+03 
   -9.5944111259e+01 -4.7885000001e+02  1.0356120381e+03 ] stress_211 gradient
 [ -2.0892433333e-01  7.2575147822e-03  2.0413889856e+03  3.7248786457e+03 
   -1.2323437306e+02 -5.7273000000e+02  9.5516062095e+02 ] stress_212 gradient
 [ -3.9843926667e-01  6.7193547490e-03  1.8978687158e+03  4.3395611512e+03 
   -1.4588343491e+02 -6.7814600000e+02  8.6480809081e+02 ] stress_213 gradient
 [ -5.5987043333e-01  6.1064156535e-03  1.7117462626e+03  4.7672621895e+03 
   -1.6182712193e+02 -7.8470799999e+02  7.7347612036e+02 ] stress_214 gradient
 [ -6.8748216667e-01  5.4141690924e-03  1.4861056411e+03  5.0123574861e+03 
   -1.7116947372e+02 -8.8527500002e+02  6.8727964709e+02 ] stress_215 gradient
 [ -7.8309766667e-01  4.6487977650e-03  1.2254418607e+03  5.1079851188e+03 
   -1.7508477136e+02 -9.7607800001e+02  6.0944997510e+02 ] stress_216 gradient
 [ -8.5182333333e-01  3.8220133416e-03  9.3493348612e+02  5.0942227897e+03 
   -1.7501468911e+02 -1.0557950000e+03  5.4112048920e+02 ] stress_217 gradient
 [ -8.9945730000e-01  2.9473462370e-03  6.1996069647e+02  5.0071650705e+03 
   -1.7226364214e+02 -1.1245900000e+03  4.8215239750e+02 ] stress_218 gradient
 [ -9.3124540000e-01  2.0384280847e-03  2.8591839170e+02  4.8752437329e+03 
   -1.6786081559e+02 -1.1833638000e+03  4.3177313955e+02 ] stress_219 gradient
 [ -9.5147293333e-01  1.1083449461e-03 -6.1860346960e+01  4.7192085277e+03 
   -1.6255779733e+02 -1.2333000000e+03  3.8896914467e+02 ] stress_220 gradient
 [ -9.6345483333e-01  1.6938134457e-04 -4.1818017375e+02  4.5534300221e+03 
   -1.5687529425e+02 -1.2756160000e+03  3.5269614212e+02 ] stress_221 gradient
 [ -9.6967253333e-01 -7.6686065852e-04 -7.7797625224e+02  4.3874705451e+03 
   -1.5115999441e+02 -1.3114410000e+03  3.2198725295e+02 ] stress_222 gradient
 [ -9.7194836667e-01 -1.6894220615e-03 -1.1363482960e+03  4.2274449586e+03 
   -1.4563386589e+02 -1.3417660000e+03  2.9599245089e+02 ] stress_223 gradient
 [ -9.7160450000e-01 -2.5878623793e-03 -1.4885573486e+03  4.0770962697e+03 
   -1.4043312250e+02 -1.3674360000e+03  2.7398831038e+02 ] stress_224 gradient
 [ -9.6959293333e-01 -3.4523126308e-03 -1.8300807142e+03  3.9385615140e+03 
   -1.3563595537e+02 -1.3891570000e+03  2.5536857940e+02 ] stress_225 gradient
 [ -9.6659573333e-01 -4.2733996332e-03 -2.1566073333e+03  3.8129364008e+03 
   -1.3128291657e+02 -1.4075150000e+03  2.3963248181e+02 ] stress_226 gradient
 [ -9.6309966667e-01 -5.0422889213e-03 -2.4640707027e+03  3.7006530371e+03 
   -1.2739050058e+02 -1.4229800000e+03  2.2636946608e+02 ] stress_227 gradient
 [ -9.5945066667e-01 -5.7508642341e-03 -2.7487317416e+03  3.6017201417e+03 
   -1.2396017544e+02 -1.4359700000e+03  2.1524242390e+02 ] stress_228 gradient
 [ -9.5589400000e-01 -6.3914579944e-03 -3.0070766274e+03  3.5159438214e+03 
   -1.2098548479e+02 -1.4467700000e+03  2.0598206348e+02 ] stress_229 gradient
 [ -9.5260333333e-01 -6.9573567238e-03 -3.2360249443e+03  3.4429811873e+03 
   -1.1845497629e+02 -1.4556500000e+03  1.9836677188e+02 ] stress_230 gradient
 [ -9.4969933333e-01 -7.4425626953e-03 -3.4328346073e+03  3.3824597491e+03 
   -1.1635589093e+02 -1.4628200000e+03  1.9222231890e+02 ] stress_231 gradient
 [ -9.4726733333e-01 -7.8417881251e-03 -3.5951004779e+03  3.3340331827e+03 
   -1.1467639205e+02 -1.4684400000e+03  1.8741247921e+02 ] stress_232 gradient
 [ -9.4536366667e-01 -8.1509347063e-03 -3.7209501084e+03  3.2973619330e+03 
   -1.1340448929e+02 -1.4726100000e+03  1.8383212240e+02 ] stress_233 gradient
 [ -9.4402700000e-01 -8.3666850692e-03 -3.8088773457e+03  3.2721892878e+03 
   -1.1253142043e+02 -1.4754400000e+03  1.8140425154e+02 ] stress_234 gradient
 [ -9.4328133333e-01 -8.4866499332e-03 -3.8578021336e+03  3.2583394583e+03 
   -1.1205111342e+02 -1.4769900000e+03  1.8007852251e+02 ] stress_235 gradient
 [ -9.4324200000e-01 -8.4554969924e-03 -3.8578001956e+03  3.2581563956e+03 
   -1.1204350414e+02 -1.4769900000e+03  1.8008592606e+02 ] stress_236 gradient
 [ -7.3594600000e-01 -7.1896384303e-03 -3.8281749350e+03  2.4477976591e+03 
   -7.7704358440e+01 -1.4117300000e+03  2.4663693117e+02 ] stress_237 gradient
 [ -3.5863266667e-01 -6.5673327996e-03 -3.7346505663e+03  1.1199378708e+03 
   -2.1691676019e+01 -1.2617200000e+03  3.9964807464e+02 ] stress_238 gradient
 [ -3.6713466667e-01 -7.6244313550e-03 -3.7354360363e+03  1.1240190995e+03 
   -2.3058272054e+01 -1.2646600000e+03  3.9688951189e+02 ] stress_239 gradient
 [ -5.3386666667e-01 -8.7374088723e-03 -3.7744933051e+03  1.0414634514e+03 
   -4.1170434917e+01 -1.3649400000e+03  3.0270450938e+02 ] stress_240 gradient
 [ -3.7150666667e-01 -7.5196108644e-03 -3.7504039887e+03  4.4376232054e+02 
   -1.4593677674e+01 -1.3122200000e+03  3.5614580160e+02 ] stress_241 gradient
 [ -1.7480866667e-01 -7.0675127582e-03 -3.7049322787e+03 -2.0674928529e+02 
    1.4527653715e+01 -1.2335300000e+03  4.3593435422e+02 ] stress_242 gradient
 [ -2.3981166667e-01 -8.5873882521e-03 -3.7122886194e+03 -1.2536697649e+02 
    4.9471083889e+00 -1.2601200000e+03  4.1038569008e+02 ] stress_243 gradient
 [ -3.8533300000e-01 -8.9938641353e-03 -3.7419587323e+03  2.5742746304e+01 
   -1.2145795194e+01 -1.3409200000e+03  3.3275058339e+02 ] stress_244 gradient
 [ -5.6649000000e-01 -9.3434245400e-03 -3.8313757877e+03  1.5367462202e+02 
   -2.4726626020e+01 -1.4840300000e+03  1.9521137884e+02 ] stress_245 gradient
 [ -5.1752700000e-01 -8.5676137601e-03 -3.8257548457e+03 -3.1617323288e+01 
   -1.6370867410e+01 -1.4697400000e+03  2.0956390100e+02 ] stress_246 gradient
 [ -2.1699900000e-01 -7.6013891894e-03 -3.7647894140e+03 -1.0176712529e+03 
    2.9182051910e+01 -1.3543800000e+03  3.2549855932e+02 ] stress_247 gradient
 [  2.0898723333e-01 -6.8208244382e-03 -3.6006215265e+03 -2.1682585987e+03 
    8.3604632976e+01 -1.1417900000e+03  5.3916649491e+02 ] stress_248 gradient
 [  5.1741753333e-01 -6.1135266999e-03 -3.3773527643e+03 -2.8028414306e+03 
    1.1452672750e+02 -9.4679600002e+02  7.3517558159e+02 ] stress_249 gradient
 [  6.7676093333e-01 -5.5647022269e-03 -3.1869897973e+03 -3.0321727200e+03 
    1.2624232933e+02 -8.2540599999e+02  8.5720533589e+02 ] stress_250 gradient
 [  7.2852133333e-01 -5.3330606307e-03 -3.1047098875e+03 -3.0851203102e+03 
    1.2911492495e+02 -7.8144800001e+02  9.0139613909e+02 ] stress_251 gradient
 [  7.2775926667e-01 -5.8389743465e-03 -3.1047461017e+03 -3.0833190312e+03 
    1.2897868040e+02 -7.8164199999e+02  9.0120354808e+02 ] stress_252 gradient
 [  6.2944613333e-01 -7.2232697173e-03 -3.1130293635e+03 -2.8557764328e+03 
    1.1308057221e+02 -8.1471100000e+02  8.6830947642e+02 ] stress_253 gradient
 [  8.5061333333e-02 -8.0269593102e-03 -3.2065184594e+03 -1.6167678837e+03 
    3.7267488909e+01 -1.0567800000e+03  6.2745086801e+02 ] stress_254 gradient
 [ -3.8548533333e-01 -8.4470364090e-03 -3.4244414018e+03 -5.5933200430e+02 
   -1.3149297883e+01 -1.3391100000e+03  3.4642839535e+02 ] stress_255 gradient
 [ -5.4246233333e-01 -8.8872713689e-03 -3.6237680575e+03 -2.0884804127e+02 
   -2.3308763419e+01 -1.4656300000e+03  2.2047179810e+02 ] stress_256 gradient
 [ -5.6913166667e-01 -9.0276193396e-03 -3.6833314376e+03 -1.4946690625e+02 
   -2.4168150948e+01 -1.4913400000e+03  1.9487575124e+02 ] stress_257 gradient
 [ -4.6591200000e-01 -7.9347273983e-03 -3.6698023600e+03 -5.0999689298e+02 
   -7.1113722323e+00 -1.4584900000e+03  2.2772629002e+02 ] stress_258 gradient
 [ -5.0794000000e-02 -6.9257984701e-03 -3.5667230543e+03 -1.7217402339e+03 
    5.2275065325e+01 -1.2818500000e+03  4.0442435157e+02 ] stress_259 gradient
 [  1.4599153333e-01 -6.5772736786e-03 -3.4868927201e+03 -2.2024790603e+03 
    7.6589506613e+01 -1.1795260000e+03  5.0678346564e+02 ] stress_260 gradient
 [  1.3498033333e-01 -7.5936269317e-03 -3.4876577574e+03 -2.1763209373e+03 
    7.4635743138e+01 -1.1823800000e+03  5.0392855802e+02 ] stress_261 gradient
 [ -2.4918833333e-01 -8.7634256988e-03 -3.5554127843e+03 -1.2092114778e+03 
    1.8096483134e+01 -1.3383800000e+03  3.4821166378e+02 ] stress_262 gradient
 [ -5.6468666667e-01 -9.2488517527e-03 -3.7542214228e+03 -3.3747387841e+02 
   -1.4144422679e+01 -1.5352100000e+03  1.5167455590e+02 ] stress_263 gradient
 [ -5.9708333333e-01 -9.3971426938e-03 -3.8141876436e+03 -2.3672712596e+02 
   -1.5578656762e+01 -1.5645300000e+03  1.2238956684e+02 ] stress_264 gradient
 [ -5.9497100000e-01 -9.1996133387e-03 -3.8140253998e+03 -2.4527116617e+02 
   -1.5197424122e+01 -1.5640200000e+03  1.2290584106e+02 ] stress_265 gradient
 [ -5.7146633333e-01 -8.8010391201e-03 -3.8115529827e+03 -3.3368795460e+02 
   -1.1175035468e+01 -1.5572000000e+03  1.2971611998e+02 ] stress_266 gradient
 [ -4.9027933333e-01 -8.3046592924e-03 -3.8000043307e+03 -6.1621855558e+02 
    1.8933273404e+00 -1.5296800000e+03  1.5722820559e+02 ] stress_267 gradient
 [ -3.2836666667e-01 -7.8085098734e-03 -3.7682629801e+03 -1.1315197224e+03 
    2.6114743252e+01 -1.4658900000e+03  2.2100139871e+02 ] stress_268 gradient
 [ -9.8953333334e-02 -7.3465306526e-03 -3.7042498029e+03 -1.7866170908e+03 
    5.7436924520e+01 -1.3610000000e+03  3.2586923039e+02 ] stress_269 gradient
 [  1.5732833333e-01 -6.8898237261e-03 -3.5989882361e+03 -2.4232585606e+03 
    8.8504694490e+01 -1.2248400000e+03  4.6202545179e+02 ] stress_270 gradient
 [  3.9910290000e-01 -6.3895908445e-03 -3.4486103728e+03 -2.9188971905e+03 
    1.1340582668e+02 -1.0750070000e+03  6.1185489494e+02 ] stress_271 gradient
 [  6.0161770000e-01 -5.8119709575e-03 -3.2538401355e+03 -3.2284621607e+03 
    1.2979029856e+02 -9.2780099999e+02  7.5907004586e+02 ] stress_272 gradient
 [  7.5764946667e-01 -5.1468650625e-03 -3.0185259397e+03 -3.3667008741e+03 
    1.3815724050e+02 -7.9371300001e+02  8.9317395382e+02 ] stress_273 gradient
 [  8.7098780000e-01 -4.4007092439e-03 -2.7479974365e+03 -3.3749011260e+03 
    1.4032521675e+02 -6.7732100000e+02  1.0095850059e+03 ] stress_274 gradient
 [  9.4977176667e-01 -3.5877027473e-03 -2.4481003556e+03 -3.2968980427e+03 
    1.3829265495e+02 -5.7921300000e+02  1.1077121027e+03 ] stress_275 gradient
 [  1.0025445333e+00 -2.7241798104e-03 -2.1247370737e+03 -3.1685564175e+03 
    1.3372224438e+02 -4.9789799999e+02  1.1890441474e+03 ] stress_276 gradient
 [  1.0366022867e+00 -1.8257893693e-03 -1.7835923064e+03 -3.0155680324e+03 
    1.2782079310e+02 -4.3107090000e+02  1.2558869116e+03 ] stress_277 gradient
 [  1.0575856000e+00 -9.0681615982e-04 -1.4301212579e+03 -2.8548454697e+03 
    1.2139354975e+02 -3.7632800000e+02  1.3106431632e+03 ] stress_278 gradient
 [  1.0696327333e+00  1.9866203679e-05 -1.0695334522e+03 -2.6967917177e+03 
    1.1494453849e+02 -3.3148500000e+02  1.3554971270e+03 ] stress_279 gradient
 [  1.0756889333e+00  9.4254726434e-04 -7.0680934517e+02 -2.5473711025e+03 
    1.0877036060e+02 -2.9468800000e+02  1.3923050607e+03 ] stress_280 gradient
 [  1.0778137667e+00  1.8504168504e-03 -3.4671591215e+02 -2.4096820220e+03 
    1.0303237895e+02 -2.6441100000e+02  1.4225889368e+03 ] stress_281 gradient
 [  1.0774322333e+00  2.7333866083e-03  6.1932249171e+00 -2.2850480644e+03 
    9.7807109084e+01 -2.3943400000e+02  1.4475725620e+03 ] stress_282 gradient
 [  1.0755241667e+00  3.5819498862e-03  3.4757195543e+02 -2.1737444097e+03 
    9.3120092052e+01 -2.1878300000e+02  1.4682290096e+03 ] stress_283 gradient
 [  1.0727603333e+00  4.3872226519e-03  6.7333082396e+02 -2.0754487889e+03 
    8.8967169649e+01 -2.0168000001e+02  1.4853298282e+03 ] stress_284 gradient
 [  1.0695973333e+00  5.1407947924e-03  9.7959741065e+02 -1.9895491336e+03 
    8.5328626923e+01 -1.8754000000e+02  1.4994819610e+03 ] stress_285 gradient
 [  1.0663463333e+00  5.8349427743e-03  1.2628137605e+03 -1.9152979883e+03 
    8.2177308734e+01 -1.7585999999e+02  1.5111657501e+03 ] stress_286 gradient
 [  1.0632173333e+00  6.4625503877e-03  1.5197109118e+03 -1.8519330155e+03 
    7.9484007742e+01 -1.6626000001e+02  1.5207597639e+03 ] stress_287 gradient
 [  1.0603510000e+00  7.0171029384e-03  1.7473092280e+03 -1.7987426752e+03 
    7.7220362083e+01 -1.5847000000e+02  1.5285581699e+03 ] stress_288 gradient
 [  1.0578413333e+00  7.4929841324e-03  1.9430404964e+03 -1.7550769530e+03 
    7.5360315737e+01 -1.5224000001e+02  1.5347929462e+03 ] stress_289 gradient
 [  1.0557503333e+00  7.8853056900e-03  2.1046787108e+03 -1.7203869636e+03 
    7.3881578892e+01 -1.4739000001e+02  1.5396422715e+03 ] stress_290 gradient
 [  1.0541180000e+00  8.1899899572e-03  2.2303735730e+03 -1.6942291942e+03 
    7.2765935392e+01 -1.4378999999e+02  1.5432394097e+03 ] stress_291 gradient
 [  1.0529686667e+00  8.4039783709e-03  2.3187349368e+03 -1.6762543909e+03 
    7.1999012150e+01 -1.4134999999e+02  1.5456820877e+03 ] stress_292 gradient
 [  1.0523183333e+00  8.5250184757e-03  2.3687447642e+03 -1.6662286739e+03 
    7.1571124629e+01 -1.4000000001e+02  1.5470344695e+03 ] stress_293 gradient
 [  1.0523090000e+00  8.5268062410e-03  2.3694837207e+03 -1.6660813750e+03 
    7.1564898855e+01 -1.3996999999e+02  1.5470547058e+03 ] stress_294 gradient
 [  8.0072200000e-01  7.3711030679e-03  2.3227123997e+03 -4.6783376040e+02 
    2.9440690586e+01 -2.1728000002e+02  1.4697769438e+03 ] stress_295 gradient
 [  3.9659066667e-01  6.6798955406e-03  2.1821340295e+03  1.2039671136e+03 
   -3.0493000277e+01 -3.7887000001e+02  1.3082285200e+03 ] stress_296 gradient
 [  3.9659066667e-01  7.3083815471e-03  2.1821340295e+03  1.2039671136e+03 
   -3.0493000277e+01 -3.7887000001e+02  1.3082285200e+03 ] stress_297 gradient
 [  5.1015066667e-01  9.2092259658e-03  2.1892107351e+03  9.2280847307e+02 
   -2.1763003416e+01 -2.9362000000e+02  1.3933466415e+03 ] stress_298 gradient
 [  5.6079366667e-01  9.1911153219e-03  2.1934858295e+03  7.9529030707e+02 
   -1.8173267691e+01 -2.5419999999e+02  1.4327266179e+03 ] stress_299 gradient
 [  5.5578500000e-01  8.9935027098e-03  2.1929874699e+03  8.2206646893e+02 
   -1.9106211598e+01 -2.5528000001e+02  1.4316447124e+03 ] stress_300 gradient
 [  5.2691433333e-01  8.6877490104e-03  2.1891080177e+03  9.6729969521e+02 
   -2.4244320614e+01 -2.6267999999e+02  1.4242480724e+03 ] stress_301 gradient
 [  4.5657733333e-01  8.3313892888e-03  2.1766016847e+03  1.3005693938e+03 
   -3.6167601999e+01 -2.8359000000e+02  1.4033503184e+03 ] stress_302 gradient
 [  3.3973100000e-01  7.9636253022e-03  2.1490495999e+03  1.8202969010e+03 
   -5.4928552102e+01 -3.2337999999e+02  1.3635690696e+03 ] stress_303 gradient
 [  1.8557666667e-01  7.5950545624e-03  2.1003064363e+03  2.4594487149e+03 
   -7.8171522147e+01 -3.8319000000e+02  1.3037814543e+03 ] stress_304 gradient
 [  1.1795333333e-02  7.2154939061e-03  2.0256795850e+03  3.1236897248e+03 
   -1.0248056008e+02 -4.5978999999e+02  1.2272075231e+03 ] stress_305 gradient
 [ -1.6341400000e-01  6.8065067611e-03  1.9223256278e+03  3.7308900147e+03 
   -1.2483385919e+02 -5.4745999998e+02  1.1395519582e+03 ] stress_306 gradient
 [ -3.2625870000e-01  6.3517135826e-03  1.7891631245e+03  4.2298312504e+03 
   -1.4331917656e+02 -6.4006600001e+02  1.0469674057e+03 ] stress_307 gradient
 [ -4.6875760000e-01  5.8412395807e-03  1.6265311258e+03  4.6007087284e+03 
   -1.5717475402e+02 -7.3236000001e+02  9.5468634953e+02 ] stress_308 gradient
 [ -5.8798803333e-01  5.2715661494e-03  1.4356646773e+03  4.8467176820e+03 
   -1.6649091144e+02 -8.2064200001e+02  8.6641471053e+02 ] stress_309 gradient
 [ -6.8436870000e-01  4.6440918116e-03  1.2184013138e+03  4.9836880997e+03 
   -1.7183022059e+02 -9.0265199999e+02  7.8441264451e+02 ] stress_310 gradient
 [ -7.6017193333e-01  3.9630914563e-03  9.7687866548e+02  5.0323464951e+03 
   -1.7394138088e+02 -9.7729800000e+02  7.0977044761e+02 ] stress_311 gradient
 [ -8.1842310000e-01  3.2342131313e-03  7.1335654381e+02  5.0134563274e+03 
   -1.7357853349e+02 -1.0443090000e+03  6.4276279154e+02 ] stress_312 gradient
 [ -8.6222380000e-01  2.4637150479e-03  4.3018247143e+02  4.9454107066e+03 
   -1.7141111833e+02 -1.1039050000e+03  5.8316850758e+02 ] stress_313 gradient
 [ -8.9442699000e-01  1.6577727287e-03  1.2967401962e+02  4.8433745933e+03 
   -1.6799161297e+02 -1.1565975000e+03  5.3047696794e+02 ] stress_314 gradient
 [ -9.1748863333e-01  8.2233927716e-04 -1.8587355025e+02  4.7192710034e+03 
   -1.6375445276e+02 -1.2030250000e+03  4.8404898959e+02 ] stress_315 gradient
 [ -9.3344316667e-01 -3.6902187633e-05 -5.1418750821e+02  4.5821651273e+03 
   -1.5902995042e+02 -1.2438640000e+03  4.4321140229e+02 ] stress_316 gradient
 [ -9.4393546667e-01 -9.1459590797e-04 -8.5304437327e+02  4.4387572246e+03 
   -1.5406220474e+02 -1.2797660000e+03  4.0730872532e+02 ] stress_317 gradient
 [ -9.5027270000e-01 -1.8056111909e-03 -1.2002451062e+03  4.2938888105e+03 
   -1.4902762805e+02 -1.3113390000e+03  3.7573445986e+02 ] stress_318 gradient
 [ -9.5348253333e-01 -2.7050232915e-03 -1.5536238087e+03  4.1509723789e+03 
   -1.4405062057e+02 -1.3391320000e+03  3.4794242134e+02 ] stress_319 gradient
 [ -9.5436660000e-01 -3.6081005046e-03 -1.9110582720e+03  4.0123427680e+03 
   -1.3921637549e+02 -1.3636240000e+03  3.2344910859e+02 ] stress_320 gradient
 [ -9.5354683333e-01 -4.5102006427e-03 -2.2704419026e+03  3.8795487372e+03 
   -1.3458152430e+02 -1.3852390000e+03  3.0183330896e+02 ] stress_321 gradient
 [ -9.5150366667e-01 -5.4068375118e-03 -2.6297198810e+03  3.7535551446e+03 
   -1.3018149244e+02 -1.4043400000e+03  2.8272923773e+02 ] stress_322 gradient
 [ -9.4860833333e-01 -6.2935742915e-03 -2.9868548579e+03  3.6349191595e+03 
   -1.2603697099e+02 -1.4212500000e+03  2.6582150367e+02 ] stress_323 gradient
 [ -9.4514466667e-01 -7.1661031771e-03 -3.3398636945e+03  3.5238999796e+03 
   -1.2215769830e+02 -1.4362300000e+03  2.5084017332e+02 ] stress_324 gradient
 [ -9.4133133333e-01 -8.0202542220e-03 -3.6868246612e+03  3.4205488260e+03 
   -1.1854598021e+02 -1.4495200000e+03  2.3755080096e+02 ] stress_325 gradient
 [ -9.3733500000e-01 -8.8518665155e-03 -4.0258298712e+03  3.3247903317e+03 
   -1.1519951087e+02 -1.4613200000e+03  2.2575595856e+02 ] stress_326 gradient
 [ -9.3328333333e-01 -9.6570185908e-03 -4.3550785856e+03  3.2364450711e+03 
   -1.1211221825e+02 -1.4717900000e+03  2.1528339021e+02 ] stress_327 gradient
 [ -9.2927300000e-01 -1.0431759938e-02 -4.6727689576e+03  3.1552958340e+03 
   -1.0927641618e+02 -1.4810800000e+03  2.0598749275e+02 ] stress_328 gradient
 [ -9.2537766667e-01 -1.1172458878e-02 -4.9772425574e+03  3.0810757042e+03 
   -1.0668318876e+02 -1.4893300000e+03  1.9774141869e+02 ] stress_329 gradient
 [ -9.2165166667e-01 -1.1875570212e-02 -5.2668874686e+03  3.0135137247e+03 
   -1.0432269771e+02 -1.4966300000e+03  1.9043806333e+02 ] stress_330 gradient
 [ -9.1813666667e-01 -1.2537670725e-02 -5.5401551775e+03  2.9523431815e+03 
   -1.0218571967e+02 -1.5030800000e+03  1.8398512910e+02 ] stress_331 gradient
 [ -9.1486300000e-01 -1.3155640540e-02 -5.7956320040e+03  2.8972954411e+03 
   -1.0026295441e+02 -1.5087700000e+03  1.7830265764e+02 ] stress_332 gradient
 [ -9.1185333333e-01 -1.3726456592e-02 -6.0319577035e+03  2.8481262177e+03 
   -9.8545716578e+01 -1.5137500000e+03  1.7332352343e+02 ] stress_333 gradient
 [ -9.0912366667e-01 -1.4247403672e-02 -6.2479082495e+03  2.8046021368e+03 
   -9.7025705151e+01 -1.5180800000e+03  1.6899096593e+02 ] stress_334 gradient
 [ -9.0668500000e-01 -1.4716024732e-02 -6.4423792219e+03  2.7665089178e+03 
   -9.5695541430e+01 -1.5218100000e+03  1.6525414743e+02 ] stress_335 gradient
 [ -9.0454700000e-01 -1.5129920164e-02 -6.6142988708e+03  2.7336704689e+03 
   -9.4548922777e+01 -1.5249900000e+03  1.6207456946e+02 ] stress_336 gradient
 [ -9.0271400000e-01 -1.5487222173e-02 -6.7628271834e+03  2.7059122137e+03 
   -9.3579854003e+01 -1.5276600000e+03  1.5941521428e+02 ] stress_337 gradient
 [ -9.0119000000e-01 -1.5786144931e-02 -6.8871667845e+03  2.6830986736e+03 
   -9.2783339115e+01 -1.5298100000e+03  1.5724992267e+02 ] stress_338 gradient
 [ -8.9997800000e-01 -1.6025231118e-02 -6.9866678686e+03  2.6651143737e+03 
   -9.2155535043e+01 -1.5315100000e+03  1.5555450971e+02 ] stress_339 gradient
 [ -8.9907900000e-01 -1.6203370641e-02 -7.0608334605e+03  2.6518636403e+03 
   -9.1693059884e+01 -1.5327600000e+03  1.5431268757e+02 ] stress_340 gradient
 [ -8.9849400000e-01 -1.6319678654e-02 -7.1092695792e+03  2.6432799971e+03 
   -9.1393454071e+01 -1.5335600000e+03  1.5351112989e+02 ] stress_341 gradient
 [ -8.9822300000e-01 -1.6373569775e-02 -7.1317156935e+03  2.6393208103e+03 
   -9.1255180378e+01 -1.5339300000e+03  1.5314243309e+02 ] stress_342 gradient



---------------------
Begin Evaluation   30
---------------------
Parameters for evaluation 30:
                      3.0000000000e+02 fy
                      1.1892670285e+05 E
                      1.3433593910e-01 b
                      9.6639169266e-01 cR1
                      2.0000000000e+00 cR2
                      1.0000000000e-06 a1
                      8.2915199803e-02 a3

blocking fork: workflow_driver1 paramsDakota.in results.out

Active response data for evaluation 30:
Active set vector = { 1 1 1 1 1 1 1 1 1 1 1 1 1 1 1 1 1 1 1 1 1 1 1 1 1 1 1 1 1 1 1 1 1 1 1 1 1 1 1 1 1 1 1 1 1 1 1 1 1 1 1 1 1 1 1 1 1 1 1 1 1 1 1 1 1 1 1 1 1 1 1 1 1 1 1 1 1 1 1 1 1 1 1 1 1 1 1 1 1 1 1 1 1 1 1 1 1 1 1 1 1 1 1 1 1 1 1 1 1 1 1 1 1 1 1 1 1 1 1 1 1 1 1 1 1 1 1 1 1 1 1 1 1 1 1 1 1 1 1 1 1 1 1 1 1 1 1 1 1 1 1 1 1 1 1 1 1 1 1 1 1 1 1 1 1 1 1 1 1 1 1 1 1 1 1 1 1 1 1 1 1 1 1 1 1 1 1 1 1 1 1 1 1 1 1 1 1 1 1 1 1 1 1 1 1 1 1 1 1 1 1 1 1 1 1 1 1 1 1 1 1 1 1 1 1 1 1 1 1 1 1 1 1 1 1 1 1 1 1 1 1 1 1 1 1 1 1 1 1 1 1 1 1 1 1 1 1 1 1 1 1 1 1 1 1 1 1 1 1 1 1 1 1 1 1 1 1 1 1 1 1 1 1 1 1 1 1 1 1 1 1 1 1 1 1 1 1 1 1 1 1 1 1 1 1 1 1 1 1 1 1 1 1 1 1 1 1 1 1 1 1 1 1 1 1 1 1 1 1 1 1 1 1 1 1 1 1 1 1 1 1 1 }
                      1.3858810540e+00 stress_1
                     -1.4403244798e+02 stress_2
                     -3.1484038027e+02 stress_3
                     -3.2090449742e+02 stress_4
                     -1.3213719638e+02 stress_5
                      1.5075464472e+02 stress_6
                      3.0455798515e+02 stress_7
                      3.0519388229e+02 stress_8
                      1.6215376528e+02 stress_9
                     -8.2140988618e+01 stress_10
                     -3.1570259915e+02 stress_11
                     -3.5608792845e+02 stress_12
                     -3.7904157440e+02 stress_13
                     -3.8114525031e+02 stress_14
                     -1.8954512955e+02 stress_15
                     -2.8565442015e+02 stress_16
                     -3.8156634772e+02 stress_17
                     -2.6982806248e+02 stress_18
                     -6.0732964341e+01 stress_19
                      1.9357324772e+02 stress_20
                      2.9056694268e+02 stress_21
                      3.2676361349e+02 stress_22
                      3.5130542074e+02 stress_23
                      3.6162121154e+02 stress_24
                      1.6962318044e+02 stress_25
                      2.4292937411e+02 stress_26
                      3.2561375270e+02 stress_27
                      3.4717004253e+02 stress_28
                      2.7680271797e+02 stress_29
                      1.5143005208e+02 stress_30
                     -2.3444432730e+01 stress_31
                     -2.1815330535e+02 stress_32
                     -3.0637731933e+02 stress_33
                     -3.4683031205e+02 stress_34
                     -3.8544985208e+02 stress_35
                     -4.2378541984e+02 stress_36
                     -4.6044685856e+02 stress_37
                     -4.9392841327e+02 stress_38
                     -5.2284202250e+02 stress_39
                     -5.4597157270e+02 stress_40
                     -5.6236389123e+02 stress_41
                     -5.7133229963e+02 stress_42
                     -5.6248213118e+02 stress_43
                     -3.3423485352e+02 stress_44
                     -1.4018394346e+02 stress_45
                     -2.5817968808e+02 stress_46
                     -4.7358365078e+02 stress_47
                     -3.0107706789e+02 stress_48
                     -3.5997742030e+02 stress_49
                     -4.5191125555e+02 stress_50
                     -5.6962135753e+02 stress_51
                     -4.7209715955e+02 stress_52
                     -2.6309133976e+02 stress_53
                     -2.5703570393e+01 stress_54
                      1.0172398228e+02 stress_55
                      1.4998421942e+02 stress_56
                      1.6641288718e+02 stress_57
                      1.1698244215e+02 stress_58
                     -6.8226654768e+01 stress_59
                     -3.3438167889e+02 stress_60
                     -5.1258213590e+02 stress_61
                     -5.4795265464e+02 stress_62
                     -5.5720348598e+02 stress_63
                     -4.0199494536e+02 stress_64
                     -1.4124410354e+02 stress_65
                     -6.1170053729e+01 stress_66
                     -2.1763157000e+02 stress_67
                     -4.8789651965e+02 stress_68
                     -5.7038880664e+02 stress_69
                     -5.7096709538e+02 stress_70
                     -5.1634611788e+02 stress_71
                     -4.1623969261e+02 stress_72
                     -2.7418620866e+02 stress_73
                     -1.0458196183e+02 stress_74
                      4.1611669226e+01 stress_75
                      1.2568520298e+02 stress_76
                      1.7669836585e+02 stress_77
                      2.1890157045e+02 stress_78
                      2.5907465057e+02 stress_79
                      2.9825891641e+02 stress_80
                      3.3602346476e+02 stress_81
                      3.7156167911e+02 stress_82
                      4.0399705164e+02 stress_83
                      4.3249719334e+02 stress_84
                      4.5630983949e+02 stress_85
                      4.7480773750e+02 stress_86
                      4.8750285825e+02 stress_87
                      4.9404891393e+02 stress_88
                      4.5184925534e+02 stress_89
                      1.8941893002e+02 stress_90
                      3.8412747437e+01 stress_91
                      2.0461241032e+02 stress_92
                      4.4441456597e+02 stress_93
                      4.5185538764e+02 stress_94
                      4.1739915949e+02 stress_95
                      3.5520452600e+02 stress_96
                      2.6614883126e+02 stress_97
                      1.5318736411e+02 stress_98
                      2.7548684487e+01 stress_99
                     -8.5637148998e+01 stress_100
                     -1.6644056912e+02 stress_101
                     -2.2059995117e+02 stress_102
                     -2.6216809878e+02 stress_103
                     -2.9947526438e+02 stress_104
                     -3.3593259508e+02 stress_105
                     -3.7271735045e+02 stress_106
                     -4.1010557071e+02 stress_107
                     -4.4800784046e+02 stress_108
                     -4.8617957973e+02 stress_109
                     -5.2430902076e+02 stress_110
                     -5.6205343892e+02 stress_111
                     -5.9905535352e+02 stress_112
                     -6.3496103012e+02 stress_113
                     -6.6942316929e+02 stress_114
                     -7.0210443780e+02 stress_115
                     -7.3268495086e+02 stress_116
                     -7.6086149395e+02 stress_117
                     -7.8636055067e+02 stress_118
                     -8.0893164799e+02 stress_119
                     -8.2834784122e+02 stress_120
                     -8.4442276050e+02 stress_121
                     -8.5699620397e+02 stress_122
                     -8.6594266208e+02 stress_123
                     -8.7117738787e+02 stress_124
                     -8.7258377055e+02 stress_125
                     -8.1386404382e+02 stress_126
                     -6.6815025454e+02 stress_127
                     -4.7282098832e+02 stress_128
                     -2.9940500520e+02 stress_129
                     -1.8495846774e+02 stress_130
                     -1.1508578500e+02 stress_131
                     -7.2620228145e+01 stress_132
                     -5.0415717564e+01 stress_133
                     -4.9111248170e+01 stress_134
                     -2.8584818583e+02 stress_135
                     -2.9955896069e+02 stress_136
                     -1.9151358950e+02 stress_137
                     -2.1219387279e+02 stress_138
                     -3.1159993637e+02 stress_139
                     -5.0112825249e+02 stress_140
                     -7.2009674617e+02 stress_141
                     -7.9713173250e+02 stress_142
                     -8.3247486717e+02 stress_143
                     -8.5802145211e+02 stress_144
                     -8.7129685091e+02 stress_145
                     -8.5962340246e+02 stress_146
                     -7.2273468054e+02 stress_147
                     -5.0712832114e+02 stress_148
                     -3.1698709525e+02 stress_149
                     -2.0648857413e+02 stress_150
                     -1.5614408865e+02 stress_151
                     -1.4932400147e+02 stress_152
                     -2.7349608547e+02 stress_153
                     -5.0527136764e+02 stress_154
                     -7.5831450570e+02 stress_155
                     -8.3955468223e+02 stress_156
                     -8.5657740492e+02 stress_157
                     -7.8629256182e+02 stress_158
                     -5.4281125958e+02 stress_159
                     -4.1270743606e+02 stress_160
                     -5.0820129709e+02 stress_161
                     -7.5903052154e+02 stress_162
                     -8.6738589424e+02 stress_163
                     -8.7206985005e+02 stress_164
                     -8.4817176269e+02 stress_165
                     -8.0103063060e+02 stress_166
                     -7.3132810969e+02 stress_167
                     -6.4116253295e+02 stress_168
                     -5.3608435320e+02 stress_169
                     -4.2626902915e+02 stress_170
                     -3.2406132125e+02 stress_171
                     -2.3773690743e+02 stress_172
                     -1.6821266589e+02 stress_173
                     -1.1167314831e+02 stress_174
                     -6.3460889042e+01 stress_175
                     -1.9988545901e+01 stress_176
                      2.1037497263e+01 stress_177
                      6.0946773027e+01 stress_178
                      1.0044303555e+02 stress_179
                      1.3985379788e+02 stress_180
                      1.7928248469e+02 stress_181
                      2.1869337629e+02 stress_182
                      2.5797111139e+02 stress_183
                      2.9694815076e+02 stress_184
                      3.3542878577e+02 stress_185
                      3.7319877121e+02 stress_186
                      4.1003521978e+02 stress_187
                      4.4571367585e+02 stress_188
                      4.8000918979e+02 stress_189
                      5.1270367441e+02 stress_190
                      5.4358700809e+02 stress_191
                      5.7245492953e+02 stress_192
                      5.9912266132e+02 stress_193
                      6.2341395066e+02 stress_194
                      6.4516530109e+02 stress_195
                      6.6423704063e+02 stress_196
                      6.8049877328e+02 stress_197
                      6.9384577081e+02 stress_198
                      7.0418959629e+02 stress_199
                      7.1145826582e+02 stress_200
                      7.1560607458e+02 stress_201
                      7.1580925088e+02 stress_202
                      5.0824263068e+02 stress_203
                      2.9824614259e+02 stress_204
                      3.6057455722e+02 stress_205
                      6.2036528625e+02 stress_206
                      6.3417551282e+02 stress_207
                      5.9708375670e+02 stress_208
                      5.3004732178e+02 stress_209
                      4.3647380309e+02 stress_210
                      3.2570292737e+02 stress_211
                      2.1340916087e+02 stress_212
                      1.1423258036e+02 stress_213
                      3.3680556992e+01 stress_214
                     -3.1061966151e+01 stress_215
                     -8.5349069357e+01 stress_216
                     -1.3358513369e+02 stress_217
                     -1.7855902971e+02 stress_218
                     -2.2180065099e+02 stress_219
                     -2.6403730749e+02 stress_220
                     -3.0552321537e+02 stress_221
                     -3.4623497568e+02 stress_222
                     -3.8599089533e+02 stress_223
                     -4.2451776618e+02 stress_224
                     -4.6149656981e+02 stress_225
                     -4.9658573187e+02 stress_226
                     -5.2943942966e+02 stress_227
                     -5.5972554121e+02 stress_228
                     -5.8712096621e+02 stress_229
                     -6.1133726641e+02 stress_230
                     -6.3211353144e+02 stress_231
                     -6.4921779761e+02 stress_232
                     -6.6246904561e+02 stress_233
                     -6.7172026153e+02 stress_234
                     -6.7686546269e+02 stress_235
                     -6.7315031172e+02 stress_236
                     -4.6195825505e+02 stress_237
                     -2.7417898490e+02 stress_238
                     -4.0223652964e+02 stress_239
                     -5.8326910938e+02 stress_240
                     -3.9076638917e+02 stress_241
                     -2.7769672566e+02 stress_242
                     -4.7673588164e+02 stress_243
                     -5.6772577750e+02 stress_244
                     -6.5158313276e+02 stress_245
                     -5.4537790195e+02 stress_246
                     -3.3966377661e+02 stress_247
                     -1.3045726336e+02 stress_248
                      9.8237490098e-01 stress_249
                      6.5752833811e+01 stress_250
                      8.7312222215e+01 stress_251
                      2.6950634468e+01 stress_252
                     -1.6434289192e+02 stress_253
                     -4.1747783228e+02 stress_254
                     -5.8175405958e+02 stress_255
                     -6.3799769063e+02 stress_256
                     -6.4933496801e+02 stress_257
                     -4.8943086562e+02 stress_258
                     -2.4439669258e+02 stress_259
                     -1.4963936271e+02 stress_260
                     -2.7343509050e+02 stress_261
                     -5.2485021307e+02 stress_262
                     -6.5161368998e+02 stress_263
                     -6.6632929010e+02 stress_264
                     -6.4226929533e+02 stress_265
                     -5.8825851807e+02 stress_266
                     -5.0538864384e+02 stress_267
                     -3.9732020933e+02 stress_268
                     -2.7364866905e+02 stress_269
                     -1.5107230427e+02 stress_270
                     -4.5695729639e+01 stress_271
                      3.7089557572e+01 stress_272
                      1.0166069456e+02 stress_273
                      1.5487394546e+02 stress_274
                      2.0191804916e+02 stress_275
                      2.4584016254e+02 stress_276
                      2.8820612104e+02 stress_277
                      3.2970709236e+02 stress_278
                      3.7054945680e+02 stress_279
                      4.1067328521e+02 stress_280
                      4.4987255310e+02 stress_281
                      4.8786308880e+02 stress_282
                      5.2432053974e+02 stress_283
                      5.5890814963e+02 stress_284
                      5.9128609406e+02 stress_285
                      6.2113003597e+02 stress_286
                      6.4813372856e+02 stress_287
                      6.7201258768e+02 stress_288
                      6.9251850795e+02 stress_289
                      7.0943429320e+02 stress_290
                      7.2257799761e+02 stress_291
                      7.3181270216e+02 stress_292
                      7.3703747407e+02 stress_293
                      7.3711463178e+02 stress_294
                      5.2245719919e+02 stress_295
                      3.1541282219e+02 stress_296
                      3.9015658996e+02 stress_297
                      6.4580928742e+02 stress_298
                      6.5725185939e+02 stress_299
                      6.3235039986e+02 stress_300
                      5.8751403551e+02 stress_301
                      5.2359379995e+02 stress_302
                      4.4315230696e+02 stress_303
                      3.5154303194e+02 stress_304
                      2.5708086426e+02 stress_305
                      1.6842727700e+02 stress_306
                      9.1085266963e+01 stress_307
                      2.6047279455e+01 stress_308
                     -2.8774357849e+01 stress_309
                     -7.6368127196e+01 stress_310
                     -1.1937876981e+02 stress_311
                     -1.5973811898e+02 stress_312
                     -1.9871520160e+02 stress_313
                     -2.3709638944e+02 stress_314
                     -2.7533532370e+02 stress_315
                     -3.1366546025e+02 stress_316
                     -3.5217915098e+02 stress_317
                     -3.9087418184e+02 stress_318
                     -4.2968687084e+02 stress_319
                     -4.6851398465e+02 stress_320
                     -5.0722328696e+02 stress_321
                     -5.4566654040e+02 stress_322
                     -5.8368188540e+02 stress_323
                     -6.2110197985e+02 stress_324
                     -6.5775768586e+02 stress_325
                     -6.9347501140e+02 stress_326
                     -7.2808648447e+02 stress_327
                     -7.6142085369e+02 stress_328
                     -7.9331894936e+02 stress_329
                     -8.2362421085e+02 stress_330
                     -8.5218482960e+02 stress_331
                     -8.7886153926e+02 stress_332
                     -9.0351943150e+02 stress_333
                     -9.2603679734e+02 stress_334
                     -9.4630340791e+02 stress_335
                     -9.6421173186e+02 stress_336
                     -9.7967761117e+02 stress_337
                     -9.9262094422e+02 stress_338
                     -1.0029761553e+03 stress_339
                     -1.0106933050e+03 stress_340
                     -1.0157325844e+03 stress_341
                     -1.0180677366e+03 stress_342



------------------------------------------
Begin Dakota derivative estimation routine
------------------------------------------

>>>>> map at X performed previously and results retrieved

>>>>> Dakota finite difference gradient evaluation for x[1] + h:

---------------------
Begin Evaluation   31
---------------------
Parameters for evaluation 31:
                      3.0030000000e+02 fy
                      1.1892670285e+05 E
                      1.3433593910e-01 b
                      9.6639169266e-01 cR1
                      2.0000000000e+00 cR2
                      1.0000000000e-06 a1
                      8.2915199803e-02 a3

(Asynchronous job 31 added to queue)


>>>>> Dakota finite difference gradient evaluation for x[2] + h:

---------------------
Begin Evaluation   32
---------------------
Parameters for evaluation 32:
                      3.0000000000e+02 fy
                      1.1904562956e+05 E
                      1.3433593910e-01 b
                      9.6639169266e-01 cR1
                      2.0000000000e+00 cR2
                      1.0000000000e-06 a1
                      8.2915199803e-02 a3

(Asynchronous job 32 added to queue)


>>>>> Dakota finite difference gradient evaluation for x[3] + h:

---------------------
Begin Evaluation   33
---------------------
Parameters for evaluation 33:
                      3.0000000000e+02 fy
                      1.1892670285e+05 E
                      1.3447027504e-01 b
                      9.6639169266e-01 cR1
                      2.0000000000e+00 cR2
                      1.0000000000e-06 a1
                      8.2915199803e-02 a3

(Asynchronous job 33 added to queue)


>>>>> Dakota finite difference gradient evaluation for x[4] + h:

---------------------
Begin Evaluation   34
---------------------
Parameters for evaluation 34:
                      3.0000000000e+02 fy
                      1.1892670285e+05 E
                      1.3433593910e-01 b
                      9.6735808435e-01 cR1
                      2.0000000000e+00 cR2
                      1.0000000000e-06 a1
                      8.2915199803e-02 a3

(Asynchronous job 34 added to queue)


>>>>> Dakota finite difference gradient evaluation for x[5] + h:

---------------------
Begin Evaluation   35
---------------------
Parameters for evaluation 35:
                      3.0000000000e+02 fy
                      1.1892670285e+05 E
                      1.3433593910e-01 b
                      9.6639169266e-01 cR1
                      1.9980000000e+00 cR2
                      1.0000000000e-06 a1
                      8.2915199803e-02 a3

(Asynchronous job 35 added to queue)


>>>>> Dakota finite difference gradient evaluation for x[6] + h:

---------------------
Begin Evaluation   36
---------------------
Parameters for evaluation 36:
                      3.0000000000e+02 fy
                      1.1892670285e+05 E
                      1.3433593910e-01 b
                      9.6639169266e-01 cR1
                      2.0000000000e+00 cR2
                      1.1000000000e-05 a1
                      8.2915199803e-02 a3

(Asynchronous job 36 added to queue)


>>>>> Dakota finite difference gradient evaluation for x[7] + h:

---------------------
Begin Evaluation   37
---------------------
Parameters for evaluation 37:
                      3.0000000000e+02 fy
                      1.1892670285e+05 E
                      1.3433593910e-01 b
                      9.6639169266e-01 cR1
                      2.0000000000e+00 cR2
                      1.0000000000e-06 a1
                      8.2998115002e-02 a3

(Asynchronous job 37 added to queue)



Blocking synchronize of 7 asynchronous evaluations
First pass: initiating 7 local asynchronous jobs
Initiating evaluation 31
nonblocking fork: workflow_driver1 paramsDakota.in results.out
Initiating evaluation 32
nonblocking fork: workflow_driver1 paramsDakota.in results.out
Initiating evaluation 33
nonblocking fork: workflow_driver1 paramsDakota.in results.out
Initiating evaluation 34
nonblocking fork: workflow_driver1 paramsDakota.in results.out
Initiating evaluation 35
nonblocking fork: workflow_driver1 paramsDakota.in results.out
Initiating evaluation 36
nonblocking fork: workflow_driver1 paramsDakota.in results.out
Initiating evaluation 37
nonblocking fork: workflow_driver1 paramsDakota.in results.out
Waiting on completed jobs
Evaluation 31 has completed
Evaluation 32 has completed
Evaluation 33 has completed
Evaluation 34 has completed
Evaluation 35 has completed
Waiting on completed jobs
Evaluation 36 has completed
Waiting on completed jobs
Evaluation 37 has completed

Active response data for evaluation 31:
Active set vector = { 1 1 1 1 1 1 1 1 1 1 1 1 1 1 1 1 1 1 1 1 1 1 1 1 1 1 1 1 1 1 1 1 1 1 1 1 1 1 1 1 1 1 1 1 1 1 1 1 1 1 1 1 1 1 1 1 1 1 1 1 1 1 1 1 1 1 1 1 1 1 1 1 1 1 1 1 1 1 1 1 1 1 1 1 1 1 1 1 1 1 1 1 1 1 1 1 1 1 1 1 1 1 1 1 1 1 1 1 1 1 1 1 1 1 1 1 1 1 1 1 1 1 1 1 1 1 1 1 1 1 1 1 1 1 1 1 1 1 1 1 1 1 1 1 1 1 1 1 1 1 1 1 1 1 1 1 1 1 1 1 1 1 1 1 1 1 1 1 1 1 1 1 1 1 1 1 1 1 1 1 1 1 1 1 1 1 1 1 1 1 1 1 1 1 1 1 1 1 1 1 1 1 1 1 1 1 1 1 1 1 1 1 1 1 1 1 1 1 1 1 1 1 1 1 1 1 1 1 1 1 1 1 1 1 1 1 1 1 1 1 1 1 1 1 1 1 1 1 1 1 1 1 1 1 1 1 1 1 1 1 1 1 1 1 1 1 1 1 1 1 1 1 1 1 1 1 1 1 1 1 1 1 1 1 1 1 1 1 1 1 1 1 1 1 1 1 1 1 1 1 1 1 1 1 1 1 1 1 1 1 1 1 1 1 1 1 1 1 1 1 1 1 1 1 1 1 1 1 1 1 1 1 1 1 1 1 1 1 1 1 1 1 }
                      1.3858810540e+00 stress_1
                     -1.4403244804e+02 stress_2
                     -3.1509955160e+02 stress_3
                     -3.2116413027e+02 stress_4
                     -1.3239682924e+02 stress_5
                      1.5049886732e+02 stress_6
                      3.0469422371e+02 stress_7
                      3.0533489632e+02 stress_8
                      1.6229477932e+02 stress_9
                     -8.2000042038e+01 stress_10
                     -3.1589968776e+02 stress_11
                     -3.5634750912e+02 stress_12
                     -3.7930126998e+02 stress_13
                     -3.8140494686e+02 stress_14
                     -1.8980482535e+02 stress_15
                     -2.8591411594e+02 stress_16
                     -3.8182604643e+02 stress_17
                     -2.7008776119e+02 stress_18
                     -6.0992379390e+01 stress_19
                      1.9347611990e+02 stress_20
                      2.9082695504e+02 stress_21
                      3.2703759122e+02 stress_22
                      3.5158005154e+02 stress_23
                      3.6189590940e+02 stress_24
                      1.6989787333e+02 stress_25
                      2.4320406700e+02 stress_26
                      3.2588840274e+02 stress_27
                      3.4744405991e+02 stress_28
                      2.7707673536e+02 stress_29
                      1.5170406198e+02 stress_30
                     -2.3174178459e+01 stress_31
                     -2.1807747968e+02 stress_32
                     -3.0661182545e+02 stress_33
                     -3.4708876698e+02 stress_34
                     -3.8570947223e+02 stress_35
                     -4.2404511548e+02 stress_36
                     -4.6070655910e+02 stress_37
                     -4.9418811355e+02 stress_38
                     -5.2310172241e+02 stress_39
                     -5.4623127240e+02 stress_40
                     -5.6262359083e+02 stress_41
                     -5.7159199919e+02 stress_42
                     -5.6274183074e+02 stress_43
                     -3.3449241960e+02 stress_44
                     -1.4038927445e+02 stress_45
                     -2.5838501907e+02 stress_46
                     -4.7378932883e+02 stress_47
                     -3.0128202311e+02 stress_48
                     -3.6018237552e+02 stress_49
                     -4.5211621121e+02 stress_50
                     -5.6986924673e+02 stress_51
                     -4.7234503305e+02 stress_52
                     -2.6333029859e+02 stress_53
                     -2.5772925733e+01 stress_54
                      1.0190017500e+02 stress_55
                      1.5022813971e+02 stress_56
                      1.6666918842e+02 stress_57
                      1.1723874339e+02 stress_58
                     -6.7970355648e+01 stress_59
                     -3.3414263783e+02 stress_60
                     -5.1276703090e+02 stress_61
                     -5.4820760087e+02 stress_62
                     -5.5746118442e+02 stress_63
                     -4.0225248543e+02 stress_64
                     -1.4146045639e+02 stress_65
                     -6.1321542457e+01 stress_66
                     -2.1778305873e+02 stress_67
                     -4.8805850517e+02 stress_68
                     -5.7064653477e+02 stress_69
                     -5.7122503150e+02 stress_70
                     -5.1660405344e+02 stress_71
                     -4.1649742763e+02 stress_72
                     -2.7443679818e+02 stress_73
                     -1.0475781100e+02 stress_74
                      4.1658683471e+01 stress_75
                      1.2589712031e+02 stress_76
                      1.7695892107e+02 stress_77
                      2.1917316288e+02 stress_78
                      2.5934872495e+02 stress_79
                      2.9853353306e+02 stress_80
                      3.3629816779e+02 stress_81
                      3.7183636551e+02 stress_82
                      4.0427170522e+02 stress_83
                      4.3277181817e+02 stress_84
                      4.5658444298e+02 stress_85
                      4.7508232642e+02 stress_86
                      4.8777743817e+02 stress_87
                      4.9432348952e+02 stress_88
                      4.5212382935e+02 stress_89
                      1.8967598071e+02 stress_90
                      3.8582798882e+01 stress_91
                      2.0478246176e+02 stress_92
                      4.4459056524e+02 stress_93
                      4.5203397551e+02 stress_94
                      4.1757774669e+02 stress_95
                      3.5538302124e+02 stress_96
                      2.6632541688e+02 stress_97
                      1.5334813565e+02 stress_98
                      2.7643207564e+01 stress_99
                     -8.5676425677e+01 stress_100
                     -1.6660396782e+02 stress_101
                     -2.2082634730e+02 stress_102
                     -2.6241792196e+02 stress_103
                     -2.9973279589e+02 stress_104
                     -3.3619247046e+02 stress_105
                     -3.7297781970e+02 stress_106
                     -4.1036608595e+02 stress_107
                     -4.4826825048e+02 stress_108
                     -4.8643986127e+02 stress_109
                     -5.2456918817e+02 stress_110
                     -5.6231351422e+02 stress_111
                     -5.9931535714e+02 stress_112
                     -6.3522097872e+02 stress_113
                     -6.6968307577e+02 stress_114
                     -7.0236431198e+02 stress_115
                     -7.3294480020e+02 stress_116
                     -7.6112132411e+02 stress_117
                     -7.8662036602e+02 stress_118
                     -8.0919145192e+02 stress_119
                     -8.2860763642e+02 stress_120
                     -8.4468254915e+02 stress_121
                     -8.5725598788e+02 stress_122
                     -8.6620244281e+02 stress_123
                     -8.7143716681e+02 stress_124
                     -8.7284354900e+02 stress_125
                     -8.1412367996e+02 stress_126
                     -6.6839964445e+02 stress_127
                     -4.7298771513e+02 stress_128
                     -2.9939747750e+02 stress_129
                     -1.8480992723e+02 stress_130
                     -1.1486781324e+02 stress_131
                     -7.2373046636e+01 stress_132
                     -5.0157388894e+01 stress_133
                     -4.8852346335e+01 stress_134
                     -2.8558930440e+02 stress_135
                     -2.9930009360e+02 stress_136
                     -1.9125017005e+02 stress_137
                     -2.1193045333e+02 stress_138
                     -3.1133651715e+02 stress_139
                     -5.0086672956e+02 stress_140
                     -7.2007986141e+02 stress_141
                     -7.9737891871e+02 stress_142
                     -8.3273374371e+02 stress_143
                     -8.5828101678e+02 stress_144
                     -8.7155649576e+02 stress_145
                     -8.5988304683e+02 stress_146
                     -7.2299082375e+02 stress_147
                     -5.0731879354e+02 stress_148
                     -3.1700257474e+02 stress_149
                     -2.0636696731e+02 stress_150
                     -1.5596545070e+02 stress_151
                     -1.4913839812e+02 stress_152
                     -2.7331048211e+02 stress_153
                     -5.0508596331e+02 stress_154
                     -7.5827551122e+02 stress_155
                     -8.3979805501e+02 stress_156
                     -8.5683406956e+02 stress_157
                     -7.8654898540e+02 stress_158
                     -5.4302654385e+02 stress_159
                     -4.1283851084e+02 stress_160
                     -5.0833237187e+02 stress_161
                     -7.5916463850e+02 stress_162
                     -8.6764375571e+02 stress_163
                     -8.7232886844e+02 stress_164
                     -8.4843077507e+02 stress_165
                     -8.0128937301e+02 stress_166
                     -7.3158420395e+02 stress_167
                     -6.4140594235e+02 stress_168
                     -5.3628982004e+02 stress_169
                     -4.2639795720e+02 stress_170
                     -3.2408352998e+02 stress_171
                     -2.3765229123e+02 stress_172
                     -1.6804556613e+02 stress_173
                     -1.1145250715e+02 stress_174
                     -6.3208811513e+01 stress_175
                     -1.9718958292e+01 stress_176
                      2.1316570538e+01 stress_177
                      6.1230884847e+01 stress_178
                      1.0072975702e+02 stress_179
                      1.4014180935e+02 stress_180
                      1.7957107216e+02 stress_181
                      2.1898215717e+02 stress_182
                      2.5825988528e+02 stress_183
                      2.9723681777e+02 stress_184
                      3.3571730132e+02 stress_185
                      3.7348712089e+02 stress_186
                      4.1032340524e+02 stress_187
                      4.4600170689e+02 stress_188
                      4.8029707993e+02 stress_189
                      5.1299143845e+02 stress_190
                      5.4387466081e+02 stress_191
                      5.7274248504e+02 stress_192
                      5.9941013274e+02 stress_193
                      6.2370135007e+02 stress_194
                      6.4545263957e+02 stress_195
                      6.6452432831e+02 stress_196
                      6.8078601950e+02 stress_197
                      6.9413298424e+02 stress_198
                      7.0447678503e+02 stress_199
                      7.1174543760e+02 stress_200
                      7.1589323681e+02 stress_201
                      7.1609641264e+02 stress_202
                      5.0851238504e+02 stress_203
                      2.9840248497e+02 stress_204
                      3.6073089960e+02 stress_205
                      6.2052198659e+02 stress_206
                      6.3433267088e+02 stress_207
                      5.9724081783e+02 stress_208
                      5.3020206003e+02 stress_209
                      4.3661408430e+02 stress_210
                      3.2579860292e+02 stress_211
                      2.1342374076e+02 stress_212
                      1.1415277891e+02 stress_213
                      3.3523237662e+01 stress_214
                     -3.1269708832e+01 stress_215
                     -8.5585461822e+01 stress_216
                     -1.3383664934e+02 stress_217
                     -1.7881816945e+02 stress_218
                     -2.2206345812e+02 stress_219
                     -2.6430174073e+02 stress_220
                     -3.0578823822e+02 stress_221
                     -3.4650007411e+02 stress_222
                     -3.8625582669e+02 stress_223
                     -4.2478242851e+02 stress_224
                     -4.6176093337e+02 stress_225
                     -4.9684980313e+02 stress_226
                     -5.2970323232e+02 stress_227
                     -5.5998910621e+02 stress_228
                     -5.8738432668e+02 stress_229
                     -6.1160045511e+02 stress_230
                     -6.3237657971e+02 stress_231
                     -6.4948073508e+02 stress_232
                     -6.6273190019e+02 stress_233
                     -6.7198305974e+02 stress_234
                     -6.7712823008e+02 stress_235
                     -6.7341307910e+02 stress_236
                     -4.6221090887e+02 stress_237
                     -2.7435830331e+02 stress_238
                     -4.0241594124e+02 stress_239
                     -5.8347378079e+02 stress_240
                     -3.9096172033e+02 stress_241
                     -2.7785650771e+02 stress_242
                     -4.7689759525e+02 stress_243
                     -5.6790608915e+02 stress_244
                     -6.5182095089e+02 stress_245
                     -5.4561475554e+02 stress_246
                     -3.3986203220e+02 stress_247
                     -1.3049470630e+02 stress_248
                      1.1047970884e+00 stress_249
                      6.5948347031e+01 stress_250
                      8.7528052399e+01 stress_251
                      2.7166464374e+01 stress_252
                     -1.6412855981e+02 stress_253
                     -4.1734466601e+02 stress_254
                     -5.8187258115e+02 stress_255
                     -6.3821141954e+02 stress_256
                     -6.4956163840e+02 stress_257
                     -4.8965402282e+02 stress_258
                     -2.4453905914e+02 stress_259
                     -1.4970278919e+02 stress_260
                     -2.7349855510e+02 stress_261
                     -5.2495416328e+02 stress_262
                     -6.5184680097e+02 stress_263
                     -6.6657522482e+02 stress_264
                     -6.4251522562e+02 stress_265
                     -5.8850414870e+02 stress_266
                     -5.0563069030e+02 stress_267
                     -3.9754339578e+02 stress_268
                     -2.7381493628e+02 stress_269
                     -1.5113310560e+02 stress_270
                     -4.5632510875e+01 stress_271
                      3.7253011316e+01 stress_272
                      1.0188697547e+02 stress_273
                      1.5513441035e+02 stress_274
                      2.0219588216e+02 stress_275
                      2.4612652669e+02 stress_276
                      2.8849656542e+02 stress_277
                      3.2999940497e+02 stress_278
                      3.7084254422e+02 stress_279
                      4.1096661246e+02 stress_280
                      4.5016586555e+02 stress_281
                      4.8815627325e+02 stress_282
                      5.2461355420e+02 stress_283
                      5.5920098741e+02 stress_284
                      5.9157876538e+02 stress_285
                      6.2142255845e+02 stress_286
                      6.4842612244e+02 stress_287
                      6.7230487350e+02 stress_288
                      6.9281070547e+02 stress_289
                      7.0972642105e+02 stress_290
                      7.2287007331e+02 stress_291
                      7.3210474225e+02 stress_292
                      7.3732949438e+02 stress_293
                      7.3740665179e+02 stress_294
                      5.2273149984e+02 stress_295
                      3.1557986302e+02 stress_296
                      3.9032363079e+02 stress_297
                      6.4597798105e+02 stress_298
                      6.5742203664e+02 stress_299
                      6.3252055229e+02 stress_300
                      5.8768357564e+02 stress_301
                      5.2375922536e+02 stress_302
                      4.4330281871e+02 stress_303
                      3.5165770014e+02 stress_304
                      2.5713417106e+02 stress_305
                      1.6840285524e+02 stress_306
                      9.0984784345e+01 stress_307
                      2.5885943186e+01 stress_308
                     -2.8977979604e+01 stress_309
                     -7.6598567068e+01 stress_310
                     -1.1962526556e+02 stress_311
                     -1.5999385158e+02 stress_312
                     -1.9897605767e+02 stress_313
                     -2.3735995400e+02 stress_314
                     -2.7560020246e+02 stress_315
                     -3.1393086044e+02 stress_316
                     -3.5244463130e+02 stress_317
                     -3.9113950538e+02 stress_318
                     -4.2995191908e+02 stress_319
                     -4.6877870702e+02 stress_320
                     -5.0748767133e+02 stress_321
                     -5.4593059571e+02 stress_322
                     -5.8394563149e+02 stress_323
                     -6.2136544153e+02 stress_324
                     -6.5802088955e+02 stress_325
                     -6.9373798321e+02 stress_326
                     -7.2834924923e+02 stress_327
                     -7.6168343446e+02 stress_328
                     -7.9358136728e+02 stress_329
                     -8.2388648516e+02 stress_330
                     -8.5244697772e+02 stress_331
                     -8.7912357699e+02 stress_332
                     -9.0378137316e+02 stress_333
                     -9.2629865597e+02 stress_334
                     -9.4656519541e+02 stress_335
                     -9.6447345918e+02 stress_336
                     -9.7993928845e+02 stress_337
                     -9.9288258095e+02 stress_338
                     -1.0032377605e+03 stress_339
                     -1.0109548870e+03 stress_340
                     -1.0159941516e+03 stress_341
                     -1.0183292969e+03 stress_342


Active response data for evaluation 32:
Active set vector = { 1 1 1 1 1 1 1 1 1 1 1 1 1 1 1 1 1 1 1 1 1 1 1 1 1 1 1 1 1 1 1 1 1 1 1 1 1 1 1 1 1 1 1 1 1 1 1 1 1 1 1 1 1 1 1 1 1 1 1 1 1 1 1 1 1 1 1 1 1 1 1 1 1 1 1 1 1 1 1 1 1 1 1 1 1 1 1 1 1 1 1 1 1 1 1 1 1 1 1 1 1 1 1 1 1 1 1 1 1 1 1 1 1 1 1 1 1 1 1 1 1 1 1 1 1 1 1 1 1 1 1 1 1 1 1 1 1 1 1 1 1 1 1 1 1 1 1 1 1 1 1 1 1 1 1 1 1 1 1 1 1 1 1 1 1 1 1 1 1 1 1 1 1 1 1 1 1 1 1 1 1 1 1 1 1 1 1 1 1 1 1 1 1 1 1 1 1 1 1 1 1 1 1 1 1 1 1 1 1 1 1 1 1 1 1 1 1 1 1 1 1 1 1 1 1 1 1 1 1 1 1 1 1 1 1 1 1 1 1 1 1 1 1 1 1 1 1 1 1 1 1 1 1 1 1 1 1 1 1 1 1 1 1 1 1 1 1 1 1 1 1 1 1 1 1 1 1 1 1 1 1 1 1 1 1 1 1 1 1 1 1 1 1 1 1 1 1 1 1 1 1 1 1 1 1 1 1 1 1 1 1 1 1 1 1 1 1 1 1 1 1 1 1 1 1 1 1 1 1 1 1 1 1 1 1 1 1 1 1 1 1 1 }
                      1.3872669350e+00 stress_1
                     -1.4417648037e+02 stress_2
                     -3.1489603893e+02 stress_3
                     -3.2096576775e+02 stress_4
                     -1.3200969941e+02 stress_5
                      1.5116110219e+02 stress_6
                      3.0472467371e+02 stress_7
                      3.0535647162e+02 stress_8
                      1.6217331450e+02 stress_9
                     -8.2365665016e+01 stress_10
                     -3.1582076359e+02 stress_11
                     -3.5618443508e+02 stress_12
                     -3.7916092038e+02 stress_13
                     -3.8126669899e+02 stress_14
                     -1.8947497890e+02 stress_15
                     -2.8568037878e+02 stress_16
                     -3.8168821537e+02 stress_17
                     -2.6983819184e+02 stress_18
                     -6.0534286811e+01 stress_19
                      1.9386268955e+02 stress_20
                      2.9059737008e+02 stress_21
                      3.2681639030e+02 stress_22
                      3.5138209104e+02 stress_23
                      3.6170813103e+02 stress_24
                      1.6951810697e+02 stress_25
                      2.4289760683e+02 stress_26
                      3.2566471258e+02 stress_27
                      3.4724319051e+02 stress_28
                      2.7680549863e+02 stress_29
                      1.5130746771e+02 stress_30
                     -2.3738083175e+01 stress_31
                     -2.1844603466e+02 stress_32
                     -3.0644900662e+02 stress_33
                     -3.4691867997e+02 stress_34
                     -3.8557568132e+02 stress_35
                     -4.2394950956e+02 stress_36
                     -4.6064760487e+02 stress_37
                     -4.9416264139e+02 stress_38
                     -5.2310516460e+02 stress_39
                     -5.4625784456e+02 stress_40
                     -5.6266655551e+02 stress_41
                     -5.7164393237e+02 stress_42
                     -5.6278491375e+02 stress_43
                     -3.3431154274e+02 stress_44
                     -1.4011912936e+02 stress_45
                     -2.5823286973e+02 stress_46
                     -4.7385188590e+02 stress_47
                     -3.0117352658e+02 stress_48
                     -3.6013277934e+02 stress_49
                     -4.5215854797e+02 stress_50
                     -5.6994311911e+02 stress_51
                     -4.7232141285e+02 stress_52
                     -2.6311557417e+02 stress_53
                     -2.5660591723e+01 stress_54
                      1.0164915141e+02 stress_55
                      1.4989015773e+02 stress_56
                      1.6632291910e+02 stress_57
                      1.1684304363e+02 stress_58
                     -6.8551260223e+01 stress_59
                     -3.3495495044e+02 stress_60
                     -5.1290922698e+02 stress_61
                     -5.4824562554e+02 stress_62
                     -5.5750297698e+02 stress_63
                     -4.0213938807e+02 stress_64
                     -1.4116925664e+02 stress_65
                     -6.1080260557e+01 stress_66
                     -2.1769823835e+02 stress_67
                     -4.8822285972e+02 stress_68
                     -5.7070147133e+02 stress_69
                     -5.7128013002e+02 stress_70
                     -5.1660453212e+02 stress_71
                     -4.1639820327e+02 stress_72
                     -2.7420987106e+02 stress_73
                     -1.0451114312e+02 stress_74
                      4.1605610541e+01 stress_75
                      1.2559873085e+02 stress_76
                      1.7661444635e+02 stress_77
                      2.1884885557e+02 stress_78
                      2.5905963507e+02 stress_79
                      2.9828254500e+02 stress_80
                      3.3608477222e+02 stress_81
                      3.7165854172e+02 stress_82
                      4.0412638263e+02 stress_83
                      4.3265505334e+02 stress_84
                      4.5649153355e+02 stress_85
                      4.7500794408e+02 stress_86
                      4.8771576897e+02 stress_87
                      4.9426837506e+02 stress_88
                      4.5202651841e+02 stress_89
                      1.8935140255e+02 stress_90
                      3.8281543511e+01 stress_91
                      2.0464740605e+02 stress_92
                      4.4468335670e+02 stress_93
                      4.5212900679e+02 stress_94
                      4.1763832307e+02 stress_95
                      3.5538158780e+02 stress_96
                      2.6623876106e+02 stress_97
                      1.5318022943e+02 stress_98
                      2.7482350292e+01 stress_99
                     -8.5682850469e+01 stress_100
                     -1.6644322838e+02 stress_101
                     -2.2059399578e+02 stress_102
                     -2.6218038059e+02 stress_103
                     -2.9951718042e+02 stress_104
                     -3.3600863813e+02 stress_105
                     -3.7282959021e+02 stress_106
                     -4.1025515557e+02 stress_107
                     -4.4819543441e+02 stress_108
                     -4.8640547489e+02 stress_109
                     -5.2457316015e+02 stress_110
                     -5.6235541530e+02 stress_111
                     -5.9939440381e+02 stress_112
                     -6.3533604137e+02 stress_113
                     -6.6983268498e+02 stress_114
                     -7.0254666720e+02 stress_115
                     -7.3315778573e+02 stress_116
                     -7.6136252461e+02 stress_117
                     -7.8688709528e+02 stress_118
                     -8.0948077517e+02 stress_119
                     -8.2891639335e+02 stress_120
                     -8.4500739414e+02 stress_121
                     -8.5759341581e+02 stress_122
                     -8.6654882359e+02 stress_123
                     -8.7178878590e+02 stress_124
                     -8.7319657543e+02 stress_125
                     -8.1441827247e+02 stress_126
                     -6.6856907068e+02 stress_127
                     -4.7312738327e+02 stress_128
                     -2.9971234920e+02 stress_129
                     -1.8529223720e+02 stress_130
                     -1.1541899649e+02 stress_131
                     -7.2940130467e+01 stress_132
                     -5.0724542276e+01 stress_133
                     -4.9419340545e+01 stress_134
                     -2.8639299439e+02 stress_135
                     -3.0011746544e+02 stress_136
                     -1.9196861449e+02 stress_137
                     -2.1266957806e+02 stress_138
                     -3.1217504747e+02 stress_139
                     -5.0189096685e+02 stress_140
                     -7.2083246921e+02 stress_141
                     -7.9768158947e+02 stress_142
                     -8.3304846087e+02 stress_143
                     -8.5861990822e+02 stress_144
                     -8.7190850265e+02 stress_145
                     -8.6022338122e+02 stress_146
                     -7.2320129349e+02 stress_147
                     -5.0744522672e+02 stress_148
                     -3.1728902114e+02 stress_149
                     -2.0681697886e+02 stress_150
                     -1.5647909364e+02 stress_151
                     -1.4965914002e+02 stress_152
                     -2.7395539610e+02 stress_153
                     -5.0596225116e+02 stress_154
                     -7.5911093238e+02 stress_155
                     -8.4015074661e+02 stress_156
                     -8.5717729791e+02 stress_157
                     -7.8682241296e+02 stress_158
                     -5.4313894208e+02 stress_159
                     -4.1298940860e+02 stress_160
                     -5.0857876349e+02 stress_161
                     -7.5965574623e+02 stress_162
                     -8.6799541557e+02 stress_163
                     -8.7268290053e+02 stress_164
                     -8.4876092115e+02 stress_165
                     -8.0157292001e+02 stress_166
                     -7.3180336108e+02 stress_167
                     -6.4156036442e+02 stress_168
                     -5.3641517879e+02 stress_169
                     -4.2656672884e+02 stress_170
                     -3.2436359152e+02 stress_171
                     -2.3805961368e+02 stress_172
                     -1.6854821963e+02 stress_173
                     -1.1200561167e+02 stress_174
                     -6.3776519106e+01 stress_175
                     -2.0278182435e+01 stress_176
                      2.0779417145e+01 stress_177
                      6.0723571709e+01 stress_178
                      1.0025672494e+02 stress_179
                      1.3970561020e+02 stress_180
                      1.7917315090e+02 stress_181
                      2.1862326075e+02 stress_182
                      2.5794028110e+02 stress_183
                      2.9695640481e+02 stress_184
                      3.3547567228e+02 stress_185
                      3.7328359389e+02 stress_186
                      4.1015704341e+02 stress_187
                      4.4587133261e+02 stress_188
                      4.8020128319e+02 stress_189
                      5.1292858860e+02 stress_190
                      5.4384291713e+02 stress_191
                      5.7273980387e+02 stress_192
                      5.9943428762e+02 stress_193
                      6.2374994039e+02 stress_194
                      6.4552310322e+02 stress_195
                      6.6461396539e+02 stress_196
                      6.8089200131e+02 stress_197
                      6.9425237869e+02 stress_198
                      7.0460657272e+02 stress_199
                      7.1188252793e+02 stress_200
                      7.1603449406e+02 stress_201
                      7.1623787400e+02 stress_202
                      5.0848117265e+02 stress_203
                      2.9838834021e+02 stress_204
                      3.6077908325e+02 stress_205
                      6.2082924104e+02 stress_206
                      6.3465281519e+02 stress_207
                      5.9752406493e+02 stress_208
                      5.3042292818e+02 stress_209
                      4.3677034369e+02 stress_210
                      3.2593339316e+02 stress_211
                      2.1360847476e+02 stress_212
                      1.1442703398e+02 stress_213
                      3.3871853754e+01 stress_214
                     -3.0885095480e+01 stress_215
                     -8.5197905950e+01 stress_216
                     -1.3346712419e+02 stress_217
                     -1.7847839362e+02 stress_218
                     -2.2175960309e+02 stress_219
                     -2.6403687880e+02 stress_220
                     -3.0556368870e+02 stress_221
                     -3.4631608918e+02 stress_222
                     -3.8611193472e+02 stress_223
                     -4.2467760369e+02 stress_224
                     -4.6169368662e+02 stress_225
                     -4.9681823150e+02 stress_226
                     -5.2970505268e+02 stress_227
                     -5.6002168891e+02 stress_228
                     -5.8744471459e+02 stress_229
                     -6.1168540344e+02 stress_230
                     -6.3248258563e+02 stress_231
                     -6.4960406722e+02 stress_232
                     -6.6286864963e+02 stress_233
                     -6.7212917331e+02 stress_234
                     -6.7727955059e+02 stress_235
                     -6.7356068447e+02 stress_236
                     -4.6216760546e+02 stress_237
                     -2.7427412548e+02 stress_238
                     -4.0245963381e+02 stress_239
                     -5.8364787968e+02 stress_240
                     -3.9096204709e+02 stress_241
                     -2.7781498787e+02 stress_242
                     -4.7705123833e+02 stress_243
                     -5.6811343689e+02 stress_244
                     -6.5199697978e+02 stress_245
                     -5.4568651509e+02 stress_246
                     -3.3980543143e+02 stress_247
                     -1.3055074971e+02 stress_248
                      8.6057538397e-01 stress_249
                      6.5622836749e+01 stress_250
                      8.7183507272e+01 stress_251
                      2.6761558218e+01 stress_252
                     -1.6472174932e+02 stress_253
                     -4.1802823485e+02 stress_254
                     -5.8221691598e+02 stress_255
                     -6.3842182044e+02 stress_256
                     -6.4975753277e+02 stress_257
                     -4.8969706161e+02 stress_258
                     -2.4449891295e+02 stress_259
                     -1.4972588135e+02 stress_260
                     -2.7364536636e+02 stress_261
                     -5.2527123288e+02 stress_262
                     -6.5203218240e+02 stress_263
                     -6.6674968131e+02 stress_264
                     -6.4266563103e+02 stress_265
                     -5.8860114502e+02 stress_266
                     -5.0565200674e+02 stress_267
                     -3.9749444880e+02 stress_268
                     -2.7375632276e+02 stress_269
                     -1.5116298218e+02 stress_270
                     -4.5805026854e+01 stress_271
                      3.6962931652e+01 stress_272
                      1.0153591985e+02 stress_273
                      1.5476826315e+02 stress_274
                      2.0184207424e+02 stress_275
                      2.4579959327e+02 stress_276
                      2.8820384432e+02 stress_277
                      3.2974445170e+02 stress_278
                      3.7062688542e+02 stress_279
                      4.1079059885e+02 stress_280
                      4.5002908150e+02 stress_281
                      4.8805773625e+02 stress_282
                      5.2455181507e+02 stress_283
                      5.5917418960e+02 stress_284
                      5.9158467874e+02 stress_285
                      6.2145861370e+02 stress_286
                      6.4848943881e+02 stress_287
                      6.7239228505e+02 stress_288
                      6.9291879969e+02 stress_289
                      7.0985157052e+02 stress_290
                      7.2300847088e+02 stress_291
                      7.3225244582e+02 stress_292
                      7.3748246232e+02 stress_293
                      7.3755969747e+02 stress_294
                      5.2270540577e+02 stress_295
                      3.1556147700e+02 stress_296
                      3.9037998854e+02 stress_297
                      6.4628666894e+02 stress_298
                      6.5773918556e+02 stress_299
                      6.3281284959e+02 stress_300
                      5.8793226479e+02 stress_301
                      5.2395224243e+02 stress_302
                      4.4344527148e+02 stress_303
                      3.5178030796e+02 stress_304
                      2.5728509886e+02 stress_305
                      1.6862057679e+02 stress_306
                      9.1277208896e+01 stress_307
                      2.6234937933e+01 stress_308
                     -2.8599320967e+01 stress_309
                     -7.6213926776e+01 stress_310
                     -1.1925156368e+02 stress_311
                     -1.5964206022e+02 stress_312
                     -1.9865301216e+02 stress_313
                     -2.3706988289e+02 stress_314
                     -2.7534574873e+02 stress_315
                     -3.1371369880e+02 stress_316
                     -3.5226582664e+02 stress_317
                     -3.9099971201e+02 stress_318
                     -4.2985149116e+02 stress_319
                     -4.6871775970e+02 stress_320
                     -5.0746611076e+02 stress_321
                     -5.4594813775e+02 stress_322
                     -5.8400180837e+02 stress_323
                     -6.2145960821e+02 stress_324
                     -6.5815222871e+02 stress_325
                     -6.9390550413e+02 stress_326
                     -7.2855179633e+02 stress_327
                     -7.6191968444e+02 stress_328
                     -7.9384984151e+02 stress_329
                     -8.2418555229e+02 stress_330
                     -8.5277485819e+02 stress_331
                     -8.7947835527e+02 stress_332
                     -9.0416100174e+02 stress_333
                     -9.2670096822e+02 stress_334
                     -9.4698791675e+02 stress_335
                     -9.6491420936e+02 stress_336
                     -9.8039560473e+02 stress_337
                     -9.9335192178e+02 stress_338
                     -1.0037175198e+03 stress_339
                     -1.0114424097e+03 stress_340
                     -1.0164867434e+03 stress_341
                     -1.0188242375e+03 stress_342


Active response data for evaluation 33:
Active set vector = { 1 1 1 1 1 1 1 1 1 1 1 1 1 1 1 1 1 1 1 1 1 1 1 1 1 1 1 1 1 1 1 1 1 1 1 1 1 1 1 1 1 1 1 1 1 1 1 1 1 1 1 1 1 1 1 1 1 1 1 1 1 1 1 1 1 1 1 1 1 1 1 1 1 1 1 1 1 1 1 1 1 1 1 1 1 1 1 1 1 1 1 1 1 1 1 1 1 1 1 1 1 1 1 1 1 1 1 1 1 1 1 1 1 1 1 1 1 1 1 1 1 1 1 1 1 1 1 1 1 1 1 1 1 1 1 1 1 1 1 1 1 1 1 1 1 1 1 1 1 1 1 1 1 1 1 1 1 1 1 1 1 1 1 1 1 1 1 1 1 1 1 1 1 1 1 1 1 1 1 1 1 1 1 1 1 1 1 1 1 1 1 1 1 1 1 1 1 1 1 1 1 1 1 1 1 1 1 1 1 1 1 1 1 1 1 1 1 1 1 1 1 1 1 1 1 1 1 1 1 1 1 1 1 1 1 1 1 1 1 1 1 1 1 1 1 1 1 1 1 1 1 1 1 1 1 1 1 1 1 1 1 1 1 1 1 1 1 1 1 1 1 1 1 1 1 1 1 1 1 1 1 1 1 1 1 1 1 1 1 1 1 1 1 1 1 1 1 1 1 1 1 1 1 1 1 1 1 1 1 1 1 1 1 1 1 1 1 1 1 1 1 1 1 1 1 1 1 1 1 1 1 1 1 1 1 1 1 1 1 1 1 1 }
                      1.3858810540e+00 stress_1
                     -1.4403244799e+02 stress_2
                     -3.1485524927e+02 stress_3
                     -3.2092540526e+02 stress_4
                     -1.3215810422e+02 stress_5
                      1.5073376774e+02 stress_6
                      3.0454403107e+02 stress_7
                      3.0518011970e+02 stress_8
                      1.6214000269e+02 stress_9
                     -8.2154751708e+01 stress_10
                     -3.1572461062e+02 stress_11
                     -3.5614403310e+02 stress_12
                     -3.7912061639e+02 stress_13
                     -3.8122639579e+02 stress_14
                     -1.8962627504e+02 stress_15
                     -2.8573556563e+02 stress_16
                     -3.8164978711e+02 stress_17
                     -2.6991150187e+02 stress_18
                     -6.0816400954e+01 stress_19
                      1.9349245447e+02 stress_20
                      2.9051580494e+02 stress_21
                      3.2674666217e+02 stress_22
                      3.5131289338e+02 stress_23
                      3.6163898594e+02 stress_24
                      1.6964095480e+02 stress_25
                      2.4294714847e+02 stress_26
                      3.2563153738e+02 stress_27
                      3.4718797732e+02 stress_28
                      2.7682065276e+02 stress_29
                      1.5144798681e+02 stress_30
                     -2.3426538416e+01 stress_31
                     -2.1813897245e+02 stress_32
                     -3.0638825385e+02 stress_33
                     -3.4687748838e+02 stress_34
                     -3.8553534346e+02 stress_35
                     -4.2390921225e+02 stress_36
                     -4.6060730672e+02 stress_37
                     -4.9412234171e+02 stress_38
                     -5.2306486419e+02 stress_39
                     -5.4621754382e+02 stress_40
                     -5.6262625462e+02 stress_41
                     -5.7160363141e+02 stress_42
                     -5.6275346297e+02 stress_43
                     -3.3450615158e+02 stress_44
                     -1.4045403930e+02 stress_45
                     -2.5844978392e+02 stress_46
                     -4.7385376180e+02 stress_47
                     -3.0134716837e+02 stress_48
                     -3.6024752078e+02 stress_49
                     -4.5218135604e+02 stress_50
                     -5.6989432159e+02 stress_51
                     -4.7237012343e+02 stress_52
                     -2.6336414073e+02 stress_53
                     -2.5970860627e+01 stress_54
                      1.0147902555e+02 stress_55
                      1.4976368305e+02 stress_56
                      1.6620399278e+02 stress_57
                      1.1677354775e+02 stress_58
                     -6.8435549183e+01 stress_59
                     -3.3459076559e+02 stress_60
                     -5.1280578652e+02 stress_61
                     -5.4820150228e+02 stress_62
                     -5.5746111271e+02 stress_63
                     -4.0225257005e+02 stress_64
                     -1.4150085023e+02 stress_65
                     -6.1424955454e+01 stress_66
                     -2.1788647173e+02 stress_67
                     -4.8815174357e+02 stress_68
                     -5.7065999206e+02 stress_69
                     -5.7123878252e+02 stress_70
                     -5.1661780501e+02 stress_71
                     -4.1651137706e+02 stress_72
                     -2.7445776591e+02 stress_73
                     -1.0485161908e+02 stress_74
                      4.1352838076e+01 stress_75
                      1.2545123247e+02 stress_76
                      1.7649777439e+02 stress_77
                      2.1873800601e+02 stress_78
                      2.5894954559e+02 stress_79
                      2.9817234796e+02 stress_80
                      3.3597438543e+02 stress_81
                      3.7154800861e+02 stress_82
                      4.0401575050e+02 stress_83
                      4.3254435638e+02 stress_84
                      4.5638079467e+02 stress_85
                      4.7489717870e+02 stress_86
                      4.8760498793e+02 stress_87
                      4.9415758665e+02 stress_88
                      4.5195792803e+02 stress_89
                      1.8952721568e+02 stress_90
                      3.8518241366e+01 stress_91
                      2.0471790424e+02 stress_92
                      4.4452021805e+02 stress_93
                      4.5196111452e+02 stress_94
                      4.1750488636e+02 stress_95
                      3.5531025147e+02 stress_96
                      2.6625451955e+02 stress_97
                      1.5329265483e+02 stress_98
                      2.7651650265e+01 stress_99
                     -8.5542116514e+01 stress_100
                     -1.6636192306e+02 stress_101
                     -2.2054496698e+02 stress_102
                     -2.6214155337e+02 stress_103
                     -2.9948030181e+02 stress_104
                     -3.3597145746e+02 stress_105
                     -3.7279170932e+02 stress_106
                     -4.1021664849e+02 stress_107
                     -4.4815645337e+02 stress_108
                     -4.8636615299e+02 stress_109
                     -5.2453359639e+02 stress_110
                     -5.6231567959e+02 stress_111
                     -5.9935454482e+02 stress_112
                     -6.3529609295e+02 stress_113
                     -6.6979267089e+02 stress_114
                     -7.0250660432e+02 stress_115
                     -7.3311768622e+02 stress_116
                     -7.6132239737e+02 stress_117
                     -7.8684694693e+02 stress_118
                     -8.0944061075e+02 stress_119
                     -8.2887621677e+02 stress_120
                     -8.4496720849e+02 stress_121
                     -8.5755322364e+02 stress_122
                     -8.6650862705e+02 stress_123
                     -8.7174858692e+02 stress_124
                     -8.7315637580e+02 stress_125
                     -8.1443664642e+02 stress_126
                     -6.6872257360e+02 stress_127
                     -4.7338979044e+02 stress_128
                     -2.9996021177e+02 stress_129
                     -1.8548931156e+02 stress_130
                     -1.1558900895e+02 stress_131
                     -7.3100050785e+01 stress_132
                     -5.0881228332e+01 stress_133
                     -4.9575875788e+01 stress_134
                     -2.8631281363e+02 stress_135
                     -3.0002358862e+02 stress_136
                     -1.9197798099e+02 stress_137
                     -2.1265826427e+02 stress_138
                     -3.1206432785e+02 stress_139
                     -5.0159266323e+02 stress_140
                     -7.2056599900e+02 stress_141
                     -7.9763113489e+02 stress_142
                     -8.3300756188e+02 stress_143
                     -8.5857952442e+02 stress_144
                     -8.7186817297e+02 stress_145
                     -8.6019472451e+02 stress_146
                     -7.2330591722e+02 stress_147
                     -5.0769702770e+02 stress_148
                     -3.1754349112e+02 stress_149
                     -2.0702475168e+02 stress_150
                     -1.5666433321e+02 stress_151
                     -1.4984163648e+02 stress_152
                     -2.7401372048e+02 stress_153
                     -5.0578900449e+02 stress_154
                     -7.5883463559e+02 stress_155
                     -8.4009710292e+02 stress_156
                     -8.5713462763e+02 stress_157
                     -7.8684977989e+02 stress_158
                     -5.4336708975e+02 stress_159
                     -4.1325907143e+02 stress_160
                     -5.0875293246e+02 stress_161
                     -7.5958222288e+02 stress_162
                     -8.6795383158e+02 stress_163
                     -8.7264214214e+02 stress_164
                     -8.4874405469e+02 stress_165
                     -8.0160291729e+02 stress_166
                     -7.3190033168e+02 stress_167
                     -6.4173437140e+02 stress_168
                     -5.3665473069e+02 stress_169
                     -4.2683540618e+02 stress_170
                     -3.2461938499e+02 stress_171
                     -2.3828122281e+02 stress_172
                     -1.6873783476e+02 stress_173
                     -1.1217457029e+02 stress_174
                     -6.3934902118e+01 stress_175
                     -2.0432278716e+01 stress_176
                      2.0626310116e+01 stress_177
                      6.0569931580e+01 stress_178
                      1.0010195680e+02 stress_179
                      1.3954956647e+02 stress_180
                      1.7901588279e+02 stress_181
                      2.1846489633e+02 stress_182
                      2.5778096799e+02 stress_183
                      2.9679628513e+02 stress_184
                      3.3531487293e+02 stress_185
                      3.7312222416e+02 stress_186
                      4.0999519567e+02 stress_187
                      4.4570908422e+02 stress_188
                      4.8003869875e+02 stress_189
                      5.1276572209e+02 stress_190
                      5.4367981375e+02 stress_191
                      5.7257650174e+02 stress_192
                      5.9927081901e+02 stress_193
                      6.2358633289e+02 stress_194
                      6.4535938066e+02 stress_195
                      6.6445014856e+02 stress_196
                      6.8072810860e+02 stress_197
                      6.9408842661e+02 stress_198
                      7.0444257633e+02 stress_199
                      7.1171850125e+02 stress_200
                      7.1587045042e+02 stress_201
                      7.1607382953e+02 stress_202
                      5.0850663676e+02 stress_203
                      2.9850397047e+02 stress_204
                      3.6083238510e+02 stress_205
                      6.2062312054e+02 stress_206
                      6.3443335571e+02 stress_207
                      5.9734159751e+02 stress_208
                      5.3030509617e+02 stress_209
                      4.3673103361e+02 stress_210
                      3.2595785764e+02 stress_211
                      2.1365782786e+02 stress_212
                      1.1446901362e+02 stress_213
                      3.3898249039e+01 stress_214
                     -3.0868730887e+01 stress_215
                     -8.5184784949e+01 stress_216
                     -1.3345318304e+02 stress_217
                     -1.7846191091e+02 stress_218
                     -2.2174014994e+02 stress_219
                     -2.6401460293e+02 stress_220
                     -3.0553894295e+02 stress_221
                     -3.4628926380e+02 stress_222
                     -3.8608339055e+02 stress_223
                     -4.2464765145e+02 stress_224
                     -4.6166258531e+02 stress_225
                     -4.9678619417e+02 stress_226
                     -5.2967225395e+02 stress_227
                     -5.5998827223e+02 stress_228
                     -5.8741079886e+02 stress_229
                     -6.1165108814e+02 stress_230
                     -6.3244795524e+02 stress_231
                     -6.4956919488e+02 stress_232
                     -6.6283359985e+02 stress_233
                     -6.7209400454e+02 stress_234
                     -6.7724431730e+02 stress_235
                     -6.7352916633e+02 stress_236
                     -4.6233683766e+02 stress_237
                     -2.7455460843e+02 stress_238
                     -4.0261215525e+02 stress_239
                     -5.8364612550e+02 stress_240
                     -3.9114315258e+02 stress_241
                     -2.7807219432e+02 stress_242
                     -4.7711140559e+02 stress_243
                     -5.6810215191e+02 stress_244
                     -6.5196622631e+02 stress_245
                     -5.4576097478e+02 stress_246
                     -3.4004554432e+02 stress_247
                     -1.3082937219e+02 stress_248
                      6.3092845537e-01 stress_249
                      6.5421640392e+01 stress_250
                      8.6990067376e+01 stress_251
                      2.6628479625e+01 stress_252
                     -1.6466507065e+02 stress_253
                     -4.1780216039e+02 stress_254
                     -5.8209403167e+02 stress_255
                     -6.3835782739e+02 stress_256
                     -6.4970141936e+02 stress_257
                     -4.8979723148e+02 stress_258
                     -2.4475976782e+02 stress_259
                     -1.4999760255e+02 stress_260
                     -2.7379333097e+02 stress_261
                     -5.2520994147e+02 stress_262
                     -6.5198910254e+02 stress_263
                     -6.6671087528e+02 stress_264
                     -6.4265088045e+02 stress_265
                     -5.8864009732e+02 stress_266
                     -5.0577013396e+02 stress_267
                     -3.9770110200e+02 stress_268
                     -2.7402715171e+02 stress_269
                     -1.5144421075e+02 stress_270
                     -4.6054676896e+01 stress_271
                      3.6750477063e+01 stress_272
                      1.0134734620e+02 stress_273
                      1.5459074239e+02 stress_274
                      2.0166818333e+02 stress_275
                      2.4562590748e+02 stress_276
                      2.8802904639e+02 stress_277
                      3.2956818315e+02 stress_278
                      3.7044917978e+02 stress_279
                      4.1061162652e+02 stress_280
                      4.4984904218e+02 stress_281
                      4.8787681743e+02 stress_282
                      5.2437017890e+02 stress_283
                      5.5899197137e+02 stress_284
                      5.9140198970e+02 stress_285
                      6.2127554497e+02 stress_286
                      6.4830606529e+02 stress_287
                      6.7220866889e+02 stress_288
                      6.9273499310e+02 stress_289
                      7.0966761811e+02 stress_290
                      7.2282441167e+02 stress_291
                      7.3206831477e+02 stress_292
                      7.3729829174e+02 stress_293
                      7.3737552632e+02 stress_294
                      5.2271750738e+02 stress_295
                      3.1566735683e+02 stress_296
                      3.9041112460e+02 stress_297
                      6.4606385511e+02 stress_298
                      6.5750645863e+02 stress_299
                      6.3260499862e+02 stress_300
                      5.8776861896e+02 stress_301
                      5.2384825495e+02 stress_302
                      4.4340617932e+02 stress_303
                      3.5179509544e+02 stress_304
                      2.5732868993e+02 stress_305
                      1.6866718534e+02 stress_306
                      9.1312832144e+01 stress_307
                      2.6258049616e+01 stress_308
                     -2.8584377563e+01 stress_309
                     -7.6202317437e+01 stress_310
                     -1.1923994052e+02 stress_311
                     -1.5962861218e+02 stress_312
                     -1.9863697903e+02 stress_313
                     -2.3705110233e+02 stress_314
                     -2.7532435607e+02 stress_315
                     -3.1368995473e+02 stress_316
                     -3.5224002659e+02 stress_317
                     -3.9097214261e+02 stress_318
                     -4.2982241172e+02 stress_319
                     -4.6868739642e+02 stress_320
                     -5.0743465721e+02 stress_321
                     -5.4591575776e+02 stress_322
                     -5.8396863995e+02 stress_323
                     -6.2142576740e+02 stress_324
                     -6.5811781312e+02 stress_325
                     -6.9387059609e+02 stress_326
                     -7.2851646546e+02 stress_327
                     -7.6188398991e+02 stress_328
                     -7.9381383381e+02 stress_329
                     -8.2414927472e+02 stress_330
                     -8.5273834815e+02 stress_331
                     -8.7944164525e+02 stress_332
                     -9.0412412018e+02 stress_333
                     -9.2666394019e+02 stress_334
                     -9.4695076455e+02 stress_335
                     -9.6487695305e+02 stress_336
                     -9.8035826248e+02 stress_337
                     -9.9331451029e+02 stress_338
                     -1.0036800546e+03 stress_339
                     -1.0114049054e+03 stress_340
                     -1.0164492140e+03 stress_341
                     -1.0187866966e+03 stress_342


Active response data for evaluation 34:
Active set vector = { 1 1 1 1 1 1 1 1 1 1 1 1 1 1 1 1 1 1 1 1 1 1 1 1 1 1 1 1 1 1 1 1 1 1 1 1 1 1 1 1 1 1 1 1 1 1 1 1 1 1 1 1 1 1 1 1 1 1 1 1 1 1 1 1 1 1 1 1 1 1 1 1 1 1 1 1 1 1 1 1 1 1 1 1 1 1 1 1 1 1 1 1 1 1 1 1 1 1 1 1 1 1 1 1 1 1 1 1 1 1 1 1 1 1 1 1 1 1 1 1 1 1 1 1 1 1 1 1 1 1 1 1 1 1 1 1 1 1 1 1 1 1 1 1 1 1 1 1 1 1 1 1 1 1 1 1 1 1 1 1 1 1 1 1 1 1 1 1 1 1 1 1 1 1 1 1 1 1 1 1 1 1 1 1 1 1 1 1 1 1 1 1 1 1 1 1 1 1 1 1 1 1 1 1 1 1 1 1 1 1 1 1 1 1 1 1 1 1 1 1 1 1 1 1 1 1 1 1 1 1 1 1 1 1 1 1 1 1 1 1 1 1 1 1 1 1 1 1 1 1 1 1 1 1 1 1 1 1 1 1 1 1 1 1 1 1 1 1 1 1 1 1 1 1 1 1 1 1 1 1 1 1 1 1 1 1 1 1 1 1 1 1 1 1 1 1 1 1 1 1 1 1 1 1 1 1 1 1 1 1 1 1 1 1 1 1 1 1 1 1 1 1 1 1 1 1 1 1 1 1 1 1 1 1 1 1 1 1 1 1 1 1 }
                      1.3858810540e+00 stress_1
                     -1.4403244798e+02 stress_2
                     -3.1484038027e+02 stress_3
                     -3.2090449742e+02 stress_4
                     -1.3213719638e+02 stress_5
                      1.5075441304e+02 stress_6
                      3.0455426380e+02 stress_7
                      3.0519021899e+02 stress_8
                      1.6215010198e+02 stress_9
                     -8.2144648661e+01 stress_10
                     -3.1570204903e+02 stress_11
                     -3.5608791878e+02 stress_12
                     -3.7904157377e+02 stress_13
                     -3.8114524981e+02 stress_14
                     -1.8954512953e+02 stress_15
                     -2.8565442012e+02 stress_16
                     -3.8156634771e+02 stress_17
                     -2.6982806248e+02 stress_18
                     -6.0733098208e+01 stress_19
                      1.9354732868e+02 stress_20
                      2.9055976235e+02 stress_21
                      3.2676279636e+02 stress_22
                      3.5130521067e+02 stress_23
                      3.6162108756e+02 stress_24
                      1.6962305999e+02 stress_25
                      2.4292925365e+02 stress_26
                      3.2561363008e+02 stress_27
                      3.4716991142e+02 stress_28
                      2.7680258687e+02 stress_29
                      1.5142992617e+02 stress_30
                     -2.3442776530e+01 stress_31
                     -2.1811371867e+02 stress_32
                     -3.0636092491e+02 stress_33
                     -3.4682811856e+02 stress_34
                     -3.8544949470e+02 stress_35
                     -4.2378534224e+02 stress_36
                     -4.6044683651e+02 stress_37
                     -4.9392840528e+02 stress_38
                     -5.2284201889e+02 stress_39
                     -5.4597157069e+02 stress_40
                     -5.6236388988e+02 stress_41
                     -5.7133229853e+02 stress_42
                     -5.6248213009e+02 stress_43
                     -3.3423901040e+02 stress_44
                     -1.4025837144e+02 stress_45
                     -2.5825411607e+02 stress_46
                     -4.7365760456e+02 stress_47
                     -3.0115243227e+02 stress_48
                     -3.6005278468e+02 stress_49
                     -4.5198661931e+02 stress_50
                     -5.6963757775e+02 stress_51
                     -4.7211341799e+02 stress_52
                     -2.6312317814e+02 stress_53
                     -2.5894998759e+01 stress_54
                      1.0152468001e+02 stress_55
                      1.4986303978e+02 stress_56
                      1.6631881313e+02 stress_57
                      1.1688836810e+02 stress_58
                     -6.8320727584e+01 stress_59
                     -3.3446897835e+02 stress_60
                     -5.1258030931e+02 stress_61
                     -5.4795085261e+02 stress_62
                     -5.5720239870e+02 stress_63
                     -4.0199419150e+02 stress_64
                     -1.4129877577e+02 stress_65
                     -6.1286254440e+01 stress_66
                     -2.1774777072e+02 stress_67
                     -4.8800122579e+02 stress_68
                     -5.7039083657e+02 stress_69
                     -5.7096890875e+02 stress_70
                     -5.1634793273e+02 stress_71
                     -4.1624195082e+02 stress_72
                     -2.7420105014e+02 stress_73
                     -1.0468704722e+02 stress_74
                      4.1388927591e+01 stress_75
                      1.2552266273e+02 stress_76
                      1.7661863623e+02 stress_77
                      2.1886404006e+02 stress_78
                      2.5905591563e+02 stress_79
                      2.9824878004e+02 stress_80
                      3.3601751261e+02 stress_81
                      3.7155789978e+02 stress_82
                      4.0399446864e+02 stress_83
                      4.3249530118e+02 stress_84
                      4.5630835898e+02 stress_85
                      4.7480650360e+02 stress_86
                      4.8750176509e+02 stress_87
                      4.9404788573e+02 stress_88
                      4.5184823281e+02 stress_89
                      1.8945925848e+02 stress_90
                      3.8596394564e+01 stress_91
                      2.0479605744e+02 stress_92
                      4.4458799063e+02 stress_93
                      4.5202436449e+02 stress_94
                      4.1756813877e+02 stress_95
                      3.5537380268e+02 stress_96
                      2.6632338581e+02 stress_97
                      1.5339692714e+02 stress_98
                      2.7860550967e+01 stress_99
                     -8.5229979681e+01 stress_100
                     -1.6607918719e+02 stress_101
                     -2.2035664341e+02 stress_102
                     -2.6202108158e+02 stress_103
                     -2.9938797043e+02 stress_104
                     -3.3587976714e+02 stress_105
                     -3.7268435081e+02 stress_106
                     -4.1008422167e+02 stress_107
                     -4.4799353888e+02 stress_108
                     -4.8616967424e+02 stress_109
                     -5.2430194082e+02 stress_110
                     -5.6204822676e+02 stress_111
                     -5.9905140824e+02 stress_112
                     -6.3495796457e+02 stress_113
                     -6.6942072759e+02 stress_114
                     -7.0210244668e+02 stress_115
                     -7.3268329030e+02 stress_116
                     -7.6086007889e+02 stress_117
                     -7.8635931956e+02 stress_118
                     -8.0893055519e+02 stress_119
                     -8.2834685204e+02 stress_120
                     -8.4442184790e+02 stress_121
                     -8.5699534611e+02 stress_122
                     -8.6594184068e+02 stress_123
                     -8.7117658689e+02 stress_124
                     -8.7258297494e+02 stress_125
                     -8.1386413025e+02 stress_126
                     -6.6820215656e+02 stress_127
                     -4.7318522696e+02 stress_128
                     -3.0016587875e+02 stress_129
                     -1.8578684962e+02 stress_130
                     -1.1580389757e+02 stress_131
                     -7.3230427380e+01 stress_132
                     -5.0965504651e+01 stress_133
                     -4.9657495128e+01 stress_134
                     -2.8639440203e+02 stress_135
                     -3.0010515559e+02 stress_136
                     -1.9208167021e+02 stress_137
                     -2.1276195349e+02 stress_138
                     -3.1216801670e+02 stress_139
                     -5.0169369666e+02 stress_140
                     -7.2037226782e+02 stress_141
                     -7.9713965709e+02 stress_142
                     -8.3247490516e+02 stress_143
                     -8.5802135134e+02 stress_144
                     -8.7129677299e+02 stress_145
                     -8.5962332778e+02 stress_146
                     -7.2275361984e+02 stress_147
                     -5.0741332963e+02 stress_148
                     -3.1771179445e+02 stress_149
                     -2.0732562674e+02 stress_150
                     -1.5694049539e+02 stress_151
                     -1.5011007908e+02 stress_152
                     -2.7428216307e+02 stress_153
                     -5.0605708924e+02 stress_154
                     -7.5884012710e+02 stress_155
                     -8.3958349759e+02 stress_156
                     -8.5658280580e+02 stress_157
                     -7.8629939666e+02 stress_158
                     -5.4299561957e+02 stress_159
                     -4.1316250407e+02 stress_160
                     -5.0865636510e+02 stress_161
                     -7.5947558111e+02 stress_162
                     -8.6739336597e+02 stress_163
                     -8.7207273621e+02 stress_164
                     -8.4817468900e+02 stress_165
                     -8.0103519108e+02 stress_166
                     -7.3134705922e+02 stress_167
                     -6.4124199783e+02 stress_168
                     -5.3631689701e+02 stress_169
                     -4.2674643326e+02 stress_170
                     -3.2477732660e+02 stress_171
                     -2.3857090365e+02 stress_172
                     -1.6902598971e+02 stress_173
                     -1.1238436242e+02 stress_174
                     -6.4047051625e+01 stress_175
                     -2.0458423527e+01 stress_176
                      2.0664333357e+01 stress_177
                      6.0650122663e+01 stress_178
                      1.0020564014e+02 stress_179
                      1.3966198820e+02 stress_180
                      1.7912578465e+02 stress_181
                      2.1856385631e+02 stress_182
                      2.5786278600e+02 stress_183
                      2.9685648710e+02 stress_184
                      3.3535033060e+02 stress_185
                      3.7313087256e+02 stress_186
                      4.0997582303e+02 stress_187
                      4.4566117444e+02 stress_188
                      4.7996231491e+02 stress_189
                      5.1266141429e+02 stress_190
                      5.4354854768e+02 stress_191
                      5.7241960485e+02 stress_192
                      5.9908992619e+02 stress_193
                      6.2338335004e+02 stress_194
                      6.4513645085e+02 stress_195
                      6.6420961248e+02 stress_196
                      6.8047248171e+02 stress_197
                      6.9382036364e+02 stress_198
                      7.0416484626e+02 stress_199
                      7.1143396348e+02 stress_200
                      7.1558202266e+02 stress_201
                      7.1578521113e+02 stress_202
                      5.0832750319e+02 stress_203
                      2.9884499221e+02 stress_204
                      3.6117340684e+02 stress_205
                      6.2096253598e+02 stress_206
                      6.3477071110e+02 stress_207
                      5.9767971901e+02 stress_208
                      5.3065927042e+02 stress_209
                      4.3716994250e+02 stress_210
                      3.2660541280e+02 stress_211
                      2.1457304545e+02 stress_212
                      1.1554088135e+02 stress_213
                      3.4944055788e+01 stress_214
                     -2.9964014096e+01 stress_215
                     -8.4448007243e+01 stress_216
                     -1.3286325286e+02 stress_217
                     -1.7798347338e+02 stress_218
                     -2.2133918125e+02 stress_219
                     -2.6366323649e+02 stress_220
                     -3.0521586778e+02 stress_221
                     -3.4597874356e+02 stress_222
                     -3.8577408370e+02 stress_223
                     -4.2433159199e+02 stress_224
                     -4.6133438983e+02 stress_225
                     -4.9644246850e+02 stress_226
                     -5.2931115367e+02 stress_227
                     -5.5960917154e+02 stress_228
                     -5.8701404641e+02 stress_229
                     -6.1123780706e+02 stress_230
                     -6.3201988902e+02 stress_231
                     -6.4912858246e+02 stress_232
                     -6.6238305541e+02 stress_233
                     -6.7163642378e+02 stress_234
                     -6.7678278846e+02 stress_235
                     -6.7306763752e+02 stress_236
                     -4.6192523879e+02 stress_237
                     -2.7442204174e+02 stress_238
                     -4.0247927085e+02 stress_239
                     -5.8342964801e+02 stress_240
                     -3.9097041693e+02 stress_241
                     -2.7803333717e+02 stress_242
                     -4.7706581751e+02 stress_243
                     -5.6799199581e+02 stress_244
                     -6.5165473399e+02 stress_245
                     -5.4545482592e+02 stress_246
                     -3.3990225800e+02 stress_247
                     -1.3112694726e+02 stress_248
                      1.6123887715e-01 stress_249
                      6.4993301535e+01 stress_250
                      8.6595366119e+01 stress_251
                      2.6233779232e+01 stress_252
                     -1.6505569016e+02 stress_253
                     -4.1800830138e+02 stress_254
                     -5.8184695451e+02 stress_255
                     -6.3798382739e+02 stress_256
                     -6.4931282943e+02 stress_257
                     -4.8942693476e+02 stress_258
                     -2.4469654564e+02 stress_259
                     -1.5015359864e+02 stress_260
                     -2.7394919892e+02 stress_261
                     -5.2524145143e+02 stress_262
                     -6.5165642554e+02 stress_263
                     -6.6634347103e+02 stress_264
                     -6.4228350485e+02 stress_265
                     -5.8827446391e+02 stress_266
                     -5.0542301160e+02 stress_267
                     -3.9743792252e+02 stress_268
                     -2.7397102053e+02 stress_269
                     -1.5167230189e+02 stress_270
                     -4.6479689283e+01 stress_271
                      3.6298116943e+01 stress_272
                      1.0097598633e+02 stress_273
                      1.5432580671e+02 stress_274
                      2.0149283852e+02 stress_275
                      2.4551244917e+02 stress_276
                      2.8795195362e+02 stress_277
                      3.2950746136e+02 stress_278
                      3.7039020147e+02 stress_279
                      4.1054409465e+02 stress_280
                      4.4976595256e+02 stress_281
                      4.8777363412e+02 stress_282
                      5.2424422760e+02 stress_283
                      5.5884200102e+02 stress_284
                      5.9122786054e+02 stress_285
                      6.2107799551e+02 stress_286
                      6.4808654017e+02 stress_287
                      6.7196918743e+02 stress_288
                      6.9247803515e+02 stress_289
                      7.0939603475e+02 stress_290
                      7.2254134621e+02 stress_291
                      7.3177712479e+02 stress_292
                      7.3700248524e+02 stress_293
                      7.3707965154e+02 stress_294
                      5.2253375981e+02 stress_295
                      3.1598750572e+02 stress_296
                      3.9073127349e+02 stress_297
                      6.4637639965e+02 stress_298
                      6.5781212974e+02 stress_299
                      6.3291087315e+02 stress_300
                      5.8807902306e+02 stress_301
                      5.2418582261e+02 stress_302
                      4.4382949378e+02 stress_303
                      3.5239059687e+02 stress_304
                      2.5815314505e+02 stress_305
                      1.6968555915e+02 stress_306
                      9.2410947419e+01 stress_307
                      2.7315680341e+01 stress_308
                     -2.7641598783e+01 stress_309
                     -7.5398787687e+01 stress_310
                     -1.1856826779e+02 stress_311
                     -1.5906731408e+02 stress_312
                     -1.9816117878e+02 stress_313
                     -2.3663754553e+02 stress_314
                     -2.7495316586e+02 stress_315
                     -3.1334486750e+02 stress_316
                     -3.5190803536e+02 stress_317
                     -3.9064297369e+02 stress_318
                     -4.2948801597e+02 stress_319
                     -4.6834151314e+02 stress_320
                     -5.0707246224e+02 stress_321
                     -5.4553358584e+02 stress_322
                     -5.8356377058e+02 stress_323
                     -6.2099625766e+02 stress_324
                     -6.5766236704e+02 stress_325
                     -6.9338846648e+02 stress_326
                     -7.2800737028e+02 stress_327
                     -7.6134805378e+02 stress_328
                     -7.9325153015e+02 stress_329
                     -8.2356138532e+02 stress_330
                     -8.5212592886e+02 stress_331
                     -8.7880599079e+02 stress_332
                     -9.0346674058e+02 stress_333
                     -9.2598653297e+02 stress_334
                     -9.4625519103e+02 stress_335
                     -9.6416522478e+02 stress_336
                     -9.7963251063e+02 stress_337
                     -9.9257697372e+02 stress_338
                     -1.0029330595e+03 stress_339
                     -1.0106508446e+03 stress_340
                     -1.0156905316e+03 stress_341
                     -1.0180258708e+03 stress_342


Active response data for evaluation 35:
Active set vector = { 1 1 1 1 1 1 1 1 1 1 1 1 1 1 1 1 1 1 1 1 1 1 1 1 1 1 1 1 1 1 1 1 1 1 1 1 1 1 1 1 1 1 1 1 1 1 1 1 1 1 1 1 1 1 1 1 1 1 1 1 1 1 1 1 1 1 1 1 1 1 1 1 1 1 1 1 1 1 1 1 1 1 1 1 1 1 1 1 1 1 1 1 1 1 1 1 1 1 1 1 1 1 1 1 1 1 1 1 1 1 1 1 1 1 1 1 1 1 1 1 1 1 1 1 1 1 1 1 1 1 1 1 1 1 1 1 1 1 1 1 1 1 1 1 1 1 1 1 1 1 1 1 1 1 1 1 1 1 1 1 1 1 1 1 1 1 1 1 1 1 1 1 1 1 1 1 1 1 1 1 1 1 1 1 1 1 1 1 1 1 1 1 1 1 1 1 1 1 1 1 1 1 1 1 1 1 1 1 1 1 1 1 1 1 1 1 1 1 1 1 1 1 1 1 1 1 1 1 1 1 1 1 1 1 1 1 1 1 1 1 1 1 1 1 1 1 1 1 1 1 1 1 1 1 1 1 1 1 1 1 1 1 1 1 1 1 1 1 1 1 1 1 1 1 1 1 1 1 1 1 1 1 1 1 1 1 1 1 1 1 1 1 1 1 1 1 1 1 1 1 1 1 1 1 1 1 1 1 1 1 1 1 1 1 1 1 1 1 1 1 1 1 1 1 1 1 1 1 1 1 1 1 1 1 1 1 1 1 1 1 1 1 }
                      1.3858810540e+00 stress_1
                     -1.4403244798e+02 stress_2
                     -3.1484038027e+02 stress_3
                     -3.2090449742e+02 stress_4
                     -1.3213719638e+02 stress_5
                      1.5075445304e+02 stress_6
                      3.0455490606e+02 stress_7
                      3.0519085123e+02 stress_8
                      1.6215073423e+02 stress_9
                     -8.2144016734e+01 stress_10
                     -3.1570204014e+02 stress_11
                     -3.5608791946e+02 stress_12
                     -3.7904157382e+02 stress_13
                     -3.8114524985e+02 stress_14
                     -1.8954512934e+02 stress_15
                     -2.8565441993e+02 stress_16
                     -3.8156634768e+02 stress_17
                     -2.6982806244e+02 stress_18
                     -6.0733032434e+01 stress_19
                      1.9356003757e+02 stress_20
                      2.9056328489e+02 stress_21
                      3.2676319748e+02 stress_22
                      3.5130531383e+02 stress_23
                      3.6162114845e+02 stress_24
                      1.6962311891e+02 stress_25
                      2.4292931258e+02 stress_26
                      3.2561368862e+02 stress_27
                      3.4716996423e+02 stress_28
                      2.7680263967e+02 stress_29
                      1.5142997607e+02 stress_30
                     -2.3443719375e+01 stress_31
                     -2.1813576442e+02 stress_32
                     -3.0637005465e+02 stress_33
                     -3.4682934082e+02 stress_34
                     -3.8544969394e+02 stress_35
                     -4.2378538552e+02 stress_36
                     -4.6044684881e+02 stress_37
                     -4.9392840974e+02 stress_38
                     -5.2284202090e+02 stress_39
                     -5.4597157181e+02 stress_40
                     -5.6236389063e+02 stress_41
                     -5.7133229915e+02 stress_42
                     -5.6248213070e+02 stress_43
                     -3.3423576663e+02 stress_44
                     -1.4020035694e+02 stress_45
                     -2.5819610157e+02 stress_46
                     -4.7359995323e+02 stress_47
                     -3.0109368121e+02 stress_48
                     -3.5999403363e+02 stress_49
                     -4.5192786873e+02 stress_50
                     -5.6962487082e+02 stress_51
                     -4.7210068116e+02 stress_52
                     -2.6309827573e+02 stress_53
                     -2.5745622033e+01 stress_54
                      1.0168018786e+02 stress_55
                      1.4995761899e+02 stress_56
                      1.6639224645e+02 stress_57
                      1.1696180142e+02 stress_58
                     -6.8247294914e+01 stress_59
                     -3.3439947585e+02 stress_60
                     -5.1257591165e+02 stress_61
                     -5.4795125171e+02 stress_62
                     -5.5720269908e+02 stress_63
                     -4.0199423451e+02 stress_64
                     -1.4125612301e+02 stress_65
                     -6.1196253203e+01 stress_66
                     -2.1765776948e+02 stress_67
                     -4.8791929706e+02 stress_68
                     -5.7038887199e+02 stress_69
                     -5.7096714130e+02 stress_70
                     -5.1634616412e+02 stress_71
                     -4.1623983601e+02 stress_72
                     -2.7418912144e+02 stress_73
                     -1.0460481329e+02 stress_74
                      4.1562693288e+01 stress_75
                      1.2564942973e+02 stress_76
                      1.7668083252e+02 stress_77
                      2.1889332516e+02 stress_78
                      2.5907053823e+02 stress_79
                      2.9825669320e+02 stress_80
                      3.3602216015e+02 stress_81
                      3.7156085121e+02 stress_82
                      4.0399648609e+02 stress_83
                      4.3249677921e+02 stress_84
                      4.5630951555e+02 stress_85
                      4.7480746759e+02 stress_86
                      4.8750261916e+02 stress_87
                      4.9404868906e+02 stress_88
                      4.5184903144e+02 stress_89
                      1.8942587484e+02 stress_90
                      3.8444633375e+01 stress_91
                      2.0464429625e+02 stress_92
                      4.4444465110e+02 stress_93
                      4.5188469282e+02 stress_94
                      4.1742846508e+02 stress_95
                      3.5523388316e+02 stress_96
                      2.6617910792e+02 stress_97
                      1.5322376266e+02 stress_98
                      2.7603034856e+01 stress_99
                     -8.5566009193e+01 stress_100
                     -1.6637740961e+02 stress_101
                     -2.2055746476e+02 stress_102
                     -2.6214245564e+02 stress_103
                     -2.9946005485e+02 stress_104
                     -3.3592339973e+02 stress_105
                     -3.7271161154e+02 stress_106
                     -4.1010186089e+02 stress_107
                     -4.4800535707e+02 stress_108
                     -4.8617786082e+02 stress_109
                     -5.2430779290e+02 stress_110
                     -5.6205253547e+02 stress_111
                     -5.9905467000e+02 stress_112
                     -6.3496049925e+02 stress_113
                     -6.6942274662e+02 stress_114
                     -7.0210409325e+02 stress_115
                     -7.3268466360e+02 stress_116
                     -7.6086124922e+02 stress_117
                     -7.8636033781e+02 stress_118
                     -8.0893145909e+02 stress_119
                     -8.2834767025e+02 stress_120
                     -8.4442260279e+02 stress_121
                     -8.5699605574e+02 stress_122
                     -8.6594252016e+02 stress_123
                     -8.7117724949e+02 stress_124
                     -8.7258363309e+02 stress_125
                     -8.1386399866e+02 stress_126
                     -6.6815568608e+02 stress_127
                     -4.7285965148e+02 stress_128
                     -2.9948602261e+02 stress_129
                     -1.8504665335e+02 stress_130
                     -1.1516214378e+02 stress_131
                     -7.2685046737e+01 stress_132
                     -5.0474084762e+01 stress_133
                     -4.9169237505e+01 stress_134
                     -2.8590616683e+02 stress_135
                     -2.9961693603e+02 stress_136
                     -1.9157447442e+02 stress_137
                     -2.1225475770e+02 stress_138
                     -3.1166082118e+02 stress_139
                     -5.0118853720e+02 stress_140
                     -7.2011246558e+02 stress_141
                     -7.9712925949e+02 stress_142
                     -8.3247436355e+02 stress_143
                     -8.5802129434e+02 stress_144
                     -8.7129676090e+02 stress_145
                     -8.5962331278e+02 stress_146
                     -7.2273659853e+02 stress_147
                     -5.0715856332e+02 stress_148
                     -3.1706436150e+02 stress_149
                     -2.0657784086e+02 stress_150
                     -1.5622897457e+02 stress_151
                     -1.4940777761e+02 stress_152
                     -2.7357986160e+02 stress_153
                     -5.0535507372e+02 stress_154
                     -7.5836229026e+02 stress_155
                     -8.3955477227e+02 stress_156
                     -8.5657703065e+02 stress_157
                     -7.8629234112e+02 stress_158
                     -5.4283030182e+02 stress_159
                     -4.1275603005e+02 stress_160
                     -5.0824989108e+02 stress_161
                     -7.5907771220e+02 stress_162
                     -8.6738630026e+02 stress_163
                     -8.7206996842e+02 stress_164
                     -8.4817188523e+02 stress_165
                     -8.0103092453e+02 stress_166
                     -7.3132992150e+02 stress_167
                     -6.4117075767e+02 stress_168
                     -5.3610886329e+02 stress_169
                     -4.2631967228e+02 stress_170
                     -3.2413748125e+02 stress_171
                     -2.3782568682e+02 stress_172
                     -1.6829921528e+02 stress_173
                     -1.1174876438e+02 stress_174
                     -6.3523141573e+01 stress_175
                     -2.0038392720e+01 stress_176
                      2.0997952646e+01 stress_177
                      6.0915367918e+01 stress_178
                      1.0041792651e+02 stress_179
                      1.3983352741e+02 stress_180
                      1.7926593733e+02 stress_181
                      2.1867970875e+02 stress_182
                      2.5795968779e+02 stress_183
                      2.9693848998e+02 stress_184
                      3.3542052159e+02 stress_185
                      3.7319162259e+02 stress_186
                      4.1002896914e+02 stress_187
                      4.4570815315e+02 stress_188
                      4.8000426084e+02 stress_189
                      5.1269923225e+02 stress_190
                      5.4358296661e+02 stress_191
                      5.7245121860e+02 stress_192
                      5.9911922330e+02 stress_193
                      6.2341073753e+02 stress_194
                      6.4516227235e+02 stress_195
                      6.6423416165e+02 stress_196
                      6.8049601399e+02 stress_197
                      6.9384310464e+02 stress_198
                      7.0418699929e+02 stress_199
                      7.1145571595e+02 stress_200
                      7.1560355108e+02 stress_201
                      7.1580672865e+02 stress_202
                      5.0824954887e+02 stress_203
                      2.9829797720e+02 stress_204
                      3.6062639182e+02 stress_205
                      6.2041697501e+02 stress_206
                      6.3422701656e+02 stress_207
                      5.9713532637e+02 stress_208
                      5.3010028352e+02 stress_209
                      4.3653414408e+02 stress_210
                      3.2578145242e+02 stress_211
                      2.1351082555e+02 stress_212
                      1.1434709630e+02 stress_213
                      3.3791186077e+01 stress_214
                     -3.0965897944e+01 stress_215
                     -8.5270314880e+01 stress_216
                     -1.3352211520e+02 stress_217
                     -1.7850884306e+02 stress_218
                     -2.2176045540e+02 stress_219
                     -2.6400475634e+02 stress_220
                     -3.0549649390e+02 stress_221
                     -3.4621271590e+02 stress_222
                     -3.8597207349e+02 stress_223
                     -4.2450161429e+02 stress_224
                     -4.6148250754e+02 stress_225
                     -4.9657331606e+02 stress_226
                     -5.2942831764e+02 stress_227
                     -5.5971546450e+02 stress_228
                     -5.8711171089e+02 stress_229
                     -6.1132865934e+02 stress_230
                     -6.3210542967e+02 stress_231
                     -6.4921008034e+02 stress_232
                     -6.6246160837e+02 stress_233
                     -6.7171301117e+02 stress_234
                     -6.7685831333e+02 stress_235
                     -6.7314316237e+02 stress_236
                     -4.6195657243e+02 stress_237
                     -2.7420782456e+02 stress_238
                     -4.0226529086e+02 stress_239
                     -5.8328049863e+02 stress_240
                     -3.9078265529e+02 stress_241
                     -2.7772802303e+02 stress_242
                     -4.7676574645e+02 stress_243
                     -5.6774375907e+02 stress_244
                     -6.5157512929e+02 stress_245
                     -5.4537049160e+02 stress_246
                     -3.3967479800e+02 stress_247
                     -1.3051943095e+02 stress_248
                      8.9918863459e-01 stress_249
                      6.5674161613e+01 stress_250
                      8.7237558204e+01 stress_251
                      2.6875970637e+01 stress_252
                     -1.6441675389e+02 stress_253
                     -4.1751984847e+02 stress_254
                     -5.8173763439e+02 stress_255
                     -6.3797805591e+02 stress_256
                     -6.4931691914e+02 stress_257
                     -4.8941490386e+02 stress_258
                     -2.4441648994e+02 stress_259
                     -1.4968514019e+02 stress_260
                     -2.7348084035e+02 stress_261
                     -5.2487470154e+02 stress_262
                     -6.5160033174e+02 stress_263
                     -6.6631654527e+02 stress_264
                     -6.4225655364e+02 stress_265
                     -5.8824596899e+02 stress_266
                     -5.0537816075e+02 stress_267
                     -3.9731918498e+02 stress_268
                     -2.7367123485e+02 stress_269
                     -1.5112770646e+02 stress_270
                     -4.5774333353e+01 stress_271
                      3.7007526579e+01 stress_272
                      1.0158859470e+02 stress_273
                      1.5481573493e+02 stress_274
                      2.0187266849e+02 stress_275
                      2.4580507851e+02 stress_276
                      2.8817885509e+02 stress_277
                      3.2968564713e+02 stress_278
                      3.7053233237e+02 stress_279
                      4.1065938408e+02 stress_280
                      4.4986107708e+02 stress_281
                      4.8785345523e+02 stress_282
                      5.2431231945e+02 stress_283
                      5.5890102286e+02 stress_284
                      5.9127981925e+02 stress_285
                      6.2112442797e+02 stress_286
                      6.4812864312e+02 stress_287
                      6.7200791030e+02 stress_288
                      6.9251414595e+02 stress_289
                      7.0943016978e+02 stress_290
                      7.2257404735e+02 stress_291
                      7.3180886764e+02 stress_292
                      7.3703370298e+02 stress_293
                      7.3711086161e+02 stress_294
                      5.2246314027e+02 stress_295
                      3.1546249286e+02 stress_296
                      3.9020626063e+02 stress_297
                      6.4585824015e+02 stress_298
                      6.5730017715e+02 stress_299
                      6.3239873514e+02 stress_300
                      5.8756276389e+02 stress_301
                      5.2364489737e+02 stress_302
                      4.4321090558e+02 stress_303
                      3.5161670585e+02 stress_304
                      2.5717450378e+02 stress_305
                      1.6853751429e+02 stress_306
                      9.1201593724e+01 stress_307
                      2.6158621060e+01 stress_308
                     -2.8674958869e+01 stress_309
                     -7.6283130159e+01 stress_310
                     -1.1930776313e+02 stress_311
                     -1.5967940495e+02 stress_312
                     -1.9866675298e+02 stress_313
                     -2.3705629862e+02 stress_314
                     -2.7530196024e+02 stress_315
                     -3.1363749277e+02 stress_316
                     -3.5215551642e+02 stress_317
                     -3.9085403946e+02 stress_318
                     -4.2966955761e+02 stress_319
                     -4.6849897704e+02 stress_320
                     -5.0721016991e+02 stress_321
                     -5.4565498321e+02 stress_322
                     -5.8367162289e+02 stress_323
                     -6.2109279801e+02 stress_324
                     -6.5774941083e+02 stress_325
                     -6.9346750084e+02 stress_326
                     -7.2807962111e+02 stress_327
                     -7.6141454010e+02 stress_328
                     -7.9331310410e+02 stress_329
                     -8.2361876531e+02 stress_330
                     -8.5217972549e+02 stress_331
                     -8.7885672670e+02 stress_332
                     -9.0351486741e+02 stress_333
                     -9.2603244421e+02 stress_334
                     -9.4629923275e+02 stress_335
                     -9.6420770530e+02 stress_336
                     -9.7967370683e+02 stress_337
                     -9.9261713806e+02 stress_338
                     -1.0029724252e+03 stress_339
                     -1.0106896300e+03 stress_340
                     -1.0157289448e+03 stress_341
                     -1.0180641133e+03 stress_342


Active response data for evaluation 36:
Active set vector = { 1 1 1 1 1 1 1 1 1 1 1 1 1 1 1 1 1 1 1 1 1 1 1 1 1 1 1 1 1 1 1 1 1 1 1 1 1 1 1 1 1 1 1 1 1 1 1 1 1 1 1 1 1 1 1 1 1 1 1 1 1 1 1 1 1 1 1 1 1 1 1 1 1 1 1 1 1 1 1 1 1 1 1 1 1 1 1 1 1 1 1 1 1 1 1 1 1 1 1 1 1 1 1 1 1 1 1 1 1 1 1 1 1 1 1 1 1 1 1 1 1 1 1 1 1 1 1 1 1 1 1 1 1 1 1 1 1 1 1 1 1 1 1 1 1 1 1 1 1 1 1 1 1 1 1 1 1 1 1 1 1 1 1 1 1 1 1 1 1 1 1 1 1 1 1 1 1 1 1 1 1 1 1 1 1 1 1 1 1 1 1 1 1 1 1 1 1 1 1 1 1 1 1 1 1 1 1 1 1 1 1 1 1 1 1 1 1 1 1 1 1 1 1 1 1 1 1 1 1 1 1 1 1 1 1 1 1 1 1 1 1 1 1 1 1 1 1 1 1 1 1 1 1 1 1 1 1 1 1 1 1 1 1 1 1 1 1 1 1 1 1 1 1 1 1 1 1 1 1 1 1 1 1 1 1 1 1 1 1 1 1 1 1 1 1 1 1 1 1 1 1 1 1 1 1 1 1 1 1 1 1 1 1 1 1 1 1 1 1 1 1 1 1 1 1 1 1 1 1 1 1 1 1 1 1 1 1 1 1 1 1 1 }
                      1.3858810540e+00 stress_1
                     -1.4403244798e+02 stress_2
                     -3.1484297115e+02 stress_3
                     -3.2090709361e+02 stress_4
                     -1.3213979257e+02 stress_5
                      1.5075206879e+02 stress_6
                      3.0455734291e+02 stress_7
                      3.0519326290e+02 stress_8
                      1.6215314590e+02 stress_9
                     -8.2141608415e+01 stress_10
                     -3.1570532683e+02 stress_11
                     -3.5609105085e+02 stress_12
                     -3.7904469757e+02 stress_13
                     -3.8114837348e+02 stress_14
                     -1.8954825273e+02 stress_15
                     -2.8565754332e+02 stress_16
                     -3.8157060840e+02 stress_17
                     -2.6983232316e+02 stress_18
                     -6.0737222993e+01 stress_19
                      1.9357023749e+02 stress_20
                      2.9056681157e+02 stress_21
                      3.2676360564e+02 stress_22
                      3.5130541925e+02 stress_23
                      3.6162121076e+02 stress_24
                      1.6962317963e+02 stress_25
                      2.4292937329e+02 stress_26
                      3.2561375189e+02 stress_27
                      3.4717004180e+02 stress_28
                      2.7680271724e+02 stress_29
                      1.5143005130e+02 stress_30
                     -2.3444462129e+01 stress_31
                     -2.1815503823e+02 stress_32
                     -3.0638211170e+02 stress_33
                     -3.4683539259e+02 stress_34
                     -3.8545495147e+02 stress_35
                     -4.2379052114e+02 stress_36
                     -4.6045196014e+02 stress_37
                     -4.9393351490e+02 stress_38
                     -5.2284712415e+02 stress_39
                     -5.4597667435e+02 stress_40
                     -5.6236899288e+02 stress_41
                     -5.7133740129e+02 stress_42
                     -5.6248723284e+02 stress_43
                     -3.3423994341e+02 stress_44
                     -1.4018868083e+02 stress_45
                     -2.5818442545e+02 stress_46
                     -4.7358841408e+02 stress_47
                     -3.0108182720e+02 stress_48
                     -3.5998217961e+02 stress_49
                     -4.5191601489e+02 stress_50
                     -5.6962935557e+02 stress_51
                     -4.7210515748e+02 stress_52
                     -2.6309925339e+02 stress_53
                     -2.5709433854e+01 stress_54
                      1.0172182460e+02 stress_55
                      1.4998335141e+02 stress_56
                      1.6641229770e+02 stress_57
                      1.1698185267e+02 stress_58
                     -6.8227244274e+01 stress_59
                     -3.3438251272e+02 stress_60
                     -5.1258969676e+02 stress_61
                     -5.4796146947e+02 stress_62
                     -5.5721235725e+02 stress_63
                     -4.0200381524e+02 stress_64
                     -1.4125249579e+02 stress_65
                     -6.1177597501e+01 stress_66
                     -2.1763911378e+02 stress_67
                     -4.8790418245e+02 stress_68
                     -5.7039769277e+02 stress_69
                     -5.7097598467e+02 stress_70
                     -5.1635500717e+02 stress_71
                     -4.1624858014e+02 stress_72
                     -2.7419502256e+02 stress_73
                     -1.0458985732e+02 stress_74
                      4.1607060128e+01 stress_75
                      1.2568356380e+02 stress_76
                      1.7669784149e+02 stress_77
                      2.1890138492e+02 stress_78
                      2.5907457530e+02 stress_79
                      2.9825888165e+02 stress_80
                      3.3602344673e+02 stress_81
                      3.7156166874e+02 stress_82
                      4.0399704510e+02 stress_83
                      4.3249718884e+02 stress_84
                      4.5630983613e+02 stress_85
                      4.7480773480e+02 stress_86
                      4.8750285591e+02 stress_87
                      4.9404891175e+02 stress_88
                      4.5184925315e+02 stress_89
                      1.8941871898e+02 stress_90
                      3.8411289323e+01 stress_91
                      2.0461095220e+02 stress_92
                      4.4441318831e+02 stress_93
                      4.5185404505e+02 stress_94
                      4.1739781689e+02 stress_95
                      3.5520318257e+02 stress_96
                      2.6614746783e+02 stress_97
                      1.5318580559e+02 stress_98
                      2.7546156652e+01 stress_99
                     -8.5642020328e+01 stress_100
                     -1.6644808312e+02 stress_101
                     -2.2060913832e+02 stress_102
                     -2.6217809114e+02 stress_103
                     -2.9948561944e+02 stress_104
                     -3.3594311721e+02 stress_105
                     -3.7272795351e+02 stress_106
                     -4.1011621522e+02 stress_107
                     -4.4801850736e+02 stress_108
                     -4.8619025932e+02 stress_109
                     -5.2431970788e+02 stress_110
                     -5.6206413066e+02 stress_111
                     -5.9906604821e+02 stress_112
                     -6.3497172676e+02 stress_113
                     -6.6943386725e+02 stress_114
                     -7.0211513667e+02 stress_115
                     -7.3269565037e+02 stress_116
                     -7.6087219392e+02 stress_117
                     -7.8637125099e+02 stress_118
                     -8.0894234856e+02 stress_119
                     -8.2835854196e+02 stress_120
                     -8.4443346138e+02 stress_121
                     -8.5700690494e+02 stress_122
                     -8.6595336312e+02 stress_123
                     -8.7118808894e+02 stress_124
                     -8.7259447163e+02 stress_125
                     -8.1387474390e+02 stress_126
                     -6.6816086037e+02 stress_127
                     -4.7283062174e+02 stress_128
                     -2.9941205031e+02 stress_129
                     -1.8496288903e+02 stress_130
                     -1.1508861371e+02 stress_131
                     -7.2622258214e+01 stress_132
                     -5.0417402724e+01 stress_133
                     -4.9112914691e+01 stress_134
                     -2.8584985273e+02 stress_135
                     -2.9956062786e+02 stress_136
                     -1.9151522425e+02 stress_137
                     -2.1219550754e+02 stress_138
                     -3.1160157112e+02 stress_139
                     -5.0112992759e+02 stress_140
                     -7.2010459529e+02 stress_141
                     -7.9714712544e+02 stress_142
                     -8.3249067886e+02 stress_143
                     -8.5803729553e+02 stress_144
                     -8.7131269887e+02 stress_145
                     -8.5963925041e+02 stress_146
                     -7.2275048467e+02 stress_147
                     -5.0714303625e+02 stress_148
                     -3.1699808984e+02 stress_149
                     -2.0649593631e+02 stress_150
                     -1.5614966797e+02 stress_151
                     -1.4932934636e+02 stress_152
                     -2.7350143036e+02 stress_153
                     -5.0527671633e+02 stress_154
                     -7.5832308126e+02 stress_155
                     -8.3957006464e+02 stress_156
                     -8.5659315857e+02 stress_157
                     -7.8630831289e+02 stress_158
                     -5.4282637196e+02 stress_159
                     -4.1272095742e+02 stress_160
                     -5.0821481845e+02 stress_161
                     -7.5904409101e+02 stress_162
                     -8.6740170508e+02 stress_163
                     -8.7208568611e+02 stress_164
                     -8.4818759869e+02 stress_165
                     -8.0104646370e+02 stress_166
                     -7.3134390963e+02 stress_167
                     -6.4117814955e+02 stress_168
                     -5.3609933833e+02 stress_169
                     -4.2628254737e+02 stress_170
                     -3.2407247938e+02 stress_171
                     -2.3774532960e+02 stress_172
                     -1.6821862856e+02 stress_173
                     -1.1167723925e+02 stress_174
                     -6.3463679427e+01 stress_175
                     -1.9990467829e+01 stress_176
                      2.1036149757e+01 stress_177
                      6.0945808040e+01 stress_178
                      1.0044232904e+02 stress_179
                      1.3985326923e+02 stress_180
                      1.7928208077e+02 stress_181
                      2.1869306153e+02 stress_182
                      2.5797086151e+02 stress_183
                      2.9694794890e+02 stress_184
                      3.3542862002e+02 stress_185
                      3.7319863299e+02 stress_186
                      4.1003510283e+02 stress_187
                      4.4571357552e+02 stress_188
                      4.8000910257e+02 stress_189
                      5.1270359764e+02 stress_190
                      5.4358693971e+02 stress_191
                      5.7245486790e+02 stress_192
                      5.9912260516e+02 stress_193
                      6.2341389892e+02 stress_194
                      6.4516525293e+02 stress_195
                      6.6423699533e+02 stress_196
                      6.8049873025e+02 stress_197
                      6.9384572953e+02 stress_198
                      7.0418955629e+02 stress_199
                      7.1145822670e+02 stress_200
                      7.1560603594e+02 stress_201
                      7.1580921226e+02 stress_202
                      5.0824232009e+02 stress_203
                      2.9824350386e+02 stress_204
                      3.6057191849e+02 stress_205
                      6.2036265439e+02 stress_206
                      6.3417288978e+02 stress_207
                      5.9708113260e+02 stress_208
                      5.3004466583e+02 stress_209
                      4.3647090596e+02 stress_210
                      3.2569913222e+02 stress_211
                      2.1340339909e+02 stress_212
                      1.1422405443e+02 stress_213
                      3.3669272180e+01 stress_214
                     -3.1075453088e+01 stress_215
                     -8.5364113798e+01 stress_216
                     -1.3360122375e+02 stress_217
                     -1.7857581284e+02 stress_218
                     -2.2181789681e+02 stress_219
                     -2.6405486731e+02 stress_220
                     -3.0554099258e+02 stress_221
                     -3.4625290652e+02 stress_222
                     -3.8600893689e+02 stress_223
                     -4.2453588901e+02 stress_224
                     -4.6151475324e+02 stress_225
                     -4.9660396111e+02 stress_226
                     -5.2945769392e+02 stress_227
                     -5.5974383245e+02 stress_228
                     -5.8713927832e+02 stress_229
                     -6.1135559463e+02 stress_230
                     -6.3213187199e+02 stress_231
                     -6.4923614742e+02 stress_232
                     -6.6248740208e+02 stress_233
                     -6.7173862241e+02 stress_234
                     -6.7688382594e+02 stress_235
                     -6.7316867498e+02 stress_236
                     -4.6197646077e+02 stress_237
                     -2.7419574591e+02 stress_238
                     -4.0225329116e+02 stress_239
                     -5.8328613888e+02 stress_240
                     -3.9078326745e+02 stress_241
                     -2.7771291130e+02 stress_242
                     -4.7675208440e+02 stress_243
                     -5.6774220820e+02 stress_244
                     -6.5160062718e+02 stress_245
                     -5.4539538372e+02 stress_246
                     -3.3968057674e+02 stress_247
                     -1.3047037042e+02 stress_248
                      9.7393611163e-01 stress_249
                      6.5747003201e+01 stress_250
                      8.7307209092e+01 stress_251
                      2.6945621341e+01 stress_252
                     -1.6434792877e+02 stress_253
                     -4.1748453645e+02 stress_254
                     -5.8176726648e+02 stress_255
                     -6.3801398793e+02 stress_256
                     -6.4935175326e+02 stress_257
                     -4.8944760238e+02 stress_258
                     -2.4441190915e+02 stress_259
                     -1.4965279570e+02 stress_260
                     -2.7344852386e+02 stress_261
                     -5.2486429708e+02 stress_262
                     -6.5163084796e+02 stress_263
                     -6.6634689991e+02 stress_264
                     -6.4228690510e+02 stress_265
                     -5.8827612419e+02 stress_266
                     -5.0540619839e+02 stress_267
                     -3.9733744585e+02 stress_268
                     -2.7366478116e+02 stress_269
                     -1.5108597084e+02 stress_270
                     -4.5706005446e+01 stress_271
                      3.7082535947e+01 stress_272
                      1.0165611836e+02 stress_273
                      1.5487098500e+02 stress_274
                      2.0191610366e+02 stress_275
                      2.4583884981e+02 stress_276
                      2.8820520816e+02 stress_277
                      3.2970643783e+02 stress_278
                      3.7054897346e+02 stress_279
                      4.1067291819e+02 stress_280
                      4.4987226702e+02 stress_281
                      4.8786286029e+02 stress_282
                      5.2432035297e+02 stress_283
                      5.5890799362e+02 stress_284
                      5.9128596105e+02 stress_285
                      6.2112992034e+02 stress_286
                      6.4813362615e+02 stress_287
                      6.7201249533e+02 stress_288
                      6.9251842321e+02 stress_289
                      7.0943421413e+02 stress_290
                      7.2257792259e+02 stress_291
                      7.3181262983e+02 stress_292
                      7.3703740321e+02 stress_293
                      7.3711456094e+02 stress_294
                      5.2245685723e+02 stress_295
                      3.1541033859e+02 stress_296
                      3.9015410636e+02 stress_297
                      6.4580683561e+02 stress_298
                      6.5724943640e+02 stress_299
                      6.3234797663e+02 stress_300
                      5.8751160481e+02 stress_301
                      5.2359131010e+02 stress_302
                      4.4314956670e+02 stress_303
                      3.5153959151e+02 stress_304
                      2.5707603024e+02 stress_305
                      1.6842038687e+02 stress_306
                      9.1076024552e+01 stress_307
                      2.6035824160e+01 stress_308
                     -2.8787635649e+01 stress_309
                     -7.6382790282e+01 stress_310
                     -1.1939444262e+02 stress_311
                     -1.5975451527e+02 stress_312
                     -1.9873211496e+02 stress_313
                     -2.3711367459e+02 stress_314
                     -2.7535287898e+02 stress_315
                     -3.1368321427e+02 stress_316
                     -3.5219705320e+02 stress_317
                     -3.9089219604e+02 stress_318
                     -4.2970497078e+02 stress_319
                     -4.6853215103e+02 stress_320
                     -5.0724150544e+02 stress_321
                     -5.4568480018e+02 stress_322
                     -5.8370017823e+02 stress_323
                     -6.2112029938e+02 stress_324
                     -6.5777602715e+02 stress_325
                     -6.9349337054e+02 stress_326
                     -7.2810485837e+02 stress_327
                     -7.6143923985e+02 stress_328
                     -7.9333734576e+02 stress_329
                     -8.2364261583e+02 stress_330
                     -8.5220324179e+02 stress_331
                     -8.7887995752e+02 stress_332
                     -9.0353785486e+02 stress_333
                     -9.2605522499e+02 stress_334
                     -9.4632183914e+02 stress_335
                     -9.6423016605e+02 stress_336
                     -9.7969604777e+02 stress_337
                     -9.9263938275e+02 stress_338
                     -1.0029945954e+03 stress_339
                     -1.0107117461e+03 stress_340
                     -1.0157510262e+03 stress_341
                     -1.0180861787e+03 stress_342


Active response data for evaluation 37:
Active set vector = { 1 1 1 1 1 1 1 1 1 1 1 1 1 1 1 1 1 1 1 1 1 1 1 1 1 1 1 1 1 1 1 1 1 1 1 1 1 1 1 1 1 1 1 1 1 1 1 1 1 1 1 1 1 1 1 1 1 1 1 1 1 1 1 1 1 1 1 1 1 1 1 1 1 1 1 1 1 1 1 1 1 1 1 1 1 1 1 1 1 1 1 1 1 1 1 1 1 1 1 1 1 1 1 1 1 1 1 1 1 1 1 1 1 1 1 1 1 1 1 1 1 1 1 1 1 1 1 1 1 1 1 1 1 1 1 1 1 1 1 1 1 1 1 1 1 1 1 1 1 1 1 1 1 1 1 1 1 1 1 1 1 1 1 1 1 1 1 1 1 1 1 1 1 1 1 1 1 1 1 1 1 1 1 1 1 1 1 1 1 1 1 1 1 1 1 1 1 1 1 1 1 1 1 1 1 1 1 1 1 1 1 1 1 1 1 1 1 1 1 1 1 1 1 1 1 1 1 1 1 1 1 1 1 1 1 1 1 1 1 1 1 1 1 1 1 1 1 1 1 1 1 1 1 1 1 1 1 1 1 1 1 1 1 1 1 1 1 1 1 1 1 1 1 1 1 1 1 1 1 1 1 1 1 1 1 1 1 1 1 1 1 1 1 1 1 1 1 1 1 1 1 1 1 1 1 1 1 1 1 1 1 1 1 1 1 1 1 1 1 1 1 1 1 1 1 1 1 1 1 1 1 1 1 1 1 1 1 1 1 1 1 1 }
                      1.3858810540e+00 stress_1
                     -1.4403244798e+02 stress_2
                     -3.1484038027e+02 stress_3
                     -3.2090449742e+02 stress_4
                     -1.3213719638e+02 stress_5
                      1.5075484676e+02 stress_6
                      3.0457747346e+02 stress_7
                      3.0521359857e+02 stress_8
                      1.6217348156e+02 stress_9
                     -8.2121275570e+01 stress_10
                     -3.1569948391e+02 stress_11
                     -3.5608792215e+02 stress_12
                     -3.7904157418e+02 stress_13
                     -3.8114525014e+02 stress_14
                     -1.8954512935e+02 stress_15
                     -2.8565441994e+02 stress_16
                     -3.8156634768e+02 stress_17
                     -2.6982806244e+02 stress_18
                     -6.0732946316e+01 stress_19
                      1.9358438910e+02 stress_20
                      2.9060374549e+02 stress_21
                      3.2680151506e+02 stress_22
                      3.5134337907e+02 stress_23
                      3.6165917612e+02 stress_24
                      1.6966114477e+02 stress_25
                      2.4296733844e+02 stress_26
                      3.2565174741e+02 stress_27
                      3.4720847011e+02 stress_28
                      2.7684114556e+02 stress_29
                      1.5146847928e+02 stress_30
                     -2.3406221044e+01 stress_31
                     -2.1812792428e+02 stress_32
                     -3.0637498878e+02 stress_33
                     -3.4683015288e+02 stress_34
                     -3.8544983503e+02 stress_35
                     -4.2378541711e+02 stress_36
                     -4.6044685795e+02 stress_37
                     -4.9392841308e+02 stress_38
                     -5.2284202243e+02 stress_39
                     -5.4597157266e+02 stress_40
                     -5.6236389120e+02 stress_41
                     -5.7133229961e+02 stress_42
                     -5.6248213117e+02 stress_43
                     -3.3423468342e+02 stress_44
                     -1.4017867832e+02 stress_45
                     -2.5817442294e+02 stress_46
                     -4.7357841847e+02 stress_47
                     -3.0107177811e+02 stress_48
                     -3.5997213053e+02 stress_49
                     -4.5190596581e+02 stress_50
                     -5.6962020964e+02 stress_51
                     -4.7209601063e+02 stress_52
                     -2.6308942384e+02 stress_53
                     -2.5682998356e+01 stress_54
                      1.0177828372e+02 stress_55
                      1.5005026110e+02 stress_56
                      1.6648146446e+02 stress_57
                      1.1705101943e+02 stress_58
                     -6.8158077705e+01 stress_59
                     -3.3431511222e+02 stress_60
                     -5.1257095609e+02 stress_61
                     -5.4795180481e+02 stress_62
                     -5.5720310105e+02 stress_63
                     -4.0199454887e+02 stress_64
                     -1.4123974796e+02 stress_65
                     -6.1158664424e+01 stress_66
                     -2.1762018070e+02 stress_67
                     -4.8788611663e+02 stress_68
                     -5.7038854256e+02 stress_69
                     -5.7096685743e+02 stress_70
                     -5.1634587989e+02 stress_71
                     -4.1623944012e+02 stress_72
                     -2.7418534578e+02 stress_73
                     -1.0457348608e+02 stress_74
                      4.1647391409e+01 stress_75
                      1.2574555267e+02 stress_76
                      1.7676796092e+02 stress_77
                      2.1897397548e+02 stress_78
                      2.5914797001e+02 stress_79
                      2.9833257185e+02 stress_80
                      3.3609725902e+02 stress_81
                      3.7163553689e+02 stress_82
                      4.0407094110e+02 stress_83
                      4.3257109972e+02 stress_84
                      4.5638375536e+02 stress_85
                      4.7488165881e+02 stress_86
                      4.8757678257e+02 stress_87
                      4.9412283961e+02 stress_88
                      4.5192318093e+02 stress_89
                      1.8949141305e+02 stress_90
                      3.8476616354e+01 stress_91
                      2.0467627923e+02 stress_92
                      4.4447980619e+02 stress_93
                      4.5192122561e+02 stress_94
                      4.1746499742e+02 stress_95
                      3.5527035815e+02 stress_96
                      2.6621452273e+02 stress_97
                      1.5325168366e+02 stress_98
                      2.7606186945e+01 stress_99
                     -8.5596129632e+01 stress_100
                     -1.6641813931e+02 stress_101
                     -2.2058929199e+02 stress_102
                     -2.6216310449e+02 stress_103
                     -2.9947282190e+02 stress_104
                     -3.3593132798e+02 stress_105
                     -3.7271665276e+02 stress_106
                     -4.1010516463e+02 stress_107
                     -4.4800759187e+02 stress_108
                     -4.8617942043e+02 stress_109
                     -5.2430891436e+02 stress_110
                     -5.6205336509e+02 stress_111
                     -5.9905530047e+02 stress_112
                     -6.3496099075e+02 stress_113
                     -6.6942313918e+02 stress_114
                     -7.0210441410e+02 stress_115
                     -7.3268493170e+02 stress_116
                     -7.6086147805e+02 stress_117
                     -7.8636053716e+02 stress_118
                     -8.0893163623e+02 stress_119
                     -8.2834783074e+02 stress_120
                     -8.4442275096e+02 stress_121
                     -8.5699619509e+02 stress_122
                     -8.6594265365e+02 stress_123
                     -8.7117737968e+02 stress_124
                     -8.7258376242e+02 stress_125
                     -8.1386402344e+02 stress_126
                     -6.6814907690e+02 stress_127
                     -4.7280787064e+02 stress_128
                     -2.9936010203e+02 stress_129
                     -1.8488133842e+02 stress_130
                     -1.1498909347e+02 stress_131
                     -7.2513726103e+01 stress_132
                     -5.0304978597e+01 stress_133
                     -4.9000280238e+01 stress_134
                     -2.8573722085e+02 stress_135
                     -2.9944799783e+02 stress_136
                     -1.9140222853e+02 stress_137
                     -2.1208251182e+02 stress_138
                     -3.1148857543e+02 stress_139
                     -5.0101720722e+02 stress_140
                     -7.2003403526e+02 stress_141
                     -7.9712813119e+02 stress_142
                     -8.3247454817e+02 stress_143
                     -8.5802138174e+02 stress_144
                     -8.7129681612e+02 stress_145
                     -8.5962336763e+02 stress_146
                     -7.2273428254e+02 stress_147
                     -5.0711889590e+02 stress_148
                     -3.1694682563e+02 stress_149
                     -2.0641818646e+02 stress_150
                     -1.5605891716e+02 stress_151
                     -1.4923688604e+02 stress_152
                     -2.7340897004e+02 stress_153
                     -5.0518428370e+02 stress_154
                     -7.5825415934e+02 stress_155
                     -8.3955078314e+02 stress_156
                     -8.5657658578e+02 stress_157
                     -7.8629172129e+02 stress_158
                     -5.4280512489e+02 stress_159
                     -4.1268811247e+02 stress_160
                     -5.0818197350e+02 stress_161
                     -7.5901159669e+02 stress_162
                     -8.6738554966e+02 stress_163
                     -8.7206971461e+02 stress_164
                     -8.4817162679e+02 stress_165
                     -8.0103047060e+02 stress_166
                     -7.3132767487e+02 stress_167
                     -6.4116057844e+02 stress_168
                     -5.3607716436e+02 stress_169
                     -4.2624968004e+02 stress_170
                     -3.2402240607e+02 stress_171
                     -2.3767530785e+02 stress_172
                     -1.6813067249e+02 stress_173
                     -1.1157563381e+02 stress_174
                     -6.3352589434e+01 stress_175
                     -1.9873044240e+01 stress_176
                      2.1157762640e+01 stress_177
                      6.1070210676e+01 stress_178
                      1.0056861680e+02 stress_179
                      1.3998085409e+02 stress_180
                      1.7941057540e+02 stress_181
                      2.1882220639e+02 stress_182
                      2.5810047958e+02 stress_183
                      2.9707791720e+02 stress_184
                      3.3555885162e+02 stress_185
                      3.7332906538e+02 stress_186
                      4.1016569032e+02 stress_187
                      4.4584428421e+02 stress_188
                      4.8013990696e+02 stress_189
                      5.1283447823e+02 stress_190
                      5.4371788142e+02 stress_191
                      5.7258585890e+02 stress_192
                      5.9925363603e+02 stress_193
                      6.2354496207e+02 stress_194
                      6.4529634214e+02 stress_195
                      6.6436810544e+02 stress_196
                      6.8062985687e+02 stress_197
                      6.9397686887e+02 stress_198
                      7.0432070503e+02 stress_199
                      7.1158938180e+02 stress_200
                      7.1573719460e+02 stress_201
                      7.1594037109e+02 stress_202
                      5.0837181987e+02 stress_203
                      2.9835880065e+02 stress_204
                      3.6068721527e+02 stress_205
                      6.2047805025e+02 stress_206
                      6.3428841295e+02 stress_207
                      5.9719664924e+02 stress_208
                      5.3015998793e+02 stress_209
                      4.3658475479e+02 stress_210
                      3.2580749513e+02 stress_211
                      2.1349974709e+02 stress_212
                      1.1430351362e+02 stress_213
                      3.3731873223e+01 stress_214
                     -3.1026309087e+01 stress_215
                     -8.5324488053e+01 stress_216
                     -1.3356798825e+02 stress_217
                     -1.7854681298e+02 stress_218
                     -2.2179172477e+02 stress_219
                     -2.6403061434e+02 stress_220
                     -3.0551806822e+02 stress_221
                     -3.4623092107e+02 stress_222
                     -3.8598762817e+02 stress_223
                     -4.2451507693e+02 stress_224
                     -4.6149431155e+02 stress_225
                     -4.9658379944e+02 stress_226
                     -5.2943774627e+02 stress_227
                     -5.5972404969e+02 stress_228
                     -5.8711962305e+02 stress_229
                     -6.1133603784e+02 stress_230
                     -6.3211239060e+02 stress_231
                     -6.4921672257e+02 stress_232
                     -6.6246801797e+02 stress_233
                     -6.7171926526e+02 stress_234
                     -6.7686448330e+02 stress_235
                     -6.7314933233e+02 stress_236
                     -4.6195596858e+02 stress_237
                     -2.7416471052e+02 stress_238
                     -4.0222225950e+02 stress_239
                     -5.8325703744e+02 stress_240
                     -3.9075306276e+02 stress_241
                     -2.7767765297e+02 stress_242
                     -4.7671694995e+02 stress_243
                     -5.6770872319e+02 stress_244
                     -6.5157484051e+02 stress_245
                     -5.4536950479e+02 stress_246
                     -3.3964972747e+02 stress_247
                     -1.3041258835e+02 stress_248
                      1.0657694778e+00 stress_249
                      6.5857863706e+01 stress_250
                      8.7424033651e+01 stress_251
                      2.7062445875e+01 stress_252
                     -1.6423127709e+02 stress_253
                     -4.1738003324e+02 stress_254
                     -5.8171016148e+02 stress_255
                     -6.3797941651e+02 stress_256
                     -6.4932074016e+02 stress_257
                     -4.8941623597e+02 stress_258
                     -2.4436946201e+02 stress_259
                     -1.4959734679e+02 stress_260
                     -2.7339307759e+02 stress_261
                     -5.2481359309e+02 stress_262
                     -6.5160255402e+02 stress_263
                     -6.6632190055e+02 stress_264
                     -6.4226190541e+02 stress_265
                     -5.8825109784e+02 stress_266
                     -5.0538079629e+02 stress_267
                     -3.9730972569e+02 stress_268
                     -2.7362886513e+02 stress_269
                     -1.5103222728e+02 stress_270
                     -4.5627540554e+01 stress_271
                      3.7184729403e+01 stress_272
                      1.0177614485e+02 stress_273
                      1.5500279490e+02 stress_274
                      2.0205531572e+02 stress_275
                      2.4598267683e+02 stress_276
                      2.8835195138e+02 stress_277
                      3.2985506531e+02 stress_278
                      3.7069884948e+02 stress_279
                      4.1082364259e+02 stress_280
                      4.5002358177e+02 stress_281
                      4.8801459486e+02 stress_282
                      5.2447239193e+02 stress_283
                      5.5906025701e+02 stress_284
                      5.9143839221e+02 stress_285
                      6.2128247824e+02 stress_286
                      6.4828628042e+02 stress_287
                      6.7216522299e+02 stress_288
                      6.9267120641e+02 stress_289
                      7.0958703863e+02 stress_290
                      7.2273077669e+02 stress_291
                      7.3196550352e+02 stress_292
                      7.3719028757e+02 stress_293
                      7.3726744545e+02 stress_294
                      5.2260776558e+02 stress_295
                      3.1554563551e+02 stress_296
                      3.9028940328e+02 stress_297
                      6.4594236407e+02 stress_298
                      6.5738517489e+02 stress_299
                      6.3248371329e+02 stress_300
                      5.8764728709e+02 stress_301
                      5.2372656124e+02 stress_302
                      4.4328299248e+02 stress_303
                      3.5166791334e+02 stress_304
                      2.5719419265e+02 stress_305
                      1.6852355886e+02 stress_306
                      9.1162045165e+01 stress_307
                      2.6105708559e+01 stress_308
                     -2.8731041686e+01 stress_309
                     -7.6336298847e+01 stress_310
                     -1.1935531511e+02 stress_311
                     -1.5972066412e+02 stress_312
                     -1.9870203496e+02 stress_313
                     -2.3708630616e+02 stress_314
                     -2.7532748071e+02 stress_315
                     -3.1365926553e+02 stress_316
                     -3.5217418530e+02 stress_317
                     -3.9087014490e+02 stress_318
                     -4.2968354489e+02 stress_319
                     -4.6851120976e+02 stress_320
                     -5.0722094415e+02 stress_321
                     -5.4566454006e+02 stress_322
                     -5.8368015921e+02 stress_323
                     -6.2110047513e+02 stress_324
                     -6.5775636158e+02 stress_325
                     -6.9347383520e+02 stress_326
                     -7.2808543064e+02 stress_327
                     -7.6141990154e+02 stress_328
                     -7.9331808211e+02 stress_329
                     -8.2362341476e+02 stress_330
                     -8.5218409332e+02 stress_331
                     -8.7886085331e+02 stress_332
                     -9.0351878788e+02 stress_333
                     -9.2603618926e+02 stress_334
                     -9.4630282950e+02 stress_335
                     -9.6421117800e+02 stress_336
                     -9.7967707736e+02 stress_337
                     -9.9262042641e+02 stress_338
                     -1.0029756499e+03 stress_339
                     -1.0106928084e+03 stress_340
                     -1.0157320935e+03 stress_341
                     -1.0180672483e+03 stress_342

>>>>> Total response returned to iterator:

Active set vector = { 2 2 2 2 2 2 2 2 2 2 2 2 2 2 2 2 2 2 2 2 2 2 2 2 2 2 2 2 2 2 2 2 2 2 2 2 2 2 2 2 2 2 2 2 2 2 2 2 2 2 2 2 2 2 2 2 2 2 2 2 2 2 2 2 2 2 2 2 2 2 2 2 2 2 2 2 2 2 2 2 2 2 2 2 2 2 2 2 2 2 2 2 2 2 2 2 2 2 2 2 2 2 2 2 2 2 2 2 2 2 2 2 2 2 2 2 2 2 2 2 2 2 2 2 2 2 2 2 2 2 2 2 2 2 2 2 2 2 2 2 2 2 2 2 2 2 2 2 2 2 2 2 2 2 2 2 2 2 2 2 2 2 2 2 2 2 2 2 2 2 2 2 2 2 2 2 2 2 2 2 2 2 2 2 2 2 2 2 2 2 2 2 2 2 2 2 2 2 2 2 2 2 2 2 2 2 2 2 2 2 2 2 2 2 2 2 2 2 2 2 2 2 2 2 2 2 2 2 2 2 2 2 2 2 2 2 2 2 2 2 2 2 2 2 2 2 2 2 2 2 2 2 2 2 2 2 2 2 2 2 2 2 2 2 2 2 2 2 2 2 2 2 2 2 2 2 2 2 2 2 2 2 2 2 2 2 2 2 2 2 2 2 2 2 2 2 2 2 2 2 2 2 2 2 2 2 2 2 2 2 2 2 2 2 2 2 2 2 2 2 2 2 2 2 2 2 2 2 2 2 2 2 2 2 2 2 2 2 2 2 2 2 } Deriv vars vector = { 1 2 3 4 5 6 7 }
 [  0.0000000000e+00  1.1653236546e-05  0.0000000000e+00  0.0000000000e+00 
   -0.0000000000e+00  0.0000000000e+00  0.0000000000e+00 ] stress_1 gradient
 [ -1.9999996918e-07 -1.2111021877e-03 -7.4440302424e-05  0.0000000000e+00 
   -0.0000000000e+00  0.0000000000e+00  0.0000000000e+00 ] stress_2 gradient
 [ -8.6390443333e-01 -4.6800809797e-04 -1.1068519787e+02  0.0000000000e+00 
   -0.0000000000e+00 -2.5908800000e+02  0.0000000000e+00 ] stress_3 gradient
 [ -8.6544283333e-01 -5.1519405255e-04 -1.5563846980e+02  0.0000000000e+00 
   -0.0000000000e+00 -2.5961900000e+02  0.0000000000e+00 ] stress_4 gradient
 [ -8.6544286667e-01  1.0720634386e-03 -1.5563846980e+02  0.0000000000e+00 
   -0.0000000000e+00 -2.5961900000e+02  0.0000000000e+00 ] stress_5 gradient
 [ -8.5259133333e-01  3.4177141067e-03 -1.5540874721e+02 -2.3973716014e-01 
    9.5840000000e-02 -2.5759300000e+02  2.4367064240e+00 ] stress_6 gradient
 [  4.5412853333e-01  1.4016075112e-03 -1.0387451112e+02 -3.8507677873e+00 
    1.5395450000e+00 -6.4223999999e+01  2.3503905251e+02 ] stress_7 gradient
 [  4.7004676667e-01  1.3671389696e-03 -1.0244905490e+02 -3.7906989762e+00 
    1.5155300000e+00 -6.1939000000e+01  2.3778848808e+02 ] stress_8 gradient
 [  4.7004680000e-01  1.6438040853e-04 -1.0244905490e+02 -3.7906989762e+00 
    1.5155250000e+00 -6.1937999999e+01  2.3778848808e+02 ] stress_9 gradient
 [  4.6982193333e-01 -1.8892005967e-03 -1.0245277692e+02 -3.7873287072e+00 
    1.5140580000e+00 -6.1979700001e+01  2.3774950850e+02 ] stress_10 gradient
 [ -6.5696203333e-01 -9.9359048191e-04 -1.6385391838e+02  5.6925158214e-01 
   -2.7950500001e-01 -2.7276800000e+02  3.7571398337e+01 ] stress_11 gradient
 [ -8.6526890000e-01 -8.1147990892e-04 -4.1764438003e+02  1.0006294622e-02 
   -4.4949999847e-03 -3.1224000000e+02  7.5981243614e-02 ] stress_12 gradient
 [ -8.6565193333e-01 -1.0035255089e-03 -5.8839049722e+02  6.5190956520e-04 
   -2.9000000268e-04 -3.1231700000e+02  2.6533133191e-03 ] stress_13 gradient
 [ -8.6565516667e-01 -1.0212061470e-03 -6.0404892797e+02  5.1738855222e-04 
   -2.2999998350e-04 -3.1231700000e+02  2.0502877829e-03 ] stress_14 gradient
 [ -8.6565266667e-01  5.8986458312e-04 -6.0404900241e+02  2.0695558558e-05 
   -1.0500001224e-04 -3.1231800000e+02  2.4121031732e-03 ] stress_15 gradient
 [ -8.6565263333e-01 -2.1827419223e-04 -6.0404892797e+02  3.1043337837e-05 
   -1.1000000200e-04 -3.1231700000e+02  2.5327080747e-03 ] stress_16 gradient
 [ -8.6566236667e-01 -1.0247290733e-03 -6.2112484984e+02  1.0347779279e-05 
   -2.0000015866e-05 -4.2606800000e+02  4.8242097742e-04 ] stress_17 gradient
 [ -8.6566236667e-01 -8.5173134014e-05 -6.2112484984e+02  0.0000000000e+00 
   -2.0000015866e-05 -4.2606800000e+02  4.8242097742e-04 ] stress_18 gradient
 [ -8.6471683000e-01  1.6705880617e-03 -6.2110417779e+02 -1.3852250698e-01 
    3.4046499998e-02 -4.2586520000e+02  2.1739078053e-01 ] stress_19 gradient
 [ -3.2375940000e-01  2.4337833561e-03 -6.0142691928e+02 -2.6820429229e+01 
    6.6050750000e+00 -3.0102300000e+02  1.3437077914e+02 ] stress_20 gradient
 [  8.6670786667e-01  2.5585002586e-04 -3.8067058111e+02 -7.4300411050e+00 
    1.8288950000e+00 -1.3110999998e+01  4.4386083719e+02 ] stress_21 gradient
 [  9.1325910000e-01  4.4377594547e-04 -1.2618603863e+02 -8.4554741751e-01 
    2.0800500002e-01 -7.8500000313e-01  4.5711244850e+02 ] stress_22 gradient
 [  9.1543600000e-01  6.4468532432e-04  5.5626514023e+01 -2.1737562686e-01 
    5.3455000000e-02 -1.4899999883e-01  4.5779700333e+02 ] stress_23 gradient
 [  9.1565953333e-01  7.3086605375e-04  1.3231306618e+02 -1.2829166574e-01 
    3.1544999985e-02 -7.7999999348e-02  4.5787238155e+02 ] stress_24 gradient
 [  9.1564296667e-01 -8.8351453020e-04  1.3231276842e+02 -1.2463890254e-01 
    3.0765000005e-02 -8.0999998886e-02  4.5786936642e+02 ] stress_25 gradient
 [  9.1564296667e-01 -2.6711646113e-04  1.3231276842e+02 -1.2464925032e-01 
    3.0765000005e-02 -8.1999999679e-02  4.5786936642e+02 ] stress_26 gradient
 [  9.1550013333e-01  4.2849821594e-04  1.3238959075e+02 -1.2688436888e-01 
    3.2040000008e-02 -8.1000001728e-02  4.5823576486e+02 ] stress_27 gradient
 [  9.1339126667e-01  6.1506775388e-04  1.3350701324e+02 -1.3566962649e-01 
    3.9149999992e-02 -7.3000001066e-02  4.6345639993e+02 ] stress_28 gradient
 [  9.1339130000e-01  2.3381292286e-05  1.3350701324e+02 -1.3565927871e-01 
    3.9149999992e-02 -7.3000001066e-02  4.6345652053e+02 ] stress_29 gradient
 [  9.1336633333e-01 -1.0307556424e-03  1.3350656660e+02 -1.3028878556e-01 
    3.8004999993e-02 -7.7999999348e-02  4.6345181693e+02 ] stress_30 gradient
 [  9.0084757000e-01 -2.4691716659e-03  1.3320570891e+02  1.7137978447e+00 
   -3.5667750000e-01 -2.9398999999e+00  4.6085260713e+02 ] stress_31 gradient
 [  2.5275223333e-01 -2.4614262649e-03  1.0669445642e+02  4.0963390208e+01 
   -8.7704650000e+00 -1.7328800000e+02  3.0610877210e+02 ] stress_32 gradient
 [ -7.8168706667e-01 -6.0278548282e-04 -8.1396832996e+01  1.6964570499e+01 
   -3.6323400000e+00 -4.7923700000e+02  2.8107632925e+01 ] stress_33 gradient
 [ -8.6151643333e-01 -7.4304523610e-04 -3.5118174866e+02  2.2697732365e+00 
   -4.8561499997e-01 -5.0805400001e+02  1.9196721511e+00 ] stress_34 gradient
 [ -8.6540050000e-01 -1.0580402633e-03 -6.3639991334e+02  3.6980864254e-01 
   -7.9070000027e-02 -5.0993900000e+02  2.0563177915e-01 ] stress_35 gradient
 [ -8.6565213333e-01 -1.3797550597e-03 -9.2151371280e+02  8.0298703504e-02 
   -1.7159999999e-02 -5.1013000000e+02  3.2925204972e-02 ] stress_36 gradient
 [ -8.6566846667e-01 -1.6879834821e-03 -1.1943800079e+03  2.2816835194e-02 
   -4.8750000019e-03 -5.1015800000e+02  7.3569144211e-03 ] stress_37 gradient
 [ -8.6566760000e-01 -1.9695166382e-03 -1.4436080270e+03  8.2678691150e-03 
   -1.7650000075e-03 -5.1016300000e+02  2.2914982716e-03 ] stress_38 gradient
 [ -8.6566636667e-01 -2.2126410107e-03 -1.6588389637e+03  3.7355453788e-03 
   -8.0000000935e-04 -5.1016500000e+02  8.4423533935e-04 ] stress_39 gradient
 [ -8.6566566667e-01 -2.4071285349e-03 -1.8310150035e+03  2.0799019881e-03 
   -4.4500001195e-04 -5.1016500000e+02  4.8242097742e-04 ] stress_40 gradient
 [ -8.6566533333e-01 -2.5449648627e-03 -1.9530394604e+03  1.3969491439e-03 
   -3.0000001061e-04 -5.1016499999e+02  3.6181573306e-04 ] stress_41 gradient
 [ -8.6566520000e-01 -2.6203765220e-03 -2.0198003738e+03  1.1382547796e-03 
   -2.3999996301e-04 -5.1016600000e+02  2.4121048871e-04 ] stress_42 gradient
 [ -8.6566520000e-01 -2.5459595090e-03 -2.0198004482e+03  1.1279070003e-03 
   -2.4000001986e-04 -5.1016600000e+02  1.2060524435e-04 ] stress_43 gradient
 [ -8.5855360000e-01 -6.4484441391e-04 -2.0195493613e+03 -4.3014442607e+00 
    4.5655500000e-01 -5.0898900000e+02  2.0514935789e+00 ] stress_44 gradient
 [ -6.8443663333e-01  5.4499198620e-04 -2.0106000063e+03 -7.7016369827e+01 
    8.2067400000e+00 -4.7373700000e+02  6.3500299252e+01 ] stress_45 gradient
 [ -6.8443663333e-01 -4.4718005901e-04 -2.0106000063e+03 -7.7016380175e+01 
    8.2067450000e+00 -4.7373700000e+02  6.3500299252e+01 ] stress_46 gradient
 [ -6.8559350000e-01 -2.2554658757e-03 -2.0107130066e+03 -7.6525678523e+01 
    8.1512250000e+00 -4.7633000000e+02  6.3104352549e+01 ] stress_47 gradient
 [ -6.8318406667e-01 -8.1107680349e-04 -2.0106345466e+03 -7.7985335111e+01 
    8.3066600000e+00 -4.7593100000e+02  6.3797470338e+01 ] stress_48 gradient
 [ -6.8318406667e-01 -1.3063427832e-03 -2.0106345466e+03 -7.7985335111e+01 
    8.3066650000e+00 -4.7593100000e+02  6.3797349733e+01 ] stress_49 gradient
 [ -6.8318553333e-01 -2.0793683342e-03 -2.0106346211e+03 -7.7984693549e+01 
    8.3065900000e+00 -4.7593400000e+02  6.3796987918e+01 ] stress_50 gradient
 [ -8.2629733333e-01 -2.7055452836e-03 -2.0319511058e+03 -1.6784312327e+01 
    1.7566450000e+00 -7.9980400001e+02  1.3844144411e+01 ] stress_51 gradient
 [ -8.2624500000e-01 -1.8856429601e-03 -2.0319497659e+03 -1.6823861508e+01 
    1.7608050000e+00 -7.9979300000e+02  1.3856566742e+01 ] stress_52 gradient
 [ -7.9652943333e-01 -2.0377601849e-04 -2.0307370599e+03 -3.2945626749e+01 
    3.4679850000e+00 -7.9136300000e+02  2.3106981646e+01 ] stress_53 gradient
 [ -2.3118446667e-01  3.6138788824e-04 -1.9897150070e+03 -1.9808569078e+02 
    2.1025820000e+01 -5.8634610000e+02  2.4810935810e+02 ] stress_54 gradient
 [  5.8730906667e-01 -6.2921840263e-04 -1.8234638597e+03 -2.0623342638e+02 
    2.1897210000e+01 -2.1576800000e+02  6.5490332447e+02 ] stress_55 gradient
 [  8.1306763333e-01 -7.9092153186e-04 -1.6416781055e+03 -1.2539391731e+02 
    1.3300215000e+01 -8.6800999998e+01  7.9649666355e+02 ] stress_56 gradient
 [  8.5433746667e-01 -7.5650024630e-04 -1.5550149975e+03 -9.7345673307e+01 
    1.0320365000e+01 -5.8948000000e+01  8.2707730505e+02 ] stress_57 gradient
 [  8.5433746667e-01 -1.1721381040e-03 -1.5550149975e+03 -9.7345673307e+01 
    1.0320365000e+01 -5.8948000000e+01  8.2707730505e+02 ] stress_58 gradient
 [  8.5433040000e-01 -2.7294581218e-03 -1.5550151092e+03 -9.7344396392e+01 
    1.0320073000e+01 -5.8950600000e+01  8.2707468791e+02 ] stress_59 gradient
 [  7.9680353333e-01 -4.8203770578e-03 -1.5564464834e+03 -9.0335482665e+01 
    8.8984800000e+00 -8.3383000003e+01  8.0282831325e+02 ] stress_60 gradient
 [ -6.1631666667e-01 -2.7503586003e-03 -1.6648606583e+03  1.8901135160e+00 
   -3.1121250000e+00 -7.5608600000e+02  1.3483426473e+02 ] stress_61 gradient
 [ -8.4982076667e-01 -2.4634576842e-03 -1.8524278884e+03  1.8646993902e+00 
   -7.0146500002e-01 -8.8148300000e+02  1.0249387350e+01 ] stress_62 gradient
 [ -8.5899480000e-01 -2.5182822092e-03 -1.9177796480e+03  1.1250924529e+00 
   -3.9344999999e-01 -8.8712700000e+02  4.6424539881e+00 ] stress_63 gradient
 [ -8.5846690000e-01 -1.2145523800e-03 -1.9177644622e+03  7.8007706989e-01 
   -3.5542499998e-01 -8.8698800000e+02  4.7818735395e+00 ] stress_64 gradient
 [ -7.2117616667e-01  6.2935319154e-04 -1.9112286089e+03 -5.6573571995e+01 
    6.0097350000e+00 -8.3922500000e+02  5.2530537348e+01 ] stress_65 gradient
 [ -5.0496242667e-01  7.5502952529e-04 -1.8974946445e+03 -1.2024183556e+02 
    1.3099737000e+01 -7.5437720000e+02  1.3736088229e+02 ] stress_66 gradient
 [ -5.0496243333e-01 -5.6058352246e-04 -1.8974946817e+03 -1.2024184488e+02 
    1.3099740000e+01 -7.5437800000e+02  1.3736082199e+02 ] stress_67 gradient
 [ -5.3995173333e-01 -2.7440437023e-03 -1.8998930719e+03 -1.0834751664e+02 
    1.1388705000e+01 -7.6628000000e+02  1.2546577738e+02 ] stress_68 gradient
 [ -8.5909376667e-01 -2.6290537154e-03 -2.0187108664e+03 -2.1005250930e+00 
    3.2675000000e-02 -8.8861300001e+02  3.1849407659e+00 ] stress_69 gradient
 [ -8.5978706667e-01 -2.6321644550e-03 -2.0224456823e+03 -1.8764337625e+00 
    2.2959999967e-02 -8.8892900000e+02  2.8697995133e+00 ] stress_70 gradient
 [ -8.5978520000e-01 -2.1728866083e-03 -2.0224456078e+03 -1.8779652328e+00 
    2.3120000037e-02 -8.8892900001e+02  2.8702819329e+00 ] stress_71 gradient
 [ -8.5911673333e-01 -1.3328433077e-03 -2.0224256578e+03 -2.3367440109e+00 
    7.1699999978e-02 -8.8875300000e+02  3.0451593995e+00 ] stress_72 gradient
 [ -8.3529840000e-01 -1.9896624923e-04 -2.0214787779e+03 -1.5357623739e+01 
    1.4563900000e+00 -8.8139000000e+02  1.0406777069e+01 ] stress_73 gradient
 [ -5.8616390000e-01  5.9548199270e-04 -2.0073351317e+03 -1.0873995586e+02 
    1.1425730000e+01 -7.8954900000e+02  1.0222190889e+02 ] stress_74 gradient
 [  1.5671415000e-01 -5.0944698328e-05 -1.9267453798e+03 -2.3048794468e+02 
    2.4487969000e+01 -4.6090980000e+02  4.3082791919e+02 ] stress_75 gradient
 [  7.0639110000e-01 -7.2710440906e-04 -1.7416821706e+03 -1.6819292967e+02 
    1.7886625000e+01 -1.6391800000e+02  7.2784833352e+02 ] stress_76 gradient
 [  8.6851740000e-01 -7.0564051627e-04 -1.4932077101e+03 -8.2502385529e+01 
    8.7666650000e+00 -5.2435999999e+01  8.3935237647e+02 ] stress_77 gradient
 [  9.0530810000e-01 -4.4325520455e-04 -1.2175776721e+03 -3.8835588390e+01 
    4.1226450000e+00 -1.8553000001e+01  8.7324194083e+02 ] stress_78 gradient
 [  9.1358126667e-01 -1.2625844020e-04 -9.3128451583e+02 -1.9386487014e+01 
    2.0561700000e+00 -7.5270000025e+00  8.8427019623e+02 ] stress_79 gradient
 [  9.1538883333e-01  1.9868195647e-04 -6.4441764863e+02 -1.0488883625e+01 
    1.1116050000e+00 -3.4760000005e+00  8.8832252923e+02 ] stress_80 gradient
 [  9.1567676667e-01  5.1550626166e-04 -3.6534772697e+02 -6.1591485577e+00 
    6.5230500002e-01 -1.8030000035e+00  8.8999676990e+02 ] stress_81 gradient
 [  9.1562133333e-01  8.1447318118e-04 -1.0176353470e+02 -3.9107641639e+00 
    4.1395000000e-01 -1.0369999984e+00  8.9076285381e+02 ] stress_82 gradient
 [  9.1551193333e-01  1.0874848701e-03  1.3919476892e+02 -2.6728292675e+00 
    2.8277499999e-01 -6.5400000153e-01  8.9114493092e+02 ] stress_83 gradient
 [  9.1541610000e-01  1.3273722067e-03  3.5108281758e+02 -1.9579638509e+00 
    2.0706500001e-01 -4.5000000455e-01  8.9134899483e+02 ] stress_84 gradient
 [  9.1534496667e-01  1.5277818660e-03  5.2819208677e+02 -1.5319978548e+00 
    1.6196999999e-01 -3.3599999938e-01  8.9146344911e+02 ] stress_85 gradient
 [  9.1529640000e-01  1.6834451405e-03  6.6580246955e+02 -1.2768114724e+00 
    1.3495499999e-01 -2.6999999818e-01  8.9152905832e+02 ] stress_86 gradient
 [  9.1526640000e-01  1.7902684165e-03  7.6025582347e+02 -1.1311769423e+00 
    1.1954499999e-01 -2.3399999804e-01  8.9156536046e+02 ] stress_87 gradient
 [  9.1525196667e-01  1.8453478044e-03  8.0896237247e+02 -1.0639578215e+00 
    1.1243500001e-01 -2.1800000241e-01  8.9158176277e+02 ] stress_88 gradient
 [  9.1524670000e-01  1.4905237070e-03  8.0896214915e+02 -1.0580906353e+00 
    1.1195000002e-01 -2.1900000320e-01  8.9158067732e+02 ] stress_89 gradient
 [  8.5683563333e-01 -5.6780746779e-04  8.0608108841e+02  4.1730967170e+01 
   -3.4724100000e+00 -2.1104000001e+01  8.7418266099e+02 ] stress_90 gradient
 [  5.6683815000e-01 -1.1032335283e-03  7.8529937490e+02  1.9003384279e+02 
   -1.5942969000e+01 -1.4581140000e+02  7.7029202308e+02 ] stress_91 gradient
 [  5.6683813333e-01  2.9426301377e-04  7.8529930791e+02  1.9003383555e+02 
   -1.5942965000e+01 -1.4581200000e+02  7.7029193866e+02 ] stress_92 gradient
 [  5.8666423333e-01  2.2601377449e-03  7.8647665480e+02  1.7945586796e+02 
   -1.5042565000e+01 -1.3776600000e+02  7.8683064330e+02 ] stress_93 gradient
 [  5.9529290000e-01  2.3007377102e-03  7.8703346782e+02  1.7485337600e+02 
   -1.4652590000e+01 -1.3425900000e+02  7.9403981606e+02 ] stress_94 gradient
 [  5.9529066667e-01  2.0110166536e-03  7.8703339338e+02  1.7485589051e+02 
   -1.4652795000e+01 -1.3426000000e+02  7.9403933364e+02 ] stress_95 gradient
 [  5.9498413333e-01  1.4888313201e-03  7.8702297174e+02  1.7516363322e+02 
   -1.4678580000e+01 -1.3434300000e+02  7.9396962387e+02 ] stress_96 gradient
 [  5.8861873333e-01  7.5617836737e-04  7.8674620292e+02  1.8062505227e+02 
   -1.5138330000e+01 -1.3634300000e+02  7.9227295063e+02 ] stress_97 gradient
 [  5.3590513333e-01 -5.9992245886e-05  7.8378668216e+02  2.1685102593e+02 
   -1.8199275000e+01 -1.5585200000e+02  7.7572688908e+02 ] stress_98 gradient
 [  3.1507692333e-01 -5.5777376660e-04  7.6647975733e+02  3.2271229396e+02 
   -2.7175184500e+01 -2.5278350000e+02  6.9350924965e+02 ] stress_99 gradient
 [ -1.3092226333e-01 -3.8428267078e-04  7.0742412372e+02  4.2132948792e+02 
   -3.5569902500e+01 -4.8713300000e+02  4.9471467352e+02 ] stress_100 gradient
 [ -5.4466233333e-01 -2.2360495466e-05  5.8544318466e+02  3.7394974806e+02 
   -3.1579755000e+01 -7.5140000000e+02  2.7051505699e+02 ] stress_101 gradient
 [ -7.5465376667e-01  5.0076138135e-05  4.0930364852e+02  2.5176930001e+02 
   -2.1243205000e+01 -9.1871500000e+02  1.2855519887e+02 ] stress_102 gradient
 [ -8.3274393333e-01 -1.0327209706e-04  1.9760467808e+02  1.5213003290e+02 
   -1.2821570000e+01 -9.9923600000e+02  6.0233708799e+01 ] stress_103 gradient
 [ -8.5843836667e-01 -3.5245272083e-04 -3.7498751517e+01  9.0329781043e+01 
   -7.6047650000e+00 -1.0355060000e+03  2.9457566355e+01 ] stress_104 gradient
 [ -8.6625126667e-01 -6.3941106728e-04 -2.8929250252e+02  5.4665142924e+01 
   -4.5976750000e+00 -1.0522130000e+03  1.5281878389e+01 ] stress_105 gradient
 [ -8.6823083333e-01 -9.4377257005e-04 -5.5352923797e+02  3.4147272013e+01 
   -2.8694550000e+00 -1.0603060000e+03  8.4145006187e+00 ] stress_106 gradient
 [ -8.6838413333e-01 -1.2577903567e-03 -8.2686569764e+02  2.2091497849e+01 
   -1.8549100000e+00 -1.0644510000e+03  4.8975338776e+00 ] stress_107 gradient
 [ -8.6803340000e-01 -1.5773913301e-03 -1.1062781189e+03  1.4798947579e+01 
   -1.2416950000e+00 -1.0666900000e+03  2.9981233912e+00 ] stress_108 gradient
 [ -8.6760513333e-01 -1.8994486064e-03 -1.3888558881e+03  1.0249974286e+01 
   -8.5945500001e-01 -1.0679590000e+03  1.9212400186e+00 ] stress_109 gradient
 [ -8.6722470000e-01 -2.2210267641e-03 -1.6717464553e+03  7.3261598312e+00 
   -6.1392999999e-01 -1.0687120000e+03  1.2832387812e+00 ] stress_110 gradient
 [ -8.6691766667e-01 -2.5391806277e-03 -1.9521259297e+03  5.3934238462e+00 
   -4.5172500000e-01 -1.0691740000e+03  8.9042781156e-01 ] stress_111 gradient
 [ -8.6667873333e-01 -2.8509181022e-03 -2.2271873187e+03  4.0824854249e+00 
   -3.4176000003e-01 -1.0694690000e+03  6.3981031398e-01 ] stress_112 gradient
 [ -8.6649533333e-01 -3.1532972915e-03 -2.4942158610e+03  3.1721609606e+00 
   -2.6543500002e-01 -1.0696640000e+03  4.7482247133e-01 ] stress_113 gradient
 [ -8.6635493333e-01 -3.4434292734e-03 -2.7505789030e+03  2.5266152623e+00 
   -2.1133500002e-01 -1.0697960000e+03  3.6314210281e-01 ] stress_114 gradient
 [ -8.6624726667e-01 -3.7185038296e-03 -2.9937373625e+03  2.0603653934e+00 
   -1.7227500001e-01 -1.0698870000e+03  2.8583420288e-01 ] stress_115 gradient
 [ -8.6616446667e-01 -3.9758511642e-03 -3.2212925514e+03  1.7183094729e+00 
   -1.4362999997e-01 -1.0699510000e+03  2.3107946445e-01 ] stress_116 gradient
 [ -8.6610053333e-01 -4.2129366070e-03 -3.4309762756e+03  1.4642716931e+00 
   -1.2236499998e-01 -1.0699970000e+03  1.9176218633e-01 ] stress_117 gradient
 [ -8.6605116667e-01 -4.4274716894e-03 -3.6207455970e+03  1.2739244442e+00 
   -1.0642999996e-01 -1.0700320000e+03  1.6293755487e-01 ] stress_118 gradient
 [ -8.6601310000e-01 -4.6173581443e-03 -3.7887311722e+03  1.1308044226e+00 
   -9.4450000006e-02 -1.0700570000e+03  1.4183165493e-01 ] stress_119 gradient
 [ -8.6598400000e-01 -4.7806936235e-03 -3.9332404534e+03  1.0235808187e+00 
   -8.5485000000e-02 -1.0700740000e+03  1.2639419599e-01 ] stress_120 gradient
 [ -8.6596216667e-01 -4.9159156520e-03 -4.0528840879e+03  9.4433758788e-01 
   -7.8854999970e-02 -1.0700880000e+03  1.1505731125e-01 ] stress_121 gradient
 [ -8.6594636667e-01 -5.0216799564e-03 -4.1464679798e+03  8.8769388904e-01 
   -7.4115000018e-02 -1.0700970000e+03  1.0709737198e-01 ] stress_122 gradient
 [ -8.6593576667e-01 -5.0969336192e-03 -4.2130570107e+03  8.4996591567e-01 
   -7.0960000016e-02 -1.0701040000e+03  1.0167014009e-01 ] stress_123 gradient
 [ -8.6592980000e-01 -5.1409651099e-03 -4.2520196296e+03  8.2883576721e-01 
   -6.9189999977e-02 -1.0701070000e+03  9.8775616972e-02 ] stress_124 gradient
 [ -8.6592816667e-01 -5.1527946651e-03 -4.2624874166e+03  8.2327901421e-01 
   -6.8730000010e-02 -1.0701080000e+03  9.8051986877e-02 ] stress_125 gradient
 [ -8.6545380000e-01 -4.6602540615e-03 -4.2624676899e+03 -8.9435785372e-02 
   -2.2580000007e-02 -1.0700080000e+03  2.4579329329e-01 ] stress_126 gradient
 [ -8.3129970000e-01 -3.5216324841e-03 -4.2603570113e+03 -5.3707022105e+01 
    2.7157700000e+00 -1.0605830000e+03  1.4202944730e+01 ] stress_127 gradient
 [ -5.5575603333e-01 -2.5763343526e-03 -4.2341768243e+03 -3.7690580617e+02 
    1.9331580000e+01 -9.6334200000e+02  1.5820597467e+02 ] stress_128 gradient
 [  2.5092333333e-02 -2.5843144780e-03 -4.1329712193e+03 -7.8733453089e+02 
    4.0508705000e+01 -7.0451100000e+02  5.4155534940e+02 ] stress_129 gradient
 [  4.9513503333e-01 -2.8065140292e-03 -3.9516143153e+03 -8.5719060531e+02 
    4.4092805000e+01 -4.4212900001e+02  9.3021931062e+02 ] stress_130 gradient
 [  7.2657253333e-01 -2.8018223158e-03 -3.7460113309e+03 -7.4308644772e+02 
    3.8179390000e+01 -2.8287100000e+02  1.1661496352e+03 ] stress_131 gradient
 [  8.2393836333e-01 -2.6899116374e-03 -3.5718114097e+03 -6.3142019911e+02 
    3.2409296000e+01 -2.0300690000e+02  1.2844694610e+03 ] stress_132 gradient
 [  8.6109556667e-01 -2.5967651048e-03 -3.4652734862e+03 -5.6890709138e+02 
    2.9183599000e+01 -1.6851600000e+02  1.3355689580e+03 ] stress_133 gradient
 [  8.6300611667e-01 -2.5906072195e-03 -3.4586992961e+03 -5.6524384693e+02 
    2.8994667500e+01 -1.6665210000e+02  1.3383303938e+03 ] stress_134 gradient
 [  8.6293810000e-01 -4.5810448531e-03 -3.4587006509e+03 -5.6521201926e+02 
    2.8990500000e+01 -1.6669000000e+02  1.3382947911e+03 ] stress_135 gradient
 [  8.6289030000e-01 -4.6962098217e-03 -3.4587016187e+03 -5.6518997850e+02 
    2.8987670000e+01 -1.6671700000e+02  1.3382692228e+03 ] stress_136 gradient
 [  8.7806483333e-01 -3.8260960666e-03 -3.4569415535e+03 -5.8783691366e+02 
    3.0442460000e+01 -1.6347500000e+02  1.3430706344e+03 ] stress_137 gradient
 [  8.7806486667e-01 -3.9999870390e-03 -3.4569414791e+03 -5.8783690331e+02 
    3.0442455000e+01 -1.6347500000e+02  1.3430706344e+03 ] stress_138 gradient
 [  8.7806406667e-01 -4.8358449886e-03 -3.4569414791e+03 -5.8783652045e+02 
    3.0442405000e+01 -1.6347500000e+02  1.3430702726e+03 ] stress_139 gradient
 [  8.7174310000e-01 -6.4133146022e-03 -3.4570848510e+03 -5.8510868243e+02 
    3.0142355000e+01 -1.6751000000e+02  1.3392631299e+03 ] stress_140 gradient
 [  5.6282533333e-02 -6.1863569942e-03 -3.4931294868e+03 -2.8510349591e+02 
    7.8597050000e+00 -7.8491200001e+02  7.5632586244e+02 ] stress_141 gradient
 [ -8.2395403333e-01 -4.6234946131e-03 -3.7175635452e+03 -8.2001843147e+00 
   -1.2365050000e+00 -1.5392940000e+03  4.3433652799e+01 ] stress_142 gradient
 [ -8.6292180000e-01 -4.8230858692e-03 -3.9653923855e+03 -3.9311182307e-02 
   -2.5181000001e-01 -1.5811690000e+03  3.8473042428e+00 ] stress_143 gradient
 [ -8.6521556667e-01 -5.0321424511e-03 -4.1543038576e+03  1.0427448909e-01 
   -7.8884999994e-02 -1.5843420000e+03  8.4869843130e-01 ] stress_144 gradient
 [ -8.6548283333e-01 -5.1430984407e-03 -4.2529353190e+03  8.0629832147e-02 
   -4.5005000004e-02 -1.5847960000e+03  4.1958531192e-01 ] stress_145 gradient
 [ -8.6548123333e-01 -5.0449457153e-03 -4.2529352446e+03  7.7277154366e-02 
   -4.4839999987e-02 -1.5847950000e+03  4.2006773290e-01 ] stress_146 gradient
 [ -8.5381070000e-01 -3.9235338978e-03 -4.2522997482e+03 -1.9597954063e+01 
    9.5899500002e-01 -1.5804130000e+03  4.8000849177e+00 ] stress_147 gradient
 [ -6.3490800000e-01 -2.6647134108e-03 -4.2334654734e+03 -2.9492026077e+02 
    1.5121090000e+01 -1.4715110000e+03  1.1367324715e+02 ] stress_148 gradient
 [ -5.1598300000e-02 -2.5387560805e-03 -4.1418243974e+03 -7.4990214165e+02 
    3.8633125000e+01 -1.0994590000e+03  4.8567235074e+02 ] stress_149 gradient
 [  4.0535606667e-01 -2.7614044796e-03 -3.9913187313e+03 -8.6616287822e+02 
    4.4633365000e+01 -7.3621800001e+02  8.4891154056e+02 ] stress_150 gradient
 [  5.9545983333e-01 -2.8169030332e-03 -3.8727131659e+03 -8.2410346245e+02 
    4.2442960000e+01 -5.5793200000e+02  1.0272120215e+03 ] stress_151 gradient
 [  6.1867783333e-01 -2.8180260779e-03 -3.8532876122e+03 -8.1341511519e+02 
    4.1888070000e+01 -5.3448900000e+02  1.0506569387e+03 ] stress_152 gradient
 [  6.1867786667e-01 -3.8621320442e-03 -3.8532876122e+03 -8.1341510484e+02 
    4.1888065000e+01 -5.3448899999e+02  1.0506569387e+03 ] stress_153 gradient
 [  6.1801443333e-01 -5.8093220734e-03 -3.8533013092e+03 -8.1304672419e+02 
    4.1853040000e+01 -5.3486900000e+02  1.0502771531e+03 ] stress_154 gradient
 [  1.2998160000e-01 -6.6967860110e-03 -3.8718595597e+03 -5.4390099169e+02 
    2.3892280000e+01 -8.5755599999e+02  7.2780817201e+02 ] stress_155 gradient
 [ -8.1124260000e-01 -5.0120314925e-03 -4.0377928174e+03 -2.9817474859e+01 
    4.5019999959e-02 -1.5382410000e+03  4.7025032917e+01 ] stress_156 gradient
 [ -8.5554880000e-01 -5.0442245148e-03 -4.1479794145e+03 -5.5887069818e+00 
   -1.8713500003e-01 -1.5753650000e+03  9.8792501500e+00 ] stress_157 gradient
 [ -8.5474526667e-01 -4.4552747809e-03 -4.1479448742e+03 -7.0725359623e+00 
   -1.1035000000e-01 -1.5751070000e+03  1.0137224561e+01 ] stress_158 gradient
 [ -7.1761423333e-01 -2.7553315793e-03 -4.1376133128e+03 -1.9077149711e+02 
    9.5211200000e+00 -1.5112380000e+03  7.3987519955e+01 ] stress_159 gradient
 [ -4.3691593333e-01 -2.3709775285e-03 -4.1063871195e+03 -4.7089395890e+02 
    2.4296995000e+01 -1.3521360000e+03  2.3305244450e+02 ] stress_160 gradient
 [ -4.3691593333e-01 -3.1739415198e-03 -4.1063871195e+03 -4.7089395890e+02 
    2.4296995000e+01 -1.3521360000e+03  2.3305244450e+02 ] stress_161 gradient
 [ -4.4705653333e-01 -5.2572271407e-03 -4.1068782018e+03 -4.6053745431e+02 
    2.3595330000e+01 -1.3569470000e+03  2.2824343480e+02 ] stress_162 gradient
 [ -8.5953823333e-01 -5.1251848019e-03 -4.2277393810e+03 -7.7315751540e+00 
    2.0301000001e-01 -1.5810840000e+03  4.1558122124e+00 ] stress_163 gradient
 [ -8.6339463333e-01 -5.1548598026e-03 -4.2601562459e+03 -2.9865322953e+00 
    5.9184999998e-02 -1.5836060000e+03  1.6334761338e+00 ] stress_164 gradient
 [ -8.6337460000e-01 -4.9539627843e-03 -4.2601555760e+03 -3.0280785960e+00 
    6.1270000003e-02 -1.5836000000e+03  1.6390239709e+00 ] stress_165 gradient
 [ -8.6247470000e-01 -4.5598624782e-03 -4.2601160482e+03 -4.7190803011e+00 
    1.4696500000e-01 -1.5833100000e+03  1.9296823795e+00 ] stress_166 gradient
 [ -8.5364753333e-01 -3.9961705706e-03 -4.2596344198e+03 -1.9608539833e+01 
    9.0590499997e-01 -1.5799940000e+03  5.2441530750e+00 ] stress_167 gradient
 [ -8.1136466667e-01 -3.3451820361e-03 -4.2567793387e+03 -8.2228438638e+01 
    4.1123600000e+00 -1.5616600000e+03  2.3572396915e+01 ] stress_168 gradient
 [ -6.8488946667e-01 -2.7817603790e-03 -4.2459039170e+03 -2.4063101097e+02 
    1.2255045000e+01 -1.4985130000e+03  8.6701111704e+01 ] stress_169 gradient
 [ -4.2976016667e-01 -2.5032199065e-03 -4.2161243954e+03 -4.9400684384e+02 
    2.5321565000e+01 -1.3518220000e+03  2.3336022884e+02 ] stress_170 gradient
 [ -7.4029100000e-02 -2.5416518137e-03 -4.1542400623e+03 -7.4090594470e+02 
    3.8080000000e+01 -1.1158130000e+03  4.6933710698e+02 ] stress_171 gradient
 [  2.8205400000e-01 -2.7134885796e-03 -4.0518969358e+03 -8.6300019582e+02 
    4.4389695000e+01 -8.4221700000e+02  7.4292265045e+02 ] stress_172 gradient
 [  5.5699920000e-01 -2.8215172198e-03 -3.9093698494e+03 -8.4160886955e+02 
    4.3274695000e+01 -5.9626699999e+02  9.8888261978e+02 ] stress_173 gradient
 [  7.3547053333e-01 -2.7955316344e-03 -3.7325974223e+03 -7.3594807923e+02 
    3.7808035000e+01 -4.0909400000e+02  1.1760750771e+03 ] stress_174 gradient
 [  8.4025843000e-01 -2.6539881829e-03 -3.5285648739e+03 -6.0654762189e+02 
    3.1126265500e+01 -2.7903850000e+02  1.3061490325e+03 ] stress_175 gradient
 [  8.9862536333e-01 -2.4354205326e-03 -3.3031578741e+03 -4.8621861050e+02 
    2.4923409500e+01 -1.9219280000e+02  1.3930094998e+03 ] stress_176 gradient
 [  9.3024425000e-01 -2.1700771299e-03 -3.0608871294e+03 -3.8614146710e+02 
    1.9772308500e+01 -1.3475060000e+02  1.4504623674e+03 ] stress_177 gradient
 [  9.4703940000e-01 -1.8767973268e-03 -2.8052169027e+03 -3.0696700546e+02 
    1.5702554500e+01 -9.6498700003e+01  1.4887216010e+03 ] stress_178 gradient
 [  9.5573823333e-01 -1.5666003137e-03 -2.5389985159e+03 -2.4565133559e+02 
    1.2554520000e+01 -7.0650999999e+01  1.5145745328e+03 ] stress_179 gradient
 [  9.6003823333e-01 -1.2460421120e-03 -2.2647060202e+03 -1.9848026577e+02 
    1.0135235000e+01 -5.2864999998e+01  1.5323633098e+03 ] stress_180 gradient
 [  9.6195823333e-01 -9.1933760355e-04 -1.9845910319e+03 -1.6214961406e+02 
    8.2736800000e+00 -4.0392000000e+01  1.5448399124e+03 ] stress_181 gradient
 [  9.6260293333e-01 -5.8956935926e-04 -1.7008103828e+03 -1.3402431021e+02 
    6.8337700000e+00 -3.1475999998e+01  1.5537573365e+03 ] stress_182 gradient
 [  9.6257963333e-01 -2.5923774275e-04 -1.4154320972e+03 -1.1209263368e+02 
    5.7118000000e+00 -2.4987999996e+01  1.5602469789e+03 ] stress_183 gradient
 [  9.6222336667e-01  6.9404513889e-05 -1.1304914457e+03 -9.4851456916e+01 
    4.8303900000e+00 -2.0186000000e+01  1.5650500790e+03 ] stress_184 gradient
 [  9.6171850000e-01  3.9424711923e-04 -8.4796995328e+02 -8.1183613845e+01 
    4.1320900000e+00 -1.6575000001e+01  1.5686611177e+03 ] stress_185 gradient
 [  9.6116560000e-01  7.1323494190e-04 -5.6981810314e+02 -7.0259968619e+01 
    3.5743100000e+00 -1.3822000000e+01  1.5714147745e+03 ] stress_186 gradient
 [  9.6061820000e-01  1.0243589293e-03 -2.9794044891e+02 -6.1462397133e+01 
    3.1253200000e+00 -1.1694999995e+01  1.5735418875e+03 ] stress_187 gradient
 [  9.6010346667e-01  1.3256632549e-03 -3.4180205467e+01 -5.4327257155e+01 
    2.7613500000e+00 -1.0033000001e+01  1.5752040677e+03 ] stress_188 gradient
 [  9.5963380000e-01  1.6152251378e-03  2.1966541641e+02 -4.8505052719e+01 
    2.4644750000e+00 -8.7220000012e+00  1.5765163723e+03 ] stress_189 gradient
 [  9.5921346667e-01  1.8912000804e-03  4.6188443999e+02 -4.3729804717e+01 
    2.2210800000e+00 -7.6769999964e+00  1.5775614159e+03 ] stress_190 gradient
 [  9.5884240000e-01  2.1518215326e-03  6.9084759167e+02 -3.9797951796e+01 
    2.0207400000e+00 -6.8380000016e+00  1.5783997423e+03 ] stress_191 gradient
 [  9.5851836667e-01  2.3953774313e-03  9.0498648997e+02 -3.6553170178e+01 
    1.8554650000e+00 -6.1630000005e+00  1.5790756135e+03 ] stress_192 gradient
 [  9.5823806667e-01  2.6203223710e-03  1.1028894501e+03 -3.3873563120e+01 
    1.7190100000e+00 -5.6159999986e+00  1.5796224373e+03 ] stress_193 gradient
 [  9.5799803333e-01  2.8251832594e-03  1.2832175154e+03 -3.1664821037e+01 
    1.6065650000e+00 -5.1740000004e+00  1.5800650582e+03 ] stress_194 gradient
 [  9.5779493333e-01  3.0085937087e-03  1.4447330424e+03 -2.9853567885e+01 
    1.5143700000e+00 -4.8160000006e+00  1.5804225318e+03 ] stress_195 gradient
 [  9.5762560000e-01  3.1693871179e-03  1.5863806174e+03 -2.8382021709e+01 
    1.4394900000e+00 -4.5300000011e+00  1.5807090897e+03 ] stress_196 gradient
 [  9.5748740000e-01  3.3064738243e-03  1.7071777035e+03 -2.7205914744e+01 
    1.3796450000e+00 -4.3030000029e+00  1.5809355861e+03 ] stress_197 gradient
 [  9.5737810000e-01  3.4189788352e-03  1.8063356808e+03 -2.6290757871e+01 
    1.3330850000e+00 -4.1280000005e+00  1.5811101018e+03 ] stress_198 gradient
 [  9.5729580000e-01  3.5061632081e-03  1.8831895746e+03 -2.5610764443e+01 
    1.2985000000e+00 -4.0000000013e+00  1.5812389081e+03 ] stress_199 gradient
 [  9.5723926667e-01  3.5674251436e-03  1.9371988743e+03 -2.5147505080e+01 
    1.2749350000e+00 -3.9119999997e+00  1.5813262262e+03 ] stress_200 gradient
 [  9.5720743333e-01  3.6023825577e-03  1.9680201871e+03 -2.4888376196e+01 
    1.2617500000e+00 -3.8640000071e+00  1.5813749507e+03 ] stress_201 gradient
 [  9.5720586667e-01  3.6040948729e-03  1.9695299097e+03 -2.4875782959e+01 
    1.2611150000e+00 -3.8620000055e+00  1.5813772422e+03 ] stress_202 gradient
 [  8.9918120000e-01  2.0057898208e-03  1.9652676847e+03  8.7824130365e+01 
   -3.4590950000e+00 -3.1058999997e+01  1.5580881468e+03 ] stress_203 gradient
 [  5.2114126667e-01  1.1956744498e-03  1.9192770135e+03  6.1967587734e+02 
   -2.5917305000e+01 -2.6387300000e+02  1.3587142076e+03 ] stress_204 gradient
 [  5.2114126667e-01  1.7197654109e-03  1.9192770135e+03  6.1967587734e+02 
   -2.5917300000e+01 -2.6387300000e+02  1.3587140870e+03 ] stress_205 gradient
 [  5.2233446667e-01  3.9011826517e-03  1.9193247297e+03  6.1802034779e+02 
   -2.5844380000e+01 -2.6318600001e+02  1.3599918986e+03 ] stress_206 gradient
 [  5.2386020000e-01  4.0134163190e-03  1.9193887483e+03  6.1589755430e+02 
   -2.5751870000e+01 -2.6230400000e+02  1.3616336965e+03 ] stress_207 gradient
 [  5.2353710000e-01  3.7023495938e-03  1.9193732648e+03  6.1668815505e+02 
   -2.5784835000e+01 -2.6240999999e+02  1.3615421572e+03 ] stress_208 gradient
 [  5.1579416667e-01  3.1583016344e-03  1.9188788327e+03  6.3323044336e+02 
   -2.6480870000e+01 -2.6559500000e+02  1.3588117772e+03 ] stress_209 gradient
 [  4.6760403333e-01  2.4934736513e-03  1.9148302512e+03  7.2034912478e+02 
   -3.0170495000e+01 -2.8971300000e+02  1.3381346275e+03 ] stress_210 gradient
 [  3.1891850000e-01  1.9378809340e-03  1.8977071342e+03  9.3387126240e+02 
   -3.9262525000e+01 -3.7951500000e+02  1.2611410242e+03 ] stress_211 gradient
 [  4.8599633333e-02  1.6759389205e-03  1.8510831254e+03  1.2043611186e+03 
   -5.0832340000e+01 -5.7617800001e+02  1.0925164531e+03 ] stress_212 gradient
 [ -2.6600483333e-01  1.6350711433e-03  1.7600149416e+03  1.3537999136e+03 
   -5.7257970000e+01 -8.5259300000e+02  8.5549163686e+02 ] stress_213 gradient
 [ -5.2439776667e-01  1.6085265749e-03  1.6205048959e+03  1.3074396289e+03 
   -5.5314542500e+01 -1.1284812000e+03  6.1890016694e+02 ] stress_214 gradient
 [ -6.9247560333e-01  1.4872242041e-03  1.4384480080e+03  1.1361356511e+03 
   -4.8034103500e+01 -1.3486937000e+03  4.3004255052e+02 ] stress_215 gradient
 [ -7.8797488333e-01  1.2710636331e-03  1.2229371314e+03  9.3239844759e+02 
   -3.9377238500e+01 -1.5044441000e+03  2.9646318237e+02 ] stress_216 gradient
 [ -8.3838550000e-01  9.9228766264e-04  9.8224384991e+02  7.4698575690e+02 
   -3.1509245000e+01 -1.6090060000e+03  2.0678283404e+02 ] stress_217 gradient
 [ -8.6379913333e-01  6.7803183024e-04  7.2295471080e+02  5.9557251410e+02 
   -2.5093325000e+01 -1.6783130000e+03  1.4734005380e+02 ] stress_218 gradient
 [ -8.7602376667e-01  3.4515293046e-04  4.5037128863e+02  4.7751832255e+02 
   -2.0097795000e+01 -1.7245820000e+03  1.0765480903e+02 ] stress_219 gradient
 [ -8.8144413333e-01  3.6046572359e-06  1.6901329721e+02  3.8708010721e+02 
   -1.6275575000e+01 -1.7559820000e+03  8.0722835088e+01 ] stress_220 gradient
 [ -8.8340950000e-01 -3.4032163533e-04 -1.1707648829e+02  3.1803625004e+02 
   -1.3360735000e+01 -1.7777210000e+03  6.2077279103e+01 ] stress_221 gradient
 [ -8.8366143333e-01 -6.8204615157e-04 -4.0412208650e+02  2.6514313187e+02 
   -1.1129890000e+01 -1.7930840000e+03  4.8900684188e+01 ] stress_222 gradient
 [ -8.8310453333e-01 -1.0177646155e-03 -6.8853666875e+02  2.2435171126e+02 
   -9.4109200000e+00 -1.8041560000e+03  3.9403631756e+01 ] stress_223 gradient
 [ -8.8220776667e-01 -1.3440001796e-03 -9.6686911092e+02  1.9264878973e+02 
   -8.0759450000e+00 -1.8122830000e+03  3.2433739609e+01 ] stress_224 gradient
 [ -8.8121186667e-01 -1.6574646843e-03 -1.2358234224e+03  1.6782013052e+02 
   -7.0311350000e+00 -1.8183430000e+03  2.7235778305e+01 ] stress_225 gradient
 [ -8.8023753333e-01 -1.9549825600e-03 -1.4922462399e+03  1.4824565555e+02 
   -6.2079050000e+00 -1.8229240000e+03  2.3306100746e+01 ] stress_226 gradient
 [ -8.7934220000e-01 -2.2335019270e-03 -1.7331496811e+03  1.3273705784e+02 
   -5.5560100000e+00 -1.8264260000e+03  2.0302550123e+01 ] stress_227 gradient
 [ -8.7855000000e-01 -2.4901699357e-03 -1.9557761070e+03  1.2041667047e+02 
   -5.0383550000e+00 -1.8291240000e+03  1.7988499135e+01 ] stress_228 gradient
 [ -8.7786823333e-01 -2.7222513719e-03 -2.1575213003e+03  1.1063816133e+02 
   -4.6276600000e+00 -1.8312110000e+03  1.6199201150e+01 ] stress_229 gradient
 [ -8.7729566667e-01 -2.9273243237e-03 -2.3360965957e+03  1.0291825846e+02 
   -4.3035350000e+00 -1.8328220000e+03  1.4817186751e+01 ] stress_230 gradient
 [ -8.7682756667e-01 -3.1032071111e-03 -2.4894589061e+03  9.6899032464e+01 
   -4.0508850000e+00 -1.8340550000e+03  1.3759117781e+01 ] stress_231 gradient
 [ -8.7645823333e-01 -3.2479636678e-03 -2.6158098299e+03  9.2317794822e+01 
   -3.8586350000e+00 -1.8349810000e+03  1.2965535904e+01 ] stress_232 gradient
 [ -8.7618193333e-01 -3.3600865946e-03 -2.7137506348e+03  8.8980690390e+01 
   -3.7186200000e+00 -1.8356470000e+03  1.2393867498e+01 ] stress_233 gradient
 [ -8.7599403333e-01 -3.4383512717e-03 -2.7821520623e+03  8.6753384406e+01 
   -3.6251800000e+00 -1.8360880000e+03  1.2015529147e+01 ] stress_234 gradient
 [ -8.7589130000e-01 -3.4818748865e-03 -2.8202029371e+03  8.5549400546e+01 
   -3.5746800000e+00 -1.8363250000e+03  1.1811947657e+01 ] stress_235 gradient
 [ -8.7589126667e-01 -3.4506358972e-03 -2.8202029371e+03  8.5549369503e+01 
   -3.5746750000e+00 -1.8363260000e+03  1.1811947657e+01 ] stress_236 gradient
 [ -8.4217940000e-01 -1.7603314056e-03 -2.8181781625e+03  3.4164470008e+01 
   -8.4131000000e-01 -1.8205720000e+03  2.7576005430e+01 ] stress_237 gradient
 [ -5.9772803333e-01 -7.9999342214e-04 -2.7961506989e+03 -2.5150965374e+02 
    1.4419830000e+01 -1.6761010000e+03  1.7215637222e+02 ] stress_238 gradient
 [ -5.9803866667e-01 -1.8759804539e-03 -2.7961661825e+03 -2.5118304704e+02 
    1.4380610000e+01 -1.6761520000e+03  1.7210523564e+02 ] stress_239 gradient
 [ -6.8223803333e-01 -3.1849054158e-03 -2.8065171728e+03 -1.6612169912e+02 
    5.6946250000e+00 -1.7029500000e+03  1.4559381186e+02 ] stress_240 gradient
 [ -6.5110386667e-01 -1.6451975486e-03 -2.8046359934e+03 -2.1112325525e+02 
    8.1330600000e+00 -1.6878280000e+03  1.6072336594e+02 ] stress_241 gradient
 [ -5.3260683333e-01 -9.9441258491e-04 -2.7949978429e+03 -3.4831788452e+02 
    1.5648685000e+01 -1.6185640000e+03  2.3002646132e+02 ] stress_242 gradient
 [ -5.3904536667e-01 -2.6516895065e-03 -2.7954094230e+03 -3.4141008507e+02 
    1.4932405000e+01 -1.6202760000e+03  2.2832592872e+02 ] stress_243 gradient
 [ -6.0103883333e-01 -3.2596496892e-03 -2.8017402679e+03 -2.7547661266e+02 
    8.9907850000e+00 -1.6430700000e+03  2.0568375932e+02 ] stress_244 gradient
 [ -7.9272710000e-01 -3.4798494373e-03 -2.8517577096e+03 -7.4091313640e+01 
   -4.0017350000e+00 -1.7494420000e+03  1.0000880441e+02 ] stress_245 gradient
 [ -7.8951196667e-01 -2.5949860931e-03 -2.8516034694e+03 -7.9599163139e+01 
   -3.7051750000e+00 -1.7481770000e+03  1.0127407303e+02 ] stress_246 gradient
 [ -6.6085196667e-01 -1.1911102940e-03 -2.8418881244e+03 -2.4677508283e+02 
    5.5106950000e+00 -1.6800130000e+03  1.6943986185e+02 ] stress_247 gradient
 [ -1.2480980000e-01 -7.8608376216e-04 -2.7699871866e+03 -6.9297356868e+02 
    3.1083795000e+01 -1.3107060000e+03  5.3880362233e+02 ] stress_248 gradient
 [  4.0807395807e-01 -1.0241561742e-03 -2.6161758943e+03 -8.4969275923e+02 
    4.1593133195e+01 -8.4387893500e+02  1.0057815336e+03 ] stress_249 gradient
 [  6.5171073333e-01 -1.0930855635e-03 -2.4654118714e+03 -7.8594661127e+02 
    3.9336099000e+01 -5.8306100000e+02  1.2667146102e+03 ] stress_250 gradient
 [  7.1943394667e-01 -1.0823048139e-03 -2.3981284619e+03 -7.4178627719e+02 
    3.7332005500e+01 -5.0131230000e+02  1.3485034863e+03 ] stress_251 gradient
 [  7.1943302000e-01 -1.5898553097e-03 -2.3981284916e+03 -7.4178538728e+02 
    3.7331915500e+01 -5.0131270000e+02  1.3485031365e+03 ] stress_252 gradient
 [  7.1444036667e-01 -3.1856377997e-03 -2.3983063070e+03 -7.3758730069e+02 
    3.6930985000e+01 -5.0368500000e+02  1.3461323167e+03 ] stress_253 gradient
 [  4.4388756667e-01 -4.6280823128e-03 -2.4143063441e+03 -5.4891728067e+02 
    2.1008095000e+01 -6.7041700000e+02  1.1795067760e+03 ] stress_254 gradient
 [ -3.9507190000e-01 -3.8919467949e-03 -2.5307605119e+03 -9.6125546924e+01 
   -8.2125950000e+00 -1.3206900000e+03  5.2943368773e+02 ] stress_255 gradient
 [ -7.1242970000e-01 -3.5663126936e-03 -2.6808668062e+03  1.4345363381e+01 
   -9.8173600000e+00 -1.6297300000e+03  2.2039529596e+02 ] stress_256 gradient
 [ -7.5556796667e-01 -3.5531529073e-03 -2.7278727678e+03  2.2908495766e+01 
   -9.0244350000e+00 -1.6785250000e+03  1.7159519646e+02 ] stress_257 gradient
 [ -7.4385733333e-01 -2.2383197685e-03 -2.7272363782e+03  4.0675639390e+00 
   -7.9808800000e+00 -1.6736760000e+03  1.7644111134e+02 ] stress_258 gradient
 [ -4.7455520000e-01 -8.5952412324e-04 -2.7027409228e+03 -3.1028108196e+02 
    9.8986800000e+00 -1.5216570000e+03  3.2841469435e+02 ] stress_259 gradient
 [ -2.1142160000e-01 -7.2749549028e-04 -2.6667460875e+03 -5.3211956798e+02 
    2.2888740000e+01 -1.3432990000e+03  5.0673362785e+02 ] stress_260 gradient
 [ -2.1154866667e-01 -1.7681130894e-03 -2.6667507773e+03 -5.3198762355e+02 
    2.2874925000e+01 -1.3433360000e+03  5.0669732570e+02 ] stress_261 gradient
 [ -3.4650070000e-01 -3.5401621326e-03 -2.6778269644e+03 -4.0484449833e+02 
    1.2244235000e+01 -1.4084010000e+03  4.4165581325e+02 ] stress_262 gradient
 [ -7.7703663333e-01 -3.5189104714e-03 -2.7945802331e+03 -4.4221779145e+01 
   -6.6791200000e+00 -1.7157980000e+03  1.3430541115e+02 ] stress_263 gradient
 [ -8.1978240000e-01 -3.5348765241e-03 -2.8405293666e+03 -1.4674101721e+01 
   -6.3724150000e+00 -1.7609810000e+03  8.9121777642e+01 ] stress_264 gradient
 [ -8.1976763333e-01 -3.3326047935e-03 -2.8405289200e+03 -1.4703685998e+01 
   -6.3708450000e+00 -1.7609770000e+03  8.9126240032e+01 ] stress_265 gradient
 [ -8.1876876667e-01 -2.8809925927e-03 -2.8404852236e+03 -1.6500390185e+01 
   -6.2745400000e+00 -1.7606120000e+03  8.9491794239e+01 ] stress_266 gradient
 [ -8.0682153333e-01 -2.2144976164e-03 -2.8398217377e+03 -3.5562971268e+01 
   -5.2415450000e+00 -1.7554550000e+03  9.4645493452e+01 ] stress_267 gradient
 [ -7.4395483333e-01 -1.4650996439e-03 -2.8353743053e+03 -1.2180691421e+02 
   -5.1217500001e-01 -1.7236520000e+03  1.2643809609e+02 ] stress_268 gradient
 [ -5.5422410000e-01 -9.0521058280e-04 -2.8174341322e+03 -3.3356193193e+02 
    1.1282900000e+01 -1.6112110000e+03  2.3884547160e+02 ] stress_269 gradient
 [ -2.0267110000e-01 -7.6246888062e-04 -2.7684808883e+03 -6.2086380146e+02 
    2.7701095000e+01 -1.3666570000e+03  4.8334913376e+02 ] stress_270 gradient
 [  2.1072921333e-01 -9.1903006118e-04 -2.6720121169e+03 -8.1122349246e+02 
    3.9301857000e+01 -1.0275807000e+03  8.2239547348e+02 ] stress_271 gradient
 [  5.4484581333e-01 -1.0647391794e-03 -2.5241235613e+03 -8.1896464447e+02 
    4.1015496500e+01 -7.0216250000e+02  1.1478212828e+03 ] stress_272 gradient
 [  7.5426970000e-01 -1.0491732051e-03 -2.3325728179e+03 -7.0852040141e+02 
    3.6049930000e+01 -4.5762000000e+02  1.3923899391e+03 ] stress_273 gradient
 [  8.6821630000e-01 -8.8863398601e-04 -2.1081705455e+03 -5.6720142998e+02 
    2.9105265000e+01 -2.9604599999e+02  1.5539905869e+03 ] stress_274 gradient
 [  9.2611000000e-01 -6.3883819342e-04 -1.8600073196e+03 -4.3999823594e+02 
    2.2690335000e+01 -1.9455000000e+02  1.6555053878e+03 ] stress_275 gradient
 [  9.5454716667e-01 -3.4112835071e-04 -1.5949198810e+03 -3.3911029295e+02 
    1.7542015000e+01 -1.3127300000e+02  1.7187957134e+03 ] stress_276 gradient
 [  9.6814793333e-01 -1.9143892376e-05 -1.3181480041e+03 -2.6300662757e+02 
    1.3632975000e+01 -9.1288000004e+01  1.7587889838e+03 ] stress_277 gradient
 [  9.7437536667e-01  3.1413752424e-04 -1.0340435399e+03 -2.0657358866e+02 
    1.0722615000e+01 -6.5452999996e+01  1.7846299635e+03 ] stress_278 gradient
 [  9.7695806667e-01  6.5106168877e-04 -7.4646457734e+02 -1.6479376966e+02 
    8.5622150000e+00 -4.8333999996e+01  1.8017526383e+03 ] stress_279 gradient
 [  9.7775750000e-01  9.8643649563e-04 -4.5898878896e+02 -1.3368343393e+02 
    6.9505650000e+00 -3.6702000000e+01  1.8133874170e+03 ] stress_280 gradient
 [  9.7770816667e-01  1.3161753941e-03 -1.7501586067e+02 -1.1030779839e+02 
    5.7380100000e+00 -2.8608000002e+01  1.8214835200e+03 ] stress_281 gradient
 [  9.7728150000e-01  1.6367009707e-03  1.0219625584e+02 -9.2565654982e+01 
    4.8167850000e+00 -2.2851000000e+01  1.8272410892e+03 ] stress_282 gradient
 [  9.7671486667e-01  1.9446879839e-03  3.6951511512e+02 -7.8966055461e+01 
    4.1101450000e+00 -1.8676999991e+01  1.8314155952e+03 ] stress_283 gradient
 [  9.7612593333e-01  2.2370078680e-03  6.2397107255e+02 -6.8449067291e+01 
    3.5633850000e+00 -1.5601000007e+01  1.8344933180e+03 ] stress_284 gradient
 [  9.7557106667e-01  2.5106613808e-03  8.6272996474e+02 -6.0258713358e+01 
    3.1374050000e+00 -1.3301000001e+01  1.8367941024e+03 ] stress_285 gradient
 [  9.7507493333e-01  2.7628591571e-03  1.0831725373e+03 -5.3850276648e+01 
    2.8040000000e+00 -1.1562999998e+01  1.8385322638e+03 ] stress_286 gradient
 [  9.7464626667e-01  2.9910040509e-03  1.2828788123e+03 -4.8829465690e+01 
    2.5427200000e+00 -1.0240999995e+01  1.8398539757e+03 ] stress_287 gradient
 [  9.7428606667e-01  3.1927007214e-03  1.4596332993e+03 -4.4909585140e+01 
    2.3386900000e+00 -9.2350000045e+00  1.8408604256e+03 ] stress_288 gradient
 [  9.7399173333e-01  3.3658693161e-03  1.6115207252e+03 -4.1880326898e+01 
    2.1810000000e+00 -8.4739999920e+00  1.8416220471e+03 ] stress_289 gradient
 [  9.7375950000e-01  3.5086932538e-03  1.7368763085e+03 -3.9588968211e+01 
    2.0617100000e+00 -7.9069999970e+00  1.8421885295e+03 ] stress_290 gradient
 [  9.7358566667e-01  3.6196519341e-03  1.8343122597e+03 -3.7926029661e+01 
    1.9751300000e+00 -7.5020000054e+00  1.8425943659e+03 ] stress_291 gradient
 [  9.7346696667e-01  3.6976023841e-03  1.9027864897e+03 -3.6814648005e+01 
    1.9172600000e+00 -7.2329999966e+00  1.8428630741e+03 ] stress_292 gradient
 [  9.7340103333e-01  3.7417017316e-03  1.9415330831e+03 -3.6205640286e+01 
    1.8855450000e+00 -7.0860000051e+00  1.8430094888e+03 ] stress_293 gradient
 [  9.7340003333e-01  3.7423528890e-03  1.9421053052e+03 -3.6196751551e+01 
    1.8850850000e+00 -7.0839999921e+00  1.8430115391e+03 ] stress_294 gradient
 [  9.1433550000e-01  2.0870550856e-03  1.9377405015e+03  7.9223176877e+01 
   -2.9705400000e+00 -3.4196000001e+01  1.8159081852e+03 ] stress_295 gradient
 [  5.5680276667e-01  1.2499699936e-03  1.8947620548e+03  5.9466936064e+02 
   -2.4835335000e+01 -2.4836000000e+02  1.6017970205e+03 ] stress_296 gradient
 [  5.5680276667e-01  1.8784560123e-03  1.8947620548e+03  5.9466936064e+02 
   -2.4835335000e+01 -2.4836000000e+02  1.6017970205e+03 ] stress_297 gradient
 [  5.6231210000e-01  4.0140818550e-03  1.8950080798e+03  5.8683475273e+02 
   -2.4476365000e+01 -2.4518100000e+02  1.6049729159e+03 ] stress_298 gradient
 [  5.6725750000e-01  4.0977018475e-03  1.8952429388e+03  5.7975493194e+02 
   -2.4158880000e+01 -2.4229900000e+02  1.6078535699e+03 ] stress_299 gradient
 [  5.6717476667e-01  3.8885272937e-03  1.8952393657e+03  5.7996492960e+02 
   -2.4167640000e+01 -2.4232300001e+02  1.6078286046e+03 ] stress_300 gradient
 [  5.6513376667e-01  3.5166978480e-03  1.8951253976e+03  5.8463618250e+02 
   -2.4364190000e+01 -2.4307000000e+02  1.6070826618e+03 ] stress_301 gradient
 [  5.5141803333e-01  3.0139781176e-03  1.8941692127e+03  6.1261149542e+02 
   -2.5548710000e+01 -2.4898500000e+02  1.6011695119e+03 ] stress_302 gradient
 [  5.0170583333e-01  2.4634040377e-03  1.8898320264e+03  7.0073741853e+02 
   -2.9299310000e+01 -2.7402600000e+02  1.5761346570e+03 ] stress_303 gradient
 [  3.8222733333e-01  1.9951450289e-03  1.8763668285e+03  8.7704078630e+02 
   -3.6836955000e+01 -3.4404300000e+02  1.5061339814e+03 ] stress_304 gradient
 [  1.7768933333e-01  1.7173149099e-03  1.8448203189e+03  1.1095716138e+03 
   -4.6819760000e+01 -4.8340200000e+02  1.3667987326e+03 ] stress_305 gradient
 [ -8.1405866667e-02  1.6253691170e-03  1.7858835217e+03  1.3020415630e+03 
   -5.5118645000e+01 -6.8901300000e+02  1.1612088040e+03 ] stress_306 gradient
 [ -3.3494206000e-01  1.6139515214e-03  1.6940007457e+03  1.3717837871e+03 
   -5.8163380500e+01 -9.2424110000e+02  9.2598464676e+02 ] stress_307 gradient
 [ -5.3778756333e-01  1.5779339164e-03  1.5689782080e+03  1.3125121994e+03 
   -5.5670802500e+01 -1.1455295000e+03  7.0468507751e+02 ] stress_308 gradient
 [ -6.7873918333e-01  1.4718047150e-03  1.4142178726e+03  1.1721531493e+03 
   -4.9699490000e+01 -1.3277800000e+03  5.2241522788e+02 ] stress_309 gradient
 [ -7.6813290667e-01  1.2966004800e-03  1.2342918813e+03  1.0030503329e+03 
   -4.2498518500e+01 -1.4663086000e+03  3.8386627634e+02 ] stress_310 gradient
 [ -8.2165250000e-01  1.0696178987e-03  1.0334486135e+03  8.3868893551e+02 
   -3.5503340000e+01 -1.5672810000e+03  2.8287575807e+02 ] stress_311 gradient
 [ -8.5244200000e-01  8.0771397588e-04  8.1517128429e+02  6.9413355381e+02 
   -2.9357015000e+01 -1.6396290000e+03  2.1051459855e+02 ] stress_312 gradient
 [ -8.6952023333e-01  5.2292242623e-04  5.8229071480e+02  5.7329013092e+02 
   -2.4224310000e+01 -1.6913360000e+03  1.5879645748e+02 ] stress_313 gradient
 [ -8.7854853333e-01  2.2288139975e-04  3.3711834900e+02  4.7480117377e+02 
   -2.0045410000e+01 -1.7285150000e+03  1.2160954836e+02 ] stress_314 gradient
 [ -8.8292920000e-01 -8.7659287190e-05  8.1643304641e+01  3.9544818411e+02 
   -1.6681730000e+01 -1.7555280000e+03  9.4590497505e+01 ] stress_315 gradient
 [ -8.8466730000e-01 -4.0561580236e-04 -1.8233750525e+02  3.3174203838e+02 
   -1.3983740000e+01 -1.7754020000e+03  7.4711512663e+01 ] stress_316 gradient
 [ -8.8493440000e-01 -7.2881579931e-04 -4.5315952238e+02  2.8054423694e+02 
   -1.1817280000e+01 -1.7902220000e+03  5.9888657470e+01 ] stress_317 gradient
 [ -8.8441180000e-01 -1.0555255211e-03 -7.2922235597e+02  2.3924890058e+02 
   -1.0071190000e+01 -1.8014200000e+03  4.8687574891e+01 ] stress_318 gradient
 [ -8.8349413333e-01 -1.3842166313e-03 -1.0089696094e+03  2.0577046710e+02 
   -8.6566150000e+00 -1.8099940000e+03  4.0112669425e+01 ] stress_319 gradient
 [ -8.8240790000e-01 -1.7134507651e-03 -1.2908814362e+03  1.7846957017e+02 
   -7.5038050000e+00 -1.8166380000e+03  3.3466602102e+01 ] stress_320 gradient
 [ -8.8128123333e-01 -2.0417937618e-03 -1.5734452852e+03  1.5606996743e+02 
   -6.5585250000e+00 -1.8218480000e+03  2.8255494838e+01 ] stress_321 gradient
 [ -8.8018436667e-01 -2.3678227281e-03 -1.8551800931e+03  1.3757833497e+02 
   -5.7785950000e+00 -1.8259780000e+03  2.4125130311e+01 ] stress_322 gradient
 [ -8.7915363333e-01 -2.6900852569e-03 -2.1346078490e+03  1.2222251174e+02 
   -5.1312550000e+00 -1.8292830000e+03  2.0818740160e+01 ] stress_323 gradient
 [ -8.7820560000e-01 -3.0071325566e-03 -2.4102824023e+03  1.0939890192e+02 
   -4.5909200000e+00 -1.8319530000e+03  1.8147697933e+01 ] stress_324 gradient
 [ -8.7734563333e-01 -3.3175295416e-03 -2.6807960879e+03  9.8633732806e+01 
   -4.1375150000e+00 -1.8341290000e+03  1.5971498630e+01 ] stress_325 gradient
 [ -8.7657270000e-01 -3.6198155643e-03 -2.9447420598e+03  8.9554701947e+01 
   -3.7552800000e+00 -1.8359140000e+03  1.4185577587e+01 ] stress_326 gradient
 [ -8.7588253333e-01 -3.9125936298e-03 -3.2007889541e+03  8.1865552654e+01 
   -3.4316800000e+00 -1.8373900000e+03  1.2709732383e+01 ] stress_327 gradient
 [ -8.7526923333e-01 -4.1944385746e-03 -3.4475972931e+03  7.5331680263e+01 
   -3.1567950000e+00 -1.8386160000e+03  1.1483419231e+01 ] stress_328 gradient
 [ -8.7472640000e-01 -4.4640281557e-03 -3.6839318899e+03  6.9763855083e+01 
   -2.9226300000e+00 -1.8396400000e+03  1.0459481520e+01 ] stress_329 gradient
 [ -8.7424770000e-01 -4.7200622445e-03 -3.9085882269e+03  6.5010420182e+01 
   -2.7227700000e+00 -1.8404980000e+03  9.6012552825e+00 ] stress_330 gradient
 [ -8.7382706667e-01 -4.9612793077e-03 -4.1204055573e+03  6.0949137340e+01 
   -2.5520550000e+00 -1.8412190000e+03  8.8799158865e+00 ] stress_331 gradient
 [ -8.7345910000e-01 -5.1865224142e-03 -4.3183231077e+03  5.7480285087e+01 
   -2.4062800000e+00 -1.8418260000e+03  8.2729101729e+00 ] stress_332 gradient
 [ -8.7313886667e-01 -5.3946693603e-03 -4.5013172504e+03  5.4523357765e+01 
   -2.2820450000e+00 -1.8423360000e+03  7.7623885794e+00 ] stress_333 gradient
 [ -8.7286210000e-01 -5.5847077575e-03 -4.6684666383e+03  5.2012419376e+01 
   -2.1765650000e+00 -1.8427650000e+03  7.3337578810e+00 ] stress_334 gradient
 [ -8.7262500000e-01 -5.7557203183e-03 -4.8189385830e+03  4.9893723597e+01 
   -2.0875800000e+00 -1.8431230000e+03  6.9759224048e+00 ] stress_335 gradient
 [ -8.7242440000e-01 -5.9068105240e-03 -4.9519227280e+03  4.8124461699e+01 
   -2.0132800000e+00 -1.8434190000e+03  6.6798367644e+00 ] stress_336 gradient
 [ -8.7225760000e-01 -6.0372779432e-03 -5.0667849168e+03  4.6669006307e+01 
   -1.9521700000e+00 -1.8436600000e+03  6.4380234414e+00 ] stress_337 gradient
 [ -8.7212243333e-01 -6.1464544334e-03 -5.1629227045e+03  4.5499666785e+01 
   -1.9030800000e+00 -1.8438530000e+03  6.2450552026e+00 ] stress_338 gradient
 [ -8.7201733333e-01 -6.2337934392e-03 -5.2398435201e+03  4.4594547250e+01 
   -1.8650500000e+00 -1.8440100000e+03  6.0953842137e+00 ] stress_339 gradient
 [ -8.7194000000e-01 -6.2988772246e-03 -5.2971706960e+03  4.3937049876e+01 
   -1.8375000000e+00 -1.8441100000e+03  5.9892516837e+00 ] stress_340 gradient
 [ -8.7189066667e-01 -6.3413765109e-03 -5.3346081832e+03  4.3515274727e+01 
   -1.8198000000e+00 -1.8441800000e+03  5.9205067479e+00 ] stress_341 gradient
 [ -8.7186766667e-01 -6.3610684720e-03 -5.3519557375e+03  4.3321771408e+01 
   -1.8116500000e+00 -1.8442100000e+03  5.8891494104e+00 ] stress_342 gradient



---------------------
Begin Evaluation   38
---------------------
Parameters for evaluation 38:
                      4.5194824504e+02 fy
                      1.8029473843e+05 E
                      1.0000000000e-06 b
                      8.4858166759e-01 cR1
                      2.0000000000e+00 cR2
                      1.0000000000e-06 a1
                      1.0000000000e-06 a3

blocking fork: workflow_driver1 paramsDakota.in results.out

Active response data for evaluation 38:
Active set vector = { 1 1 1 1 1 1 1 1 1 1 1 1 1 1 1 1 1 1 1 1 1 1 1 1 1 1 1 1 1 1 1 1 1 1 1 1 1 1 1 1 1 1 1 1 1 1 1 1 1 1 1 1 1 1 1 1 1 1 1 1 1 1 1 1 1 1 1 1 1 1 1 1 1 1 1 1 1 1 1 1 1 1 1 1 1 1 1 1 1 1 1 1 1 1 1 1 1 1 1 1 1 1 1 1 1 1 1 1 1 1 1 1 1 1 1 1 1 1 1 1 1 1 1 1 1 1 1 1 1 1 1 1 1 1 1 1 1 1 1 1 1 1 1 1 1 1 1 1 1 1 1 1 1 1 1 1 1 1 1 1 1 1 1 1 1 1 1 1 1 1 1 1 1 1 1 1 1 1 1 1 1 1 1 1 1 1 1 1 1 1 1 1 1 1 1 1 1 1 1 1 1 1 1 1 1 1 1 1 1 1 1 1 1 1 1 1 1 1 1 1 1 1 1 1 1 1 1 1 1 1 1 1 1 1 1 1 1 1 1 1 1 1 1 1 1 1 1 1 1 1 1 1 1 1 1 1 1 1 1 1 1 1 1 1 1 1 1 1 1 1 1 1 1 1 1 1 1 1 1 1 1 1 1 1 1 1 1 1 1 1 1 1 1 1 1 1 1 1 1 1 1 1 1 1 1 1 1 1 1 1 1 1 1 1 1 1 1 1 1 1 1 1 1 1 1 1 1 1 1 1 1 1 1 1 1 1 1 1 1 1 1 1 }
                      2.1010173167e+00 stress_1
                     -2.1835543866e+02 stress_2
                     -4.5191042236e+02 stress_3
                     -4.5194409075e+02 stress_4
                     -1.6576991508e+02 stress_5
                      2.6248439251e+02 stress_6
                      4.4450577520e+02 stress_7
                      4.4481719733e+02 stress_8
                      2.2796614654e+02 stress_9
                     -1.4237726790e+02 stress_10
                     -4.4740819707e+02 stress_11
                     -4.5193592769e+02 stress_12
                     -4.5194902518e+02 stress_13
                     -4.5194919643e+02 stress_14
                     -1.6148042166e+02 stress_15
                     -3.0718360584e+02 stress_16
                     -4.4910971173e+02 stress_17
                     -2.7971272659e+02 stress_18
                      3.7265987673e+01 stress_19
                      3.9690245531e+02 stress_20
                      4.5102464984e+02 stress_21
                      4.5189761004e+02 stress_22
                      4.5193964850e+02 stress_23
                      4.5194428115e+02 stress_24
                      1.6087214118e+02 stress_25
                      2.7200547537e+02 stress_26
                      3.9727131662e+02 stress_27
                      4.2876388451e+02 stress_28
                      3.2208592177e+02 stress_29
                      1.3201883932e+02 stress_30
                     -1.3294655476e+02 stress_31
                     -3.9965503490e+02 stress_32
                     -4.5002028664e+02 stress_33
                     -4.5184235341e+02 stress_34
                     -4.5193980417e+02 stress_35
                     -4.5194900421e+02 stress_36
                     -4.5195062295e+02 stress_37
                     -4.5195123299e+02 stress_38
                     -4.5195161822e+02 stress_39
                     -4.5195189788e+02 stress_40
                     -4.5195208971e+02 stress_41
                     -4.5195219342e+02 stress_42
                     -4.3853519988e+02 stress_43
                     -9.2297630901e+01 stress_44
                      2.0154399918e+02 stress_45
                      2.2660607964e+01 stress_46
                     -3.0388413659e+02 stress_47
                     -4.2292059549e+01 stress_48
                     -1.3158591347e+02 stress_49
                     -2.7095904153e+02 stress_50
                     -4.4649289381e+02 stress_51
                     -2.9864305642e+02 stress_52
                      1.8903066553e+01 stress_53
                      3.5415553801e+02 stress_54
                      4.4032549238e+02 stress_55
                      4.4907078093e+02 stress_56
                      4.5027938298e+02 stress_57
                      3.7534205652e+02 stress_58
                      9.4562527035e+01 stress_59
                     -3.0277872128e+02 stress_60
                     -4.4862794089e+02 stress_61
                     -4.5172206890e+02 stress_62
                     -4.5184642162e+02 stress_63
                     -2.1653164907e+02 stress_64
                      1.7882983283e+02 stress_65
                      2.9197717489e+02 stress_66
                      5.4779073240e+01 stress_67
                     -3.5434461114e+02 stress_68
                     -4.5096725170e+02 stress_69
                     -4.5106397473e+02 stress_70
                     -3.6825766797e+02 stress_71
                     -2.1647316250e+02 stress_72
                     -5.4254055112e-01 stress_73
                      2.5295377346e+02 stress_74
                      4.1136164854e+02 stress_75
                      4.4555222678e+02 stress_76
                      4.5070062172e+02 stress_77
                      4.5163655402e+02 stress_78
                      4.5185238305e+02 stress_79
                      4.5191349980e+02 stress_80
                      4.5193413591e+02 stress_81
                      4.5194227960e+02 stress_82
                      4.5194598016e+02 stress_83
                      4.5194788298e+02 stress_84
                      4.5194895870e+02 stress_85
                      4.5194959751e+02 stress_86
                      4.5194996689e+02 stress_87
                      4.5195014013e+02 stress_88
                      3.8797462736e+02 stress_89
                     -1.2098620701e+01 stress_90
                     -2.4165087189e+02 stress_91
                      1.0310412021e+01 stress_92
                      3.7232003295e+02 stress_93
                      3.8294026602e+02 stress_94
                      3.3070401302e+02 stress_95
                      2.3640315194e+02 stress_96
                      1.0110673725e+02 stress_97
                     -7.1950172908e+01 stress_98
                     -2.6050112529e+02 stress_99
                     -3.9099213884e+02 stress_100
                     -4.3660437639e+02 stress_101
                     -4.4785887611e+02 stress_102
                     -4.5070290131e+02 stress_103
                     -4.5151754637e+02 stress_104
                     -4.5178253820e+02 stress_105
                     -4.5187905480e+02 stress_106
                     -4.5191789598e+02 stress_107
                     -4.5193501175e+02 stress_108
                     -4.5194323606e+02 stress_109
                     -4.5194754616e+02 stress_110
                     -4.5195001622e+02 stress_111
                     -4.5195156656e+02 stress_112
                     -4.5195262865e+02 stress_113
                     -4.5195341429e+02 stress_114
                     -4.5195403155e+02 stress_115
                     -4.5195453731e+02 stress_116
                     -4.5195496210e+02 stress_117
                     -4.5195532252e+02 stress_118
                     -4.5195562754e+02 stress_119
                     -4.5195588180e+02 stress_120
                     -4.5195608773e+02 stress_121
                     -4.5195624639e+02 stress_122
                     -4.5195635815e+02 stress_123
                     -4.5195642314e+02 stress_124
                     -4.5195644055e+02 stress_125
                     -3.6291077527e+02 stress_126
                     -1.3964098508e+02 stress_127
                      1.6761158678e+02 stress_128
                      3.7695827403e+02 stress_129
                      4.3345060570e+02 stress_130
                      4.4555674794e+02 stress_131
                      4.4877882190e+02 stress_132
                      4.4976587562e+02 stress_133
                      4.4981318848e+02 stress_134
                      9.0919466811e+01 stress_135
                      7.0136468166e+01 stress_136
                      2.3579223064e+02 stress_137
                      2.0444059828e+02 stress_138
                      5.3739486732e+01 stress_139
                     -2.3258704120e+02 stress_140
                     -4.4330524620e+02 stress_141
                     -4.5175496931e+02 stress_142
                     -4.5194117610e+02 stress_143
                     -4.5195398773e+02 stress_144
                     -4.5195585356e+02 stress_145
                     -4.3425866294e+02 stress_146
                     -2.2596105923e+02 stress_147
                      1.1247346854e+02 stress_148
                      3.6128233546e+02 stress_149
                      4.2661330863e+02 stress_150
                      4.3956381975e+02 stress_151
                      4.4077803290e+02 stress_152
                      2.5253121481e+02 stress_153
                     -9.8774986630e+01 stress_154
                     -4.2414691403e+02 stress_155
                     -4.5118602917e+02 stress_156
                     -4.5179036584e+02 stress_157
                     -3.4519292200e+02 stress_158
                      3.2382471506e+01 stress_159
                      2.3166985260e+02 stress_160
                      8.6899668256e+01 stress_161
                     -2.9361686125e+02 stress_162
                     -4.5086401681e+02 stress_163
                     -4.5153064881e+02 stress_164
                     -4.1529988180e+02 stress_165
                     -3.4378213913e+02 stress_166
                     -2.3752449310e+02 stress_167
                     -9.7874771894e+01 stress_168
                      6.8464703923e+01 stress_169
                      2.3550083603e+02 stress_170
                      3.5591263474e+02 stress_171
                      4.1459039047e+02 stress_172
                      4.3736599903e+02 stress_173
                      4.4587874038e+02 stress_174
                      4.4922165955e+02 stress_175
                      4.5063136989e+02 stress_176
                      4.5126950449e+02 stress_177
                      4.5157772211e+02 stress_178
                      4.5173547394e+02 stress_179
                      4.5182052175e+02 stress_180
                      4.5186858030e+02 stress_181
                      4.5189692889e+02 stress_182
                      4.5191433255e+02 stress_183
                      4.5192542584e+02 stress_184
                      4.5193275463e+02 stress_185
                      4.5193776527e+02 stress_186
                      4.5194130529e+02 stress_187
                      4.5194388540e+02 stress_188
                      4.5194582099e+02 stress_189
                      4.5194731145e+02 stress_190
                      4.5194848537e+02 stress_191
                      4.5194942703e+02 stress_192
                      4.5195019286e+02 stress_193
                      4.5195082090e+02 stress_194
                      4.5195133709e+02 stress_195
                      4.5195175945e+02 stress_196
                      4.5195210033e+02 stress_197
                      4.5195236841e+02 stress_198
                      4.5195256960e+02 stress_199
                      4.5195270780e+02 stress_200
                      4.5195278555e+02 stress_201
                      4.5195278934e+02 stress_202
                      1.3236791727e+02 stress_203
                     -2.0541784970e+02 stress_204
                     -1.1092699994e+02 stress_205
                      2.8289936596e+02 stress_206
                      3.0380845762e+02 stress_207
                      2.4755660901e+02 stress_208
                      1.4531143568e+02 stress_209
                     -7.2621628037e-01 stress_210
                     -1.7692652263e+02 stress_211
                     -3.3096190682e+02 stress_212
                     -4.1042748552e+02 stress_213
                     -4.3799930777e+02 stress_214
                     -4.4681282706e+02 stress_215
                     -4.4984080510e+02 stress_216
                     -4.5099369496e+02 stress_217
                     -4.5147763921e+02 stress_218
                     -4.5169897570e+02 stress_219
                     -4.5180804500e+02 stress_220
                     -4.5186542580e+02 stress_221
                     -4.5189741706e+02 stress_222
                     -4.5191620813e+02 stress_223
                     -4.5192778014e+02 stress_224
                     -4.5193522022e+02 stress_225
                     -4.5194019345e+02 stress_226
                     -4.5194363408e+02 stress_227
                     -4.5194608516e+02 stress_228
                     -4.5194787125e+02 stress_229
                     -4.5194919241e+02 stress_230
                     -4.5195017405e+02 stress_231
                     -4.5195089586e+02 stress_232
                     -4.5195140935e+02 stress_233
                     -4.5195174686e+02 stress_234
                     -4.5195192770e+02 stress_235
                     -4.4631970036e+02 stress_236
                     -1.2398614681e+02 stress_237
                      1.6749751366e+02 stress_238
                     -2.6657681403e+01 stress_239
                     -3.0699837981e+02 stress_240
                     -1.3296190782e+01 stress_241
                      1.6153636949e+02 stress_242
                     -1.4061349619e+02 stress_243
                     -2.8252464315e+02 stress_244
                     -4.1220929288e+02 stress_245
                     -2.5100776479e+02 stress_246
                      6.7682978544e+01 stress_247
                      3.5036783398e+02 stress_248
                      4.2904603565e+02 stress_249
                      4.4305927264e+02 stress_250
                      4.4565604026e+02 stress_251
                      3.5414690656e+02 stress_252
                      6.4053051902e+01 stress_253
                     -3.0377275766e+02 stress_254
                     -4.3496651045e+02 stress_255
                     -4.4786289538e+02 stress_256
                     -4.4909396920e+02 stress_257
                     -2.0592396414e+02 stress_258
                      1.7434987826e+02 stress_259
                      3.0249901336e+02 stress_260
                      1.1481730916e+02 stress_261
                     -2.7087059485e+02 stress_262
                     -4.3371348886e+02 stress_263
                     -4.4194934960e+02 stress_264
                     -4.0547338155e+02 stress_265
                     -3.2353617687e+02 stress_266
                     -1.9712657993e+02 stress_267
                     -2.9389698552e+01 stress_268
                      1.6298872627e+02 stress_269
                      3.2479272572e+02 stress_270
                      4.0757951645e+02 stress_271
                      4.3684032262e+02 stress_272
                      4.4636243843e+02 stress_273
                      4.4966231164e+02 stress_274
                      4.5092017006e+02 stress_275
                      4.5144605891e+02 stress_276
                      4.5168486483e+02 stress_277
                      4.5180148215e+02 stress_278
                      4.5186221349e+02 stress_279
                      4.5189571378e+02 stress_280
                      4.5191518065e+02 stress_281
                      4.5192704383e+02 stress_282
                      4.5193459518e+02 stress_283
                      4.5193959672e+02 stress_284
                      4.5194302865e+02 stress_285
                      4.5194545624e+02 stress_286
                      4.5194721530e+02 stress_287
                      4.5194851057e+02 stress_288
                      4.5194947007e+02 stress_289
                      4.5195017480e+02 stress_290
                      4.5195067635e+02 stress_291
                      4.5195100747e+02 stress_292
                      4.5195118768e+02 stress_293
                      4.5195119030e+02 stress_294
                      1.2161784951e+02 stress_295
                     -2.0717895457e+02 stress_296
                     -9.3866235598e+01 stress_297
                      2.9389378193e+02 stress_298
                      3.1141201154e+02 stress_299
                      2.7365632184e+02 stress_300
                      2.0553746759e+02 stress_301
                      1.0749765092e+02 stress_302
                     -1.8530894643e+01 stress_303
                     -1.6324192732e+02 stress_304
                     -2.9721879398e+02 stress_305
                     -3.8425561700e+02 stress_306
                     -4.2462477696e+02 stress_307
                     -4.4064832602e+02 stress_308
                     -4.4696769893e+02 stress_309
                     -4.4959525677e+02 stress_310
                     -4.5076276933e+02 stress_311
                     -4.5131607391e+02 stress_312
                     -4.5159406917e+02 stress_313
                     -4.5174125198e+02 stress_314
                     -4.5182291926e+02 stress_315
                     -4.5187019624e+02 stress_316
                     -4.5189865048e+02 stress_317
                     -4.5191640729e+02 stress_318
                     -4.5192787493e+02 stress_319
                     -4.5193552952e+02 stress_320
                     -4.5194080565e+02 stress_321
                     -4.5194455883e+02 stress_322
                     -4.5194731218e+02 stress_323
                     -4.5194939333e+02 stress_324
                     -4.5195101183e+02 stress_325
                     -4.5195230409e+02 stress_326
                     -4.5195336067e+02 stress_327
                     -4.5195424233e+02 stress_328
                     -4.5195499064e+02 stress_329
                     -4.5195563420e+02 stress_330
                     -4.5195619286e+02 stress_331
                     -4.5195668058e+02 stress_332
                     -4.5195710715e+02 stress_333
                     -4.5195747951e+02 stress_334
                     -4.5195780259e+02 stress_335
                     -4.5195807976e+02 stress_336
                     -4.5195831352e+02 stress_337
                     -4.5195850554e+02 stress_338
                     -4.5195865698e+02 stress_339
                     -4.5195876865e+02 stress_340
                     -4.5195884105e+02 stress_341
                     -4.5195887446e+02 stress_342



------------------------------------------
Begin Dakota derivative estimation routine
------------------------------------------

>>>>> map at X performed previously and results retrieved

>>>>> Dakota finite difference gradient evaluation for x[1] + h:

---------------------
Begin Evaluation   39
---------------------
Parameters for evaluation 39:
                      4.5240019328e+02 fy
                      1.8029473843e+05 E
                      1.0000000000e-06 b
                      8.4858166759e-01 cR1
                      2.0000000000e+00 cR2
                      1.0000000000e-06 a1
                      1.0000000000e-06 a3

(Asynchronous job 39 added to queue)


>>>>> Dakota finite difference gradient evaluation for x[2] + h:

---------------------
Begin Evaluation   40
---------------------
Parameters for evaluation 40:
                      4.5194824504e+02 fy
                      1.8047503317e+05 E
                      1.0000000000e-06 b
                      8.4858166759e-01 cR1
                      2.0000000000e+00 cR2
                      1.0000000000e-06 a1
                      1.0000000000e-06 a3

(Asynchronous job 40 added to queue)


>>>>> Dakota finite difference gradient evaluation for x[3] + h:

---------------------
Begin Evaluation   41
---------------------
Parameters for evaluation 41:
                      4.5194824504e+02 fy
                      1.8029473843e+05 E
                      1.1000000000e-05 b
                      8.4858166759e-01 cR1
                      2.0000000000e+00 cR2
                      1.0000000000e-06 a1
                      1.0000000000e-06 a3

(Asynchronous job 41 added to queue)


>>>>> Dakota finite difference gradient evaluation for x[4] + h:

---------------------
Begin Evaluation   42
---------------------
Parameters for evaluation 42:
                      4.5194824504e+02 fy
                      1.8029473843e+05 E
                      1.0000000000e-06 b
                      8.4943024926e-01 cR1
                      2.0000000000e+00 cR2
                      1.0000000000e-06 a1
                      1.0000000000e-06 a3

(Asynchronous job 42 added to queue)


>>>>> Dakota finite difference gradient evaluation for x[5] + h:

---------------------
Begin Evaluation   43
---------------------
Parameters for evaluation 43:
                      4.5194824504e+02 fy
                      1.8029473843e+05 E
                      1.0000000000e-06 b
                      8.4858166759e-01 cR1
                      1.9980000000e+00 cR2
                      1.0000000000e-06 a1
                      1.0000000000e-06 a3

(Asynchronous job 43 added to queue)


>>>>> Dakota finite difference gradient evaluation for x[6] + h:

---------------------
Begin Evaluation   44
---------------------
Parameters for evaluation 44:
                      4.5194824504e+02 fy
                      1.8029473843e+05 E
                      1.0000000000e-06 b
                      8.4858166759e-01 cR1
                      2.0000000000e+00 cR2
                      1.1000000000e-05 a1
                      1.0000000000e-06 a3

(Asynchronous job 44 added to queue)


>>>>> Dakota finite difference gradient evaluation for x[7] + h:

---------------------
Begin Evaluation   45
---------------------
Parameters for evaluation 45:
                      4.5194824504e+02 fy
                      1.8029473843e+05 E
                      1.0000000000e-06 b
                      8.4858166759e-01 cR1
                      2.0000000000e+00 cR2
                      1.0000000000e-06 a1
                      1.1000000000e-05 a3

(Asynchronous job 45 added to queue)



Blocking synchronize of 7 asynchronous evaluations
First pass: initiating 7 local asynchronous jobs
Initiating evaluation 39
nonblocking fork: workflow_driver1 paramsDakota.in results.out
Initiating evaluation 40
nonblocking fork: workflow_driver1 paramsDakota.in results.out
Initiating evaluation 41
nonblocking fork: workflow_driver1 paramsDakota.in results.out
Initiating evaluation 42
nonblocking fork: workflow_driver1 paramsDakota.in results.out
Initiating evaluation 43
nonblocking fork: workflow_driver1 paramsDakota.in results.out
Initiating evaluation 44
nonblocking fork: workflow_driver1 paramsDakota.in results.out
Initiating evaluation 45
nonblocking fork: workflow_driver1 paramsDakota.in results.out
Waiting on completed jobs
Evaluation 39 has completed
Evaluation 40 has completed
Evaluation 41 has completed
Evaluation 42 has completed
Evaluation 43 has completed
Waiting on completed jobs
Evaluation 44 has completed
Waiting on completed jobs
Evaluation 45 has completed

Active response data for evaluation 39:
Active set vector = { 1 1 1 1 1 1 1 1 1 1 1 1 1 1 1 1 1 1 1 1 1 1 1 1 1 1 1 1 1 1 1 1 1 1 1 1 1 1 1 1 1 1 1 1 1 1 1 1 1 1 1 1 1 1 1 1 1 1 1 1 1 1 1 1 1 1 1 1 1 1 1 1 1 1 1 1 1 1 1 1 1 1 1 1 1 1 1 1 1 1 1 1 1 1 1 1 1 1 1 1 1 1 1 1 1 1 1 1 1 1 1 1 1 1 1 1 1 1 1 1 1 1 1 1 1 1 1 1 1 1 1 1 1 1 1 1 1 1 1 1 1 1 1 1 1 1 1 1 1 1 1 1 1 1 1 1 1 1 1 1 1 1 1 1 1 1 1 1 1 1 1 1 1 1 1 1 1 1 1 1 1 1 1 1 1 1 1 1 1 1 1 1 1 1 1 1 1 1 1 1 1 1 1 1 1 1 1 1 1 1 1 1 1 1 1 1 1 1 1 1 1 1 1 1 1 1 1 1 1 1 1 1 1 1 1 1 1 1 1 1 1 1 1 1 1 1 1 1 1 1 1 1 1 1 1 1 1 1 1 1 1 1 1 1 1 1 1 1 1 1 1 1 1 1 1 1 1 1 1 1 1 1 1 1 1 1 1 1 1 1 1 1 1 1 1 1 1 1 1 1 1 1 1 1 1 1 1 1 1 1 1 1 1 1 1 1 1 1 1 1 1 1 1 1 1 1 1 1 1 1 1 1 1 1 1 1 1 1 1 1 1 1 }
                      2.1010173167e+00 stress_1
                     -2.1835543878e+02 stress_2
                     -4.5236155964e+02 stress_3
                     -4.5239593672e+02 stress_4
                     -1.6622176104e+02 stress_5
                      2.6204945560e+02 stress_6
                      4.4484572934e+02 stress_7
                      4.4516167818e+02 stress_8
                      2.2831062739e+02 stress_9
                     -1.4203314421e+02 stress_10
                     -4.4779750348e+02 stress_11
                     -4.5238774012e+02 stress_12
                     -4.5240096812e+02 stress_13
                     -4.5240114061e+02 stress_14
                     -1.6193236475e+02 stress_15
                     -3.0763554893e+02 stress_16
                     -4.4956165887e+02 stress_17
                     -2.8016467373e+02 stress_18
                      3.6814663117e+01 stress_19
                      3.9689338621e+02 stress_20
                      4.5146797004e+02 stress_21
                      4.5234915914e+02 stress_22
                      4.5239153128e+02 stress_23
                      4.5239619662e+02 stress_24
                      1.6132405195e+02 stress_25
                      2.7245738613e+02 stress_26
                      3.9772322783e+02 stress_27
                      4.2921580159e+02 stress_28
                      3.2253783885e+02 stress_29
                      1.3247074870e+02 stress_30
                     -1.3250240365e+02 stress_31
                     -3.9969461555e+02 stress_32
                     -4.5045654613e+02 stress_33
                     -4.5229363966e+02 stress_34
                     -4.5239170571e+02 stress_35
                     -4.5240094734e+02 stress_36
                     -4.5240257025e+02 stress_37
                     -4.5240318084e+02 stress_38
                     -4.5240356618e+02 stress_39
                     -4.5240384585e+02 stress_40
                     -4.5240403769e+02 stress_41
                     -4.5240414140e+02 stress_42
                     -4.3898714785e+02 stress_43
                     -9.2748341005e+01 stress_44
                      2.0118652989e+02 stress_45
                      2.2303138671e+01 stress_46
                     -3.0424215436e+02 stress_47
                     -4.2649695348e+01 stress_48
                     -1.3194354927e+02 stress_49
                     -2.7131667799e+02 stress_50
                     -4.4692294996e+02 stress_51
                     -2.9907311066e+02 stress_52
                      1.8481388865e+01 stress_53
                      3.5413585949e+02 stress_54
                      4.4071448163e+02 stress_55
                      4.4950882254e+02 stress_56
                      4.5072372417e+02 stress_57
                      3.7578639771e+02 stress_58
                      9.5006858041e+01 stress_59
                     -3.0243909375e+02 stress_60
                     -4.4904821788e+02 stress_61
                     -4.5217223573e+02 stress_62
                     -4.5229760920e+02 stress_63
                     -2.1698279041e+02 stress_64
                      1.7844844262e+02 stress_65
                      2.9175873923e+02 stress_66
                      5.4560637581e+01 stress_67
                     -3.5458569636e+02 stress_68
                     -4.5141523258e+02 stress_69
                     -4.5151237059e+02 stress_70
                     -3.6870606380e+02 stress_71
                     -2.1692150386e+02 stress_72
                     -9.8450132899e-01 stress_73
                      2.5266726021e+02 stress_74
                      4.1158689374e+02 stress_75
                      4.4597019501e+02 stress_76
                      4.5114693452e+02 stress_77
                      4.5208732566e+02 stress_78
                      4.5230402951e+02 stress_79
                      4.5236535592e+02 stress_80
                      4.5238605147e+02 stress_81
                      4.5239421459e+02 stress_82
                      4.5239792231e+02 stress_83
                      4.5239982806e+02 stress_84
                      4.5240090509e+02 stress_85
                      4.5240154451e+02 stress_86
                      4.5240191419e+02 stress_87
                      4.5240208755e+02 stress_88
                      3.8842657476e+02 stress_89
                     -1.1659386819e+01 stress_90
                     -2.4137318742e+02 stress_91
                      1.0588096494e+01 stress_92
                      3.7261379180e+02 stress_93
                      3.8324052532e+02 stress_94
                      3.3100427230e+02 stress_95
                      2.3670340228e+02 stress_96
                      1.0140631433e+02 stress_97
                     -7.1665757486e+01 stress_98
                     -2.6035153555e+02 stress_99
                     -3.9117735654e+02 stress_100
                     -4.3698755149e+02 stress_101
                     -4.4829433088e+02 stress_102
                     -4.5115047759e+02 stress_103
                     -4.5196819133e+02 stress_104
                     -4.5223405534e+02 stress_105
                     -4.5233084745e+02 stress_106
                     -4.5236978389e+02 stress_107
                     -4.5238693520e+02 stress_108
                     -4.5239517365e+02 stress_109
                     -4.5239948969e+02 stress_110
                     -4.5240196235e+02 stress_111
                     -4.5240351387e+02 stress_112
                     -4.5240457650e+02 stress_113
                     -4.5240536239e+02 stress_114
                     -4.5240597977e+02 stress_115
                     -4.5240648559e+02 stress_116
                     -4.5240691039e+02 stress_117
                     -4.5240727082e+02 stress_118
                     -4.5240757584e+02 stress_119
                     -4.5240783009e+02 stress_120
                     -4.5240803602e+02 stress_121
                     -4.5240819467e+02 stress_122
                     -4.5240830643e+02 stress_123
                     -4.5240837142e+02 stress_124
                     -4.5240838883e+02 stress_125
                     -3.6336272095e+02 stress_126
                     -1.4009011187e+02 stress_127
                      1.6728218041e+02 stress_128
                      3.7709423203e+02 stress_129
                      4.3382170839e+02 stress_130
                      4.4598237909e+02 stress_131
                      4.4921843488e+02 stress_132
                      4.5020961094e+02 stress_133
                      4.5025711826e+02 stress_134
                      9.1363315979e+01 stress_135
                      7.0580254185e+01 stress_136
                      2.3623691371e+02 stress_137
                      2.0488528135e+02 stress_138
                      5.4184168743e+01 stress_139
                     -2.3216081187e+02 stress_140
                     -4.4366047672e+02 stress_141
                     -4.5220505142e+02 stress_142
                     -4.5239300540e+02 stress_143
                     -4.5240591465e+02 stress_144
                     -4.5240779232e+02 stress_145
                     -4.3471060171e+02 stress_146
                     -2.2641253058e+02 stress_147
                      1.1209505273e+02 stress_148
                      3.6136202617e+02 stress_149
                      4.2695361457e+02 stress_150
                      4.3996256775e+02 stress_151
                      4.4118226643e+02 stress_152
                      2.5293544833e+02 stress_153
                     -9.8372227114e+01 stress_154
                     -4.2433496253e+02 stress_155
                     -4.5163123462e+02 stress_156
                     -4.5224103703e+02 stress_157
                     -3.4564358655e+02 stress_158
                      3.1962894737e+01 stress_159
                      2.3142642757e+02 stress_160
                      8.6656243219e+01 stress_161
                     -2.9386289543e+02 stress_162
                     -4.5131168267e+02 stress_163
                     -4.5198103684e+02 stress_164
                     -4.1575026981e+02 stress_165
                     -3.4423251959e+02 stress_166
                     -2.3797453443e+02 stress_167
                     -9.8319544430e+01 stress_168
                      6.8061305664e+01 stress_169
                      2.3526569218e+02 stress_170
                      3.5597470074e+02 stress_171
                      4.1487806373e+02 stress_172
                      4.3775491370e+02 stress_173
                      4.4630583098e+02 stress_174
                      4.4966315370e+02 stress_175
                      4.5107860752e+02 stress_176
                      4.5171918880e+02 stress_177
                      4.5202851729e+02 stress_178
                      4.5218680359e+02 stress_179
                      4.5227212231e+02 stress_180
                      4.5232032473e+02 stress_181
                      4.5234875300e+02 stress_182
                      4.5236620250e+02 stress_183
                      4.5237732307e+02 stress_184
                      4.5238466863e+02 stress_185
                      4.5238968986e+02 stress_186
                      4.5239323676e+02 stress_187
                      4.5239582145e+02 stress_188
                      4.5239776016e+02 stress_189
                      4.5239925278e+02 stress_190
                      4.5240042822e+02 stress_191
                      4.5240137098e+02 stress_192
                      4.5240213761e+02 stress_193
                      4.5240276624e+02 stress_194
                      4.5240328286e+02 stress_195
                      4.5240370555e+02 stress_196
                      4.5240404668e+02 stress_197
                      4.5240431493e+02 stress_198
                      4.5240451625e+02 stress_199
                      4.5240465453e+02 stress_200
                      4.5240473232e+02 stress_201
                      4.5240473611e+02 stress_202
                      1.3281559632e+02 stress_203
                     -2.0514968209e+02 stress_204
                     -1.1065883233e+02 stress_205
                      2.8316808965e+02 stress_206
                      3.0407789393e+02 stress_207
                      2.4782604441e+02 stress_208
                      1.4558065310e+02 stress_209
                     -4.6356462737e-01 stress_210
                     -1.7673060343e+02 stress_211
                     -3.3100036890e+02 stress_212
                     -4.1071399138e+02 stress_213
                     -4.3839583844e+02 stress_214
                     -4.4724548350e+02 stress_215
                     -4.5028536511e+02 stress_216
                     -4.5144252410e+02 stress_217
                     -4.5192815012e+02 stress_218
                     -4.5215020868e+02 stress_219
                     -4.5225961239e+02 stress_220
                     -4.5231715870e+02 stress_221
                     -4.5234923679e+02 stress_222
                     -4.5236807582e+02 stress_223
                     -4.5237967558e+02 stress_224
                     -4.5238713236e+02 stress_225
                     -4.5239211603e+02 stress_226
                     -4.5239556339e+02 stress_227
                     -4.5239801893e+02 stress_228
                     -4.5239980805e+02 stress_229
                     -4.5240113129e+02 stress_230
                     -4.5240211438e+02 stress_231
                     -4.5240283720e+02 stress_232
                     -4.5240335137e+02 stress_233
                     -4.5240368931e+02 stress_234
                     -4.5240387037e+02 stress_235
                     -4.4677164304e+02 stress_236
                     -1.2443461814e+02 stress_237
                      1.6716524597e+02 stress_238
                     -2.6989964131e+01 stress_239
                     -3.0735177525e+02 stress_240
                     -1.3645255705e+01 stress_241
                      1.6124188218e+02 stress_242
                     -1.4090868618e+02 stress_243
                     -2.8283495056e+02 stress_244
                     -4.1261324189e+02 stress_245
                     -2.5141163427e+02 stress_246
                      6.7314565704e+01 stress_247
                      3.5041583382e+02 stress_248
                      4.2939744462e+02 stress_249
                      4.4347379903e+02 stress_250
                      4.4608211915e+02 stress_251
                      3.5457298542e+02 stress_252
                      6.4477605775e+01 stress_253
                     -3.0359120178e+02 stress_254
                     -4.3532107716e+02 stress_255
                     -4.4829347456e+02 stress_256
                     -4.4953148004e+02 stress_257
                     -2.0636084971e+02 stress_258
                      1.7403537659e+02 stress_259
                      3.0240614167e+02 stress_260
                      1.1472443172e+02 stress_261
                     -2.7101123233e+02 stress_262
                     -4.3411927364e+02 stress_263
                     -4.4237787512e+02 stress_264
                     -4.0590190706e+02 stress_265
                     -3.2396469056e+02 stress_266
                     -1.9755439988e+02 stress_267
                     -2.9805167591e+01 stress_268
                      1.6266936559e+02 stress_269
                      3.2476341400e+02 stress_270
                      4.0783880410e+02 stress_271
                      4.3722739476e+02 stress_272
                      4.4679187389e+02 stress_273
                      4.5010573361e+02 stress_274
                      4.5136857823e+02 stress_275
                      4.5189640841e+02 stress_276
                      4.5213603510e+02 stress_277
                      4.5225302589e+02 stress_278
                      4.5231393856e+02 stress_279
                      4.5234753211e+02 stress_280
                      4.5236704949e+02 stress_281
                      4.5237894129e+02 stress_282
                      4.5238650954e+02 stress_283
                      4.5239152145e+02 stress_284
                      4.5239495994e+02 stress_285
                      4.5239739180e+02 stress_286
                      4.5239915372e+02 stress_287
                      4.5240045093e+02 stress_288
                      4.5240141177e+02 stress_289
                      4.5240211741e+02 stress_290
                      4.5240261958e+02 stress_291
                      4.5240295109e+02 stress_292
                      4.5240313150e+02 stress_293
                      4.5240313413e+02 stress_294
                      1.2206471904e+02 stress_295
                     -2.0691332061e+02 stress_296
                     -9.3600601634e+01 stress_297
                      2.9416032514e+02 stress_298
                      3.1167942772e+02 stress_299
                      2.7392373791e+02 stress_300
                      2.0580485910e+02 stress_301
                      1.0776428324e+02 stress_302
                     -1.8273274806e+01 stress_303
                     -1.6303979529e+02 stress_304
                     -2.9718707498e+02 stress_305
                     -3.8445191374e+02 stress_306
                     -4.2496842111e+02 stress_307
                     -4.4105653081e+02 stress_308
                     -4.4740131608e+02 stress_309
                     -4.5003904164e+02 stress_310
                     -4.5121084810e+02 stress_311
                     -4.5176607926e+02 stress_312
                     -4.5204499008e+02 stress_313
                     -4.5219263138e+02 stress_314
                     -4.5227453927e+02 stress_315
                     -4.5232194794e+02 stress_316
                     -4.5235047702e+02 stress_317
                     -4.5236827785e+02 stress_318
                     -4.5237977219e+02 stress_319
                     -4.5238744344e+02 stress_320
                     -4.5239273023e+02 stress_321
                     -4.5239649040e+02 stress_322
                     -4.5239924843e+02 stress_323
                     -4.5240133278e+02 stress_324
                     -4.5240295352e+02 stress_325
                     -4.5240424736e+02 stress_326
                     -4.5240530509e+02 stress_327
                     -4.5240618757e+02 stress_328
                     -4.5240693651e+02 stress_329
                     -4.5240758053e+02 stress_330
                     -4.5240813954e+02 stress_331
                     -4.5240862754e+02 stress_332
                     -4.5240905431e+02 stress_333
                     -4.5240942683e+02 stress_334
                     -4.5240975004e+02 stress_335
                     -4.5241002731e+02 stress_336
                     -4.5241026115e+02 stress_337
                     -4.5241045323e+02 stress_338
                     -4.5241060471e+02 stress_339
                     -4.5241071641e+02 stress_340
                     -4.5241078883e+02 stress_341
                     -4.5241082225e+02 stress_342


Active response data for evaluation 40:
Active set vector = { 1 1 1 1 1 1 1 1 1 1 1 1 1 1 1 1 1 1 1 1 1 1 1 1 1 1 1 1 1 1 1 1 1 1 1 1 1 1 1 1 1 1 1 1 1 1 1 1 1 1 1 1 1 1 1 1 1 1 1 1 1 1 1 1 1 1 1 1 1 1 1 1 1 1 1 1 1 1 1 1 1 1 1 1 1 1 1 1 1 1 1 1 1 1 1 1 1 1 1 1 1 1 1 1 1 1 1 1 1 1 1 1 1 1 1 1 1 1 1 1 1 1 1 1 1 1 1 1 1 1 1 1 1 1 1 1 1 1 1 1 1 1 1 1 1 1 1 1 1 1 1 1 1 1 1 1 1 1 1 1 1 1 1 1 1 1 1 1 1 1 1 1 1 1 1 1 1 1 1 1 1 1 1 1 1 1 1 1 1 1 1 1 1 1 1 1 1 1 1 1 1 1 1 1 1 1 1 1 1 1 1 1 1 1 1 1 1 1 1 1 1 1 1 1 1 1 1 1 1 1 1 1 1 1 1 1 1 1 1 1 1 1 1 1 1 1 1 1 1 1 1 1 1 1 1 1 1 1 1 1 1 1 1 1 1 1 1 1 1 1 1 1 1 1 1 1 1 1 1 1 1 1 1 1 1 1 1 1 1 1 1 1 1 1 1 1 1 1 1 1 1 1 1 1 1 1 1 1 1 1 1 1 1 1 1 1 1 1 1 1 1 1 1 1 1 1 1 1 1 1 1 1 1 1 1 1 1 1 1 1 1 1 }
                      2.1031183341e+00 stress_1
                     -2.1857379398e+02 stress_2
                     -4.5191117955e+02 stress_3
                     -4.5194418686e+02 stress_4
                     -1.6548383702e+02 stress_5
                      2.6318149906e+02 stress_6
                      4.4460877465e+02 stress_7
                      4.4491603764e+02 stress_8
                      2.2784813580e+02 stress_9
                     -1.4286525627e+02 stress_10
                     -4.4746556167e+02 stress_11
                     -4.5193604998e+02 stress_12
                     -4.5194903123e+02 stress_13
                     -4.5194920142e+02 stress_14
                     -1.6118995899e+02 stress_15
                     -3.0703884636e+02 stress_16
                     -4.4910687429e+02 stress_17
                     -2.7954049217e+02 stress_18
                      3.7754568276e+01 stress_19
                      3.9730577918e+02 stress_20
                      4.5103227318e+02 stress_21
                      4.5189795533e+02 stress_22
                      4.5193970489e+02 stress_23
                      4.5194430974e+02 stress_24
                      1.6058110242e+02 stress_25
                      2.7182556994e+02 stress_26
                      3.9721667659e+02 stress_27
                      4.2874073120e+02 stress_28
                      3.2195609049e+02 stress_29
                      1.3169894880e+02 stress_30
                     -1.3352354228e+02 stress_31
                     -4.0001269210e+02 stress_32
                     -4.5003391575e+02 stress_33
                     -4.5184290510e+02 stress_34
                     -4.5193984220e+02 stress_35
                     -4.5194901007e+02 stress_36
                     -4.5195062628e+02 stress_37
                     -4.5195123636e+02 stress_38
                     -4.5195162189e+02 stress_39
                     -4.5195190180e+02 stress_40
                     -4.5195209383e+02 stress_41
                     -4.5195219764e+02 stress_42
                     -4.3852178710e+02 stress_43
                     -9.1939231454e+01 stress_44
                      2.0210232500e+02 stress_45
                      2.3040050397e+01 stress_46
                     -3.0383068446e+02 stress_47
                     -4.1977401485e+01 stress_48
                     -1.3136054926e+02 stress_49
                     -2.7087304979e+02 stress_50
                     -4.4650941235e+02 stress_51
                     -2.9851172705e+02 stress_52
                      1.9343488376e+01 stress_53
                      3.5452782608e+02 stress_54
                      4.4037649635e+02 stress_55
                      4.4908174207e+02 stress_56
                      4.5028528581e+02 stress_57
                      3.7527302202e+02 stress_58
                      9.4212723389e+01 stress_59
                     -3.0341990014e+02 stress_60
                     -4.4865598397e+02 stress_61
                     -4.5172360938e+02 stress_62
                     -4.5184707454e+02 stress_63
                     -2.1629703404e+02 stress_64
                      1.7938951240e+02 stress_65
                      2.9248627408e+02 stress_66
                      5.5050974335e+01 stress_67
                     -3.5445893585e+02 stress_68
                     -4.5097024493e+02 stress_69
                     -4.5106664912e+02 stress_70
                     -3.6817753608e+02 stress_71
                     -2.1624130123e+02 stress_72
                     -1.0119022295e-01 stress_73
                      2.5349220898e+02 stress_74
                      4.1154668870e+02 stress_75
                      4.4557963559e+02 stress_76
                      4.5070498437e+02 stress_77
                      4.5163741452e+02 stress_78
                      4.5185258804e+02 stress_79
                      4.5191355695e+02 stress_80
                      4.5193415442e+02 stress_81
                      4.5194228687e+02 stress_82
                      4.5194598397e+02 stress_83
                      4.5194788577e+02 stress_84
                      4.5194896126e+02 stress_85
                      4.5194960010e+02 stress_86
                      4.5194996955e+02 stress_87
                      4.5195014284e+02 stress_88
                      3.8791065458e+02 stress_89
                     -1.2549849028e+01 stress_90
                     -2.4216924317e+02 stress_91
                      1.0044002032e+01 stress_92
                      3.7239938845e+02 stress_93
                      3.8302367886e+02 stress_94
                      3.3073518961e+02 stress_95
                      2.3634003670e+02 stress_96
                      1.0090900438e+02 stress_97
                     -7.2305702639e+01 stress_98
                     -2.6090985933e+02 stress_99
                     -3.9119671229e+02 stress_100
                     -4.3665743384e+02 stress_101
                     -4.4787119264e+02 stress_102
                     -4.5070600591e+02 stress_103
                     -4.5151841270e+02 stress_104
                     -4.5178280158e+02 stress_105
                     -4.5187914048e+02 stress_106
                     -4.5191792568e+02 stress_107
                     -4.5193502318e+02 stress_108
                     -4.5194324164e+02 stress_109
                     -4.5194755014e+02 stress_110
                     -4.5195002009e+02 stress_111
                     -4.5195157081e+02 stress_112
                     -4.5195263342e+02 stress_113
                     -4.5195341959e+02 stress_114
                     -4.5195403735e+02 stress_115
                     -4.5195454357e+02 stress_116
                     -4.5195496876e+02 stress_117
                     -4.5195532954e+02 stress_118
                     -4.5195563487e+02 stress_119
                     -4.5195588939e+02 stress_120
                     -4.5195609553e+02 stress_121
                     -4.5195625435e+02 stress_122
                     -4.5195636622e+02 stress_123
                     -4.5195643128e+02 stress_124
                     -4.5195644871e+02 stress_125
                     -3.6282174040e+02 stress_126
                     -1.3933151957e+02 stress_127
                      1.6810799761e+02 stress_128
                      3.7719831411e+02 stress_129
                      4.3351265466e+02 stress_130
                      4.4557658057e+02 stress_131
                      4.4878794693e+02 stress_132
                      4.4977188013e+02 stress_133
                      4.4981904653e+02 stress_134
                      9.0566513062e+01 stress_135
                      6.9762795547e+01 stress_136
                      2.3558331487e+02 stress_137
                      2.0420033088e+02 stress_138
                      5.3348519304e+01 stress_139
                     -2.3324559548e+02 stress_140
                     -4.4339232098e+02 stress_141
                     -4.5175662522e+02 stress_142
                     -4.5194128710e+02 stress_143
                     -4.5195401466e+02 stress_144
                     -4.5195587059e+02 stress_145
                     -4.3424098278e+02 stress_146
                     -2.2573555252e+02 stress_147
                      1.1296395371e+02 stress_148
                      3.6156288110e+02 stress_149
                      4.2669920597e+02 stress_150
                      4.3960444009e+02 stress_151
                      4.4081440281e+02 stress_152
                      2.5237933790e+02 stress_153
                     -9.9276670500e+01 stress_154
                     -4.2438092952e+02 stress_155
                     -4.5119194885e+02 stress_156
                     -4.5179147470e+02 stress_157
                     -3.4508744011e+02 stress_158
                      3.2834248800e+01 stress_159
                      2.3214408074e+02 stress_160
                      8.7229126210e+01 stress_161
                     -2.9366528340e+02 stress_162
                     -4.5086721583e+02 stress_163
                     -4.5153179219e+02 stress_164
                     -4.1526479443e+02 stress_165
                     -3.4367554163e+02 stress_166
                     -2.3731197974e+02 stress_167
                     -9.7527913820e+01 stress_168
                      6.8936291203e+01 stress_169
                      2.3597059234e+02 stress_170
                      3.5620541772e+02 stress_171
                      4.1471672373e+02 stress_172
                      4.3741421802e+02 stress_173
                      4.4589744115e+02 stress_174
                      4.4922935307e+02 stress_175
                      4.5063474963e+02 stress_176
                      4.5127108359e+02 stress_177
                      4.5157850185e+02 stress_178
                      4.5173587840e+02 stress_179
                      4.5182074104e+02 stress_180
                      4.5186870410e+02 stress_181
                      4.5189700152e+02 stress_182
                      4.5191437684e+02 stress_183
                      4.5192545398e+02 stress_184
                      4.5193277336e+02 stress_185
                      4.5193777842e+02 stress_186
                      4.5194131510e+02 stress_187
                      4.5194389323e+02 stress_188
                      4.5194582764e+02 stress_189
                      4.5194731744e+02 stress_190
                      4.5194849100e+02 stress_191
                      4.5194943250e+02 stress_192
                      4.5195019831e+02 stress_193
                      4.5195082639e+02 stress_194
                      4.5195134265e+02 stress_195
                      4.5195176511e+02 stress_196
                      4.5195210609e+02 stress_197
                      4.5195237426e+02 stress_198
                      4.5195257553e+02 stress_199
                      4.5195271378e+02 stress_200
                      4.5195279156e+02 stress_201
                      4.5195279535e+02 stress_202
                      1.3205263397e+02 stress_203
                     -2.0589068179e+02 stress_204
                     -1.1130534118e+02 stress_205
                      2.8291428892e+02 stress_206
                      3.0384356953e+02 stress_207
                      2.4753546998e+02 stress_208
                      1.4518827086e+02 stress_209
                     -9.8881857393e-01 stress_210
                     -1.7729834474e+02 stress_211
                     -3.3125315880e+02 stress_212
                     -4.1055070545e+02 stress_213
                     -4.3804052288e+02 stress_214
                     -4.4682689634e+02 stress_215
                     -4.4984605368e+02 stress_216
                     -4.5099584643e+02 stress_217
                     -4.5147860011e+02 stress_218
                     -4.5169943889e+02 stress_219
                     -4.5180828420e+02 stress_220
                     -4.5186555753e+02 stress_221
                     -4.5189749428e+02 stress_222
                     -4.5191625635e+02 stress_223
                     -4.5192781230e+02 stress_224
                     -4.5193524317e+02 stress_225
                     -4.5194021097e+02 stress_226
                     -4.5194364833e+02 stress_227
                     -4.5194609742e+02 stress_228
                     -4.5194788228e+02 stress_229
                     -4.5194920268e+02 stress_230
                     -4.5195018386e+02 stress_231
                     -4.5195090539e+02 stress_232
                     -4.5195141871e+02 stress_233
                     -4.5195175613e+02 stress_234
                     -4.5195193693e+02 stress_235
                     -4.4631407736e+02 stress_236
                     -1.2366168672e+02 stress_237
                      1.6799667359e+02 stress_238
                     -2.6352661500e+01 stress_239
                     -3.0695247579e+02 stress_240
                     -1.2960945304e+01 stress_241
                      1.6199157815e+02 stress_242
                     -1.4045972947e+02 stress_243
                     -2.8249757509e+02 stress_244
                     -4.1221781689e+02 stress_245
                     -2.5085516747e+02 stress_246
                      6.8118604736e+01 stress_247
                      3.5066902364e+02 stress_248
                      4.2912326413e+02 stress_249
                      4.4308765440e+02 stress_250
                      4.4567551478e+02 stress_251
                      3.5407487198e+02 stress_252
                      6.3692464840e+01 stress_253
                     -3.0425682246e+02 stress_254
                     -4.3504639919e+02 stress_255
                     -4.4788007177e+02 stress_256
                     -4.4910548198e+02 stress_257
                     -2.0569293712e+02 stress_258
                      1.7483817896e+02 stress_259
                      3.0289333995e+02 stress_260
                      1.1502395988e+02 stress_261
                     -2.7100156404e+02 stress_262
                     -4.3374146341e+02 stress_263
                     -4.4196280567e+02 stress_264
                     -4.0545036167e+02 stress_265
                     -3.2343123170e+02 stress_266
                     -1.9689592420e+02 stress_267
                     -2.9003737121e+01 stress_268
                      1.6347049425e+02 stress_269
                      3.2514572190e+02 stress_270
                      4.0772713422e+02 stress_271
                      4.3688984881e+02 stress_272
                      4.4637928582e+02 stress_273
                      4.4966852441e+02 stress_274
                      4.5092267172e+02 stress_275
                      4.5144715129e+02 stress_276
                      4.5168537760e+02 stress_277
                      4.5180173906e+02 stress_278
                      4.5186235022e+02 stress_279
                      4.5189579094e+02 stress_280
                      4.5191522688e+02 stress_281
                      4.5192707335e+02 stress_282
                      4.5193461537e+02 stress_283
                      4.5193961157e+02 stress_284
                      4.5194304037e+02 stress_285
                      4.5194546612e+02 stress_286
                      4.5194722409e+02 stress_287
                      4.5194851872e+02 stress_288
                      4.5194947784e+02 stress_289
                      4.5195018236e+02 stress_290
                      4.5195068379e+02 stress_291
                      4.5195101486e+02 stress_292
                      4.5195119504e+02 stress_293
                      4.5195119766e+02 stress_294
                      1.2129263064e+02 stress_295
                     -2.0765100740e+02 stress_296
                     -9.4224975710e+01 stress_297
                      2.9392188272e+02 stress_298
                      3.1145674845e+02 stress_299
                      2.7366330317e+02 stress_300
                      2.0547635480e+02 stress_301
                      1.0733926200e+02 stress_302
                     -1.8806254679e+01 stress_303
                     -1.6360630471e+02 stress_304
                     -2.9754647589e+02 stress_305
                     -3.8444260273e+02 stress_306
                     -4.2470527932e+02 stress_307
                     -4.4068057083e+02 stress_308
                     -4.4698096747e+02 stress_309
                     -4.4960103168e+02 stress_310
                     -4.5076543705e+02 stress_311
                     -4.5131737670e+02 stress_312
                     -4.5159473825e+02 stress_313
                     -4.5174161164e+02 stress_314
                     -4.5182312093e+02 stress_315
                     -4.5187031401e+02 stress_316
                     -4.5189872214e+02 stress_317
                     -4.5191645286e+02 stress_318
                     -4.5192790536e+02 stress_319
                     -4.5193555102e+02 stress_320
                     -4.5194082180e+02 stress_321
                     -4.5194457176e+02 stress_322
                     -4.5194732319e+02 stress_323
                     -4.5194940323e+02 stress_324
                     -4.5195102113e+02 stress_325
                     -4.5195231311e+02 stress_326
                     -4.5195336961e+02 stress_327
                     -4.5195425131e+02 stress_328
                     -4.5195499976e+02 stress_329
                     -4.5195564350e+02 stress_330
                     -4.5195620236e+02 stress_331
                     -4.5195669030e+02 stress_332
                     -4.5195711709e+02 stress_333
                     -4.5195748966e+02 stress_334
                     -4.5195781294e+02 stress_335
                     -4.5195809028e+02 stress_336
                     -4.5195832420e+02 stress_337
                     -4.5195851636e+02 stress_338
                     -4.5195866790e+02 stress_339
                     -4.5195877965e+02 stress_340
                     -4.5195885210e+02 stress_341
                     -4.5195888554e+02 stress_342


Active response data for evaluation 41:
Active set vector = { 1 1 1 1 1 1 1 1 1 1 1 1 1 1 1 1 1 1 1 1 1 1 1 1 1 1 1 1 1 1 1 1 1 1 1 1 1 1 1 1 1 1 1 1 1 1 1 1 1 1 1 1 1 1 1 1 1 1 1 1 1 1 1 1 1 1 1 1 1 1 1 1 1 1 1 1 1 1 1 1 1 1 1 1 1 1 1 1 1 1 1 1 1 1 1 1 1 1 1 1 1 1 1 1 1 1 1 1 1 1 1 1 1 1 1 1 1 1 1 1 1 1 1 1 1 1 1 1 1 1 1 1 1 1 1 1 1 1 1 1 1 1 1 1 1 1 1 1 1 1 1 1 1 1 1 1 1 1 1 1 1 1 1 1 1 1 1 1 1 1 1 1 1 1 1 1 1 1 1 1 1 1 1 1 1 1 1 1 1 1 1 1 1 1 1 1 1 1 1 1 1 1 1 1 1 1 1 1 1 1 1 1 1 1 1 1 1 1 1 1 1 1 1 1 1 1 1 1 1 1 1 1 1 1 1 1 1 1 1 1 1 1 1 1 1 1 1 1 1 1 1 1 1 1 1 1 1 1 1 1 1 1 1 1 1 1 1 1 1 1 1 1 1 1 1 1 1 1 1 1 1 1 1 1 1 1 1 1 1 1 1 1 1 1 1 1 1 1 1 1 1 1 1 1 1 1 1 1 1 1 1 1 1 1 1 1 1 1 1 1 1 1 1 1 1 1 1 1 1 1 1 1 1 1 1 1 1 1 1 1 1 1 }
                      2.1010173167e+00 stress_1
                     -2.1835543866e+02 stress_2
                     -4.5191212888e+02 stress_3
                     -4.5194647881e+02 stress_4
                     -1.6577230314e+02 stress_5
                      2.6248201360e+02 stress_6
                      4.4450458408e+02 stress_7
                      4.4481603144e+02 stress_8
                      2.2796498066e+02 stress_9
                     -1.4237843395e+02 stress_10
                     -4.4741065945e+02 stress_11
                     -4.5194228769e+02 stress_12
                     -4.5195797383e+02 stress_13
                     -4.5195838247e+02 stress_14
                     -1.6148960770e+02 stress_15
                     -3.0719279188e+02 stress_16
                     -4.4911915664e+02 stress_17
                     -2.7972217150e+02 stress_18
                      3.7256543158e+01 stress_19
                      3.9689352799e+02 stress_20
                      4.5101954886e+02 stress_21
                      4.5189638883e+02 stress_22
                      4.5194118497e+02 stress_23
                      4.5194698037e+02 stress_24
                      1.6087484040e+02 stress_25
                      2.7200817458e+02 stress_26
                      3.9727401769e+02 stress_27
                      4.2876661212e+02 stress_28
                      3.2208864937e+02 stress_29
                      1.3202156692e+02 stress_30
                     -1.3294383258e+02 stress_31
                     -3.9965294537e+02 stress_32
                     -4.5002149938e+02 stress_33
                     -4.5184770177e+02 stress_34
                     -4.5194948013e+02 stress_35
                     -4.5196300297e+02 stress_36
                     -4.5196875848e+02 stress_37
                     -4.5197314687e+02 stress_38
                     -4.5197679504e+02 stress_39
                     -4.5197968491e+02 stress_40
                     -4.5198172666e+02 stress_41
                     -4.5198284248e+02 stress_42
                     -4.3856584893e+02 stress_43
                     -9.2328278771e+01 stress_44
                      2.0151347218e+02 stress_45
                      2.2630080968e+01 stress_46
                     -3.0391466518e+02 stress_47
                     -4.2322587802e+01 stress_48
                     -1.3161644172e+02 stress_49
                     -2.7098956979e+02 stress_50
                     -4.4652373098e+02 stress_51
                     -2.9867389358e+02 stress_52
                      1.8872238400e+01 stress_53
                      3.5412549453e+02 stress_54
                      4.4029870083e+02 stress_55
                      4.4904701925e+02 stress_56
                      4.5025699561e+02 stress_57
                      3.7531966915e+02 stress_58
                      9.4540139660e+01 stress_59
                     -3.0280118898e+02 stress_60
                     -4.4865307443e+02 stress_61
                     -4.5175016928e+02 stress_62
                     -4.5187551865e+02 stress_63
                     -2.1656074607e+02 stress_64
                      1.7880082101e+02 stress_65
                      2.9194842577e+02 stress_66
                      5.4750324126e+01 stress_67
                     -3.5437339775e+02 stress_68
                     -4.5099788200e+02 stress_69
                     -4.5109466184e+02 stress_70
                     -3.6828835509e+02 stress_71
                     -2.1650384957e+02 stress_72
                     -5.7322094586e-01 stress_73
                      2.5292331495e+02 stress_74
                      4.1133287990e+02 stress_75
                      4.4552681949e+02 stress_76
                      4.5067919720e+02 stress_77
                      4.5161937721e+02 stress_78
                      4.5183957032e+02 stress_79
                      4.5190504523e+02 stress_80
                      4.5192991606e+02 stress_81
                      4.5194205761e+02 stress_82
                      4.5194941209e+02 stress_83
                      4.5195452770e+02 stress_84
                      4.5195828873e+02 stress_85
                      4.5196101391e+02 stress_86
                      4.5196281531e+02 stress_87
                      4.5196372700e+02 stress_88
                      3.8798821423e+02 stress_89
                     -1.2085049393e+01 stress_90
                     -2.4163756707e+02 stress_91
                      1.0323716843e+01 stress_92
                      3.7233336857e+02 stress_93
                      3.8295361555e+02 stress_94
                      3.3071736254e+02 stress_95
                      2.3641650145e+02 stress_96
                      1.0112008599e+02 stress_97
                     -7.1936844944e+01 stress_98
                     -2.6048804365e+02 stress_99
                     -3.9098024322e+02 stress_100
                     -4.3659485048e+02 stress_101
                     -4.4785237030e+02 stress_102
                     -4.5069977550e+02 stress_103
                     -4.5151806341e+02 stress_104
                     -4.5178690973e+02 stress_105
                     -4.5188745077e+02 stress_106
                     -4.5193044554e+02 stress_107
                     -4.5195180264e+02 stress_108
                     -4.5196431400e+02 stress_109
                     -4.5197291465e+02 stress_110
                     -4.5197963649e+02 stress_111
                     -4.5198535757e+02 stress_112
                     -4.5199046836e+02 stress_113
                     -4.5199514086e+02 stress_114
                     -4.5199944468e+02 stress_115
                     -4.5200340040e+02 stress_116
                     -4.5200700415e+02 stress_117
                     -4.5201024160e+02 stress_118
                     -4.5201309337e+02 stress_119
                     -4.5201553847e+02 stress_120
                     -4.5201755825e+02 stress_121
                     -4.5201913568e+02 stress_122
                     -4.5202025696e+02 stress_123
                     -4.5202091264e+02 stress_124
                     -4.5202108875e+02 stress_125
                     -3.6297542347e+02 stress_126
                     -1.3970562923e+02 stress_127
                      1.6754717491e+02 stress_128
                      3.7689572589e+02 stress_129
                      4.3339160772e+02 stress_130
                      4.4550138644e+02 stress_131
                      4.4872635809e+02 stress_132
                      4.4971513673e+02 stress_133
                      4.4976255517e+02 stress_134
                      9.0868833450e+01 stress_135
                      7.0085834765e+01 stress_136
                      2.3574160176e+02 stress_137
                      2.0438996940e+02 stress_138
                      5.3688857857e+01 stress_139
                     -2.3263768197e+02 stress_140
                     -4.4335757242e+02 stress_141
                     -4.5181132428e+02 stress_142
                     -4.5200131743e+02 stress_143
                     -4.5201699542e+02 stress_144
                     -4.5202035689e+02 stress_145
                     -4.3432316628e+02 stress_146
                     -2.2602556194e+02 stress_147
                      1.1240909727e+02 stress_148
                      3.6121956134e+02 stress_149
                      4.2655353156e+02 stress_150
                      4.3950623294e+02 stress_151
                      4.4072079228e+02 stress_152
                      2.5247397418e+02 stress_153
                     -9.8832228125e+01 stress_154
                     -4.2420498153e+02 stress_155
                     -4.5124723554e+02 stress_156
                     -4.5185327028e+02 stress_157
                     -3.4525582643e+02 stress_158
                      3.2319618124e+01 stress_159
                      2.3160738854e+02 stress_160
                      8.6837204195e+01 stress_161
                     -2.9367932920e+02 stress_162
                     -4.5092814111e+02 stress_163
                     -4.5159526288e+02 stress_164
                     -4.1536449587e+02 stress_165
                     -3.4384675319e+02 stress_166
                     -2.3758910671e+02 stress_167
                     -9.7939377614e+01 stress_168
                      6.8400170534e+01 stress_169
                      2.3543668791e+02 stress_170
                      3.5584964414e+02 stress_171
                      4.1452946489e+02 stress_172
                      4.3730777017e+02 stress_173
                      4.4582360343e+02 stress_174
                      4.4916989772e+02 stress_175
                      4.5058321116e+02 stress_176
                      4.5122514082e+02 stress_177
                      4.5153731570e+02 stress_178
                      4.5169915847e+02 stress_179
                      4.5178840262e+02 stress_180
                      4.5184073456e+02 stress_181
                      4.5187340456e+02 stress_182
                      4.5189514871e+02 stress_183
                      4.5191057223e+02 stress_184
                      4.5192219203e+02 stress_185
                      4.5193142557e+02 stress_186
                      4.5193909202e+02 stress_187
                      4.5194567448e+02 stress_188
                      4.5195146135e+02 stress_189
                      4.5195662624e+02 stress_190
                      4.5196127317e+02 stress_191
                      4.5196546274e+02 stress_192
                      4.5196923006e+02 stress_193
                      4.5197259291e+02 stress_194
                      4.5197555851e+02 stress_195
                      4.5197812892e+02 stress_196
                      4.5198030163e+02 stress_197
                      4.5198207336e+02 stress_198
                      4.5198343996e+02 stress_199
                      4.5198439715e+02 stress_200
                      4.5198494227e+02 stress_201
                      4.5198496895e+02 stress_202
                      1.3240009005e+02 stress_203
                     -2.0538608620e+02 stress_204
                     -1.1089523644e+02 stress_205
                      2.8293113028e+02 stress_206
                      3.0384022306e+02 stress_207
                      2.4758837445e+02 stress_208
                      1.4534320080e+02 stress_209
                     -6.9446250501e-01 stress_210
                     -1.7689491087e+02 stress_211
                     -3.3093106898e+02 stress_212
                     -4.1039855169e+02 stress_213
                     -4.3797315028e+02 stress_214
                     -4.4678995220e+02 stress_215
                     -4.4982155124e+02 stress_216
                     -4.5097831960e+02 stress_217
                     -4.5146634363e+02 stress_218
                     -4.5169191074e+02 stress_219
                     -4.5180531170e+02 stress_220
                     -4.5186707540e+02 stress_221
                     -4.5190345061e+02 stress_222
                     -4.5192657674e+02 stress_223
                     -4.5194238544e+02 stress_224
                     -4.5195391570e+02 stress_225
                     -4.5196278604e+02 stress_226
                     -4.5196988622e+02 stress_227
                     -4.5197571808e+02 stress_228
                     -4.5198056710e+02 stress_229
                     -4.5198459892e+02 stress_230
                     -4.5198790819e+02 stress_231
                     -4.5199054748e+02 stress_232
                     -4.5199254719e+02 stress_233
                     -4.5199392262e+02 stress_234
                     -4.5199468083e+02 stress_235
                     -4.4636245349e+02 stress_236
                     -1.2402889500e+02 stress_237
                      1.6745498647e+02 stress_238
                     -2.6700208611e+01 stress_239
                     -3.0704098393e+02 stress_240
                     -1.3338788870e+01 stress_241
                      1.6149386372e+02 stress_242
                     -1.4065600333e+02 stress_243
                     -2.8256719368e+02 stress_244
                     -4.1225247427e+02 stress_245
                     -2.5105094608e+02 stress_246
                      6.7639856505e+01 stress_247
                      3.5032600030e+02 stress_248
                      4.2900742639e+02 stress_249
                      4.4302348375e+02 stress_250
                      4.4562143525e+02 stress_251
                      3.5411230155e+02 stress_252
                      6.4018445454e+01 stress_253
                     -3.0380773340e+02 stress_254
                     -4.3500419300e+02 stress_255
                     -4.4790327156e+02 stress_256
                     -4.4913512184e+02 stress_257
                     -2.0596511596e+02 stress_258
                      1.7430895994e+02 stress_259
                      3.0245872245e+02 stress_260
                      1.1477701826e+02 stress_261
                     -2.7091098573e+02 stress_262
                     -4.3375570529e+02 stress_263
                     -4.4199230978e+02 stress_264
                     -4.0551634174e+02 stress_265
                     -3.2357913704e+02 stress_266
                     -1.9716953917e+02 stress_267
                     -2.9432638459e+01 stress_268
                      1.6294597290e+02 stress_269
                      3.2475085503e+02 stress_270
                      4.0753968144e+02 stress_271
                      4.3680339087e+02 stress_272
                      4.4632890421e+02 stress_273
                      4.4963249610e+02 stress_274
                      4.5089431194e+02 stress_275
                      4.5142434031e+02 stress_276
                      4.5166741836e+02 stress_277
                      4.5178839216e+02 stress_278
                      4.5185351614e+02 stress_279
                      4.5189139710e+02 stress_280
                      4.5191518480e+02 stress_281
                      4.5193126182e+02 stress_282
                      4.5194287399e+02 stress_283
                      4.5195173922e+02 stress_284
                      4.5195879535e+02 stress_285
                      4.5196456836e+02 stress_286
                      4.5196935765e+02 stress_287
                      4.5197333457e+02 stress_288
                      4.5197659825e+02 stress_289
                      4.5197920453e+02 stress_290
                      4.5198118405e+02 stress_291
                      4.5198255380e+02 stress_292
                      4.5198332171e+02 stress_293
                      4.5198333301e+02 stress_294
                      1.2164998403e+02 stress_295
                     -2.0714723494e+02 stress_296
                     -9.3834515965e+01 stress_297
                      2.9392550293e+02 stress_298
                      3.1144373391e+02 stress_299
                      2.7368804421e+02 stress_300
                      2.0556918993e+02 stress_301
                      1.0752937207e+02 stress_302
                     -1.8499189641e+01 stress_303
                     -1.6321034073e+02 stress_304
                     -2.9718771369e+02 stress_305
                     -3.8422578380e+02 stress_306
                     -4.2459691843e+02 stress_307
                     -4.4062293399e+02 stress_308
                     -4.4694510582e+02 stress_309
                     -4.4957572019e+02 stress_310
                     -4.5074650892e+02 stress_311
                     -4.5130328441e+02 stress_312
                     -4.5158492402e+02 stress_313
                     -4.5173590478e+02 stress_314
                     -4.5182150371e+02 stress_315
                     -4.5187282569e+02 stress_316
                     -4.5190541767e+02 stress_317
                     -4.5192738388e+02 stress_318
                     -4.5194311110e+02 stress_319
                     -4.5195505395e+02 stress_320
                     -4.5196462512e+02 stress_321
                     -4.5197265845e+02 stress_322
                     -4.5197965519e+02 stress_323
                     -4.5198592146e+02 stress_324
                     -4.5199164577e+02 stress_325
                     -4.5199694343e+02 stress_326
                     -4.5200188497e+02 stress_327
                     -4.5200651099e+02 stress_328
                     -4.5201084444e+02 stress_329
                     -4.5201489574e+02 stress_330
                     -4.5201866718e+02 stress_331
                     -4.5202215672e+02 stress_332
                     -4.5202535864e+02 stress_333
                     -4.5202826597e+02 stress_334
                     -4.5203087103e+02 stress_335
                     -4.5203316491e+02 stress_336
                     -4.5203514055e+02 stress_337
                     -4.5203679047e+02 stress_338
                     -4.5203810836e+02 stress_339
                     -4.5203908938e+02 stress_340
                     -4.5203972948e+02 stress_341
                     -4.5204002596e+02 stress_342


Active response data for evaluation 42:
Active set vector = { 1 1 1 1 1 1 1 1 1 1 1 1 1 1 1 1 1 1 1 1 1 1 1 1 1 1 1 1 1 1 1 1 1 1 1 1 1 1 1 1 1 1 1 1 1 1 1 1 1 1 1 1 1 1 1 1 1 1 1 1 1 1 1 1 1 1 1 1 1 1 1 1 1 1 1 1 1 1 1 1 1 1 1 1 1 1 1 1 1 1 1 1 1 1 1 1 1 1 1 1 1 1 1 1 1 1 1 1 1 1 1 1 1 1 1 1 1 1 1 1 1 1 1 1 1 1 1 1 1 1 1 1 1 1 1 1 1 1 1 1 1 1 1 1 1 1 1 1 1 1 1 1 1 1 1 1 1 1 1 1 1 1 1 1 1 1 1 1 1 1 1 1 1 1 1 1 1 1 1 1 1 1 1 1 1 1 1 1 1 1 1 1 1 1 1 1 1 1 1 1 1 1 1 1 1 1 1 1 1 1 1 1 1 1 1 1 1 1 1 1 1 1 1 1 1 1 1 1 1 1 1 1 1 1 1 1 1 1 1 1 1 1 1 1 1 1 1 1 1 1 1 1 1 1 1 1 1 1 1 1 1 1 1 1 1 1 1 1 1 1 1 1 1 1 1 1 1 1 1 1 1 1 1 1 1 1 1 1 1 1 1 1 1 1 1 1 1 1 1 1 1 1 1 1 1 1 1 1 1 1 1 1 1 1 1 1 1 1 1 1 1 1 1 1 1 1 1 1 1 1 1 1 1 1 1 1 1 1 1 1 1 1 }
                      2.1010173167e+00 stress_1
                     -2.1835543866e+02 stress_2
                     -4.5191042236e+02 stress_3
                     -4.5194409075e+02 stress_4
                     -1.6576991508e+02 stress_5
                      2.6248344341e+02 stress_6
                      4.4450129863e+02 stress_7
                      4.4481283375e+02 stress_8
                      2.2796178297e+02 stress_9
                     -1.4238161394e+02 stress_10
                     -4.4740689361e+02 stress_11
                     -4.5193591451e+02 stress_12
                     -4.5194902430e+02 stress_13
                     -4.5194919573e+02 stress_14
                     -1.6148042158e+02 stress_15
                     -3.0718360575e+02 stress_16
                     -4.4910971171e+02 stress_17
                     -2.7971272657e+02 stress_18
                      3.7265743907e+01 stress_19
                      3.9686280692e+02 stress_20
                      4.5102080767e+02 stress_21
                      4.5189728123e+02 stress_22
                      4.5193957491e+02 stress_23
                      4.5194423987e+02 stress_24
                      1.6087210288e+02 stress_25
                      2.7200543706e+02 stress_26
                      3.9727127876e+02 stress_27
                      4.2876385264e+02 stress_28
                      3.2208588990e+02 stress_29
                      1.3201881216e+02 stress_30
                     -1.3294370967e+02 stress_31
                     -3.9960220356e+02 stress_32
                     -4.5001161487e+02 stress_33
                     -4.5184156992e+02 stress_34
                     -4.5193970586e+02 stress_35
                     -4.5194898678e+02 stress_36
                     -4.5195061874e+02 stress_37
                     -4.5195123164e+02 stress_38
                     -4.5195161767e+02 stress_39
                     -4.5195189759e+02 stress_40
                     -4.5195208953e+02 stress_41
                     -4.5195219328e+02 stress_42
                     -4.3853519973e+02 stress_43
                     -9.2299334935e+01 stress_44
                      2.0147301224e+02 stress_45
                      2.2589621027e+01 stress_46
                     -3.0395470722e+02 stress_47
                     -4.2363153950e+01 stress_48
                     -1.3165700787e+02 stress_49
                     -2.7103013543e+02 stress_50
                     -4.4650931292e+02 stress_51
                     -2.9865947925e+02 stress_52
                      1.8877051190e+01 stress_53
                      3.5397765600e+02 stress_54
                      4.4024681380e+02 stress_55
                      4.4904248347e+02 stress_56
                      4.5026104951e+02 stress_57
                      3.7532372305e+02 stress_58
                      9.4544197878e+01 stress_59
                     -3.0277908791e+02 stress_60
                     -4.4861940290e+02 stress_61
                     -4.5172103250e+02 stress_62
                     -4.5184588562e+02 stress_63
                     -2.1653118794e+02 stress_64
                      1.7877663195e+02 stress_65
                      2.9185349362e+02 stress_66
                      5.4655391969e+01 stress_67
                     -3.5445499818e+02 stress_68
                     -4.5096885577e+02 stress_69
                     -4.5106539782e+02 stress_70
                     -3.6825909111e+02 stress_71
                     -2.1647467760e+02 stress_72
                     -5.5154030942e-01 stress_73
                      2.5284834524e+02 stress_74
                      4.1121049233e+02 stress_75
                      4.4550123608e+02 stress_76
                      4.5068633543e+02 stress_77
                      4.5163209188e+02 stress_78
                      4.5185077410e+02 stress_79
                      4.5191283388e+02 stress_80
                      4.5193382318e+02 stress_81
                      4.5194211478e+02 stress_82
                      4.5194588356e+02 stress_83
                      4.5194782049e+02 stress_84
                      4.5194891435e+02 stress_85
                      4.5194956311e+02 stress_86
                      4.5194993783e+02 stress_87
                      4.5195011345e+02 stress_88
                      3.8797460075e+02 stress_89
                     -1.2080436004e+01 stress_90
                     -2.4150626603e+02 stress_91
                      1.0455017887e+01 stress_92
                      3.7245118780e+02 stress_93
                      3.8306599293e+02 stress_94
                      3.3082973995e+02 stress_95
                      2.3652890092e+02 stress_96
                      1.0123376924e+02 stress_97
                     -7.1803208505e+01 stress_98
                     -2.6026178147e+02 stress_99
                     -3.9073734555e+02 stress_100
                     -4.3647915790e+02 stress_101
                     -4.4781112823e+02 stress_102
                     -4.5068463028e+02 stress_103
                     -4.5151008420e+02 stress_104
                     -4.5177925352e+02 stress_105
                     -4.5187750096e+02 stress_106
                     -4.5191711040e+02 stress_107
                     -4.5193458971e+02 stress_108
                     -4.5194299638e+02 stress_109
                     -4.5194740293e+02 stress_110
                     -4.5194992651e+02 stress_111
                     -4.5195150787e+02 stress_112
                     -4.5195258865e+02 stress_113
                     -4.5195338597e+02 stress_114
                     -4.5195401076e+02 stress_115
                     -4.5195452152e+02 stress_116
                     -4.5195494970e+02 stress_117
                     -4.5195531247e+02 stress_118
                     -4.5195561915e+02 stress_119
                     -4.5195587458e+02 stress_120
                     -4.5195608134e+02 stress_121
                     -4.5195624056e+02 stress_122
                     -4.5195635269e+02 stress_123
                     -4.5195641789e+02 stress_124
                     -4.5195643535e+02 stress_125
                     -3.6291078118e+02 stress_126
                     -1.3964885693e+02 stress_127
                      1.6742714815e+02 stress_128
                      3.7660447657e+02 stress_129
                      4.3326606180e+02 stress_130
                      4.4546891961e+02 stress_131
                      4.4872771226e+02 stress_132
                      4.4972796340e+02 stress_133
                      4.4977594272e+02 stress_134
                      9.0882276213e+01 stress_135
                      7.0099317701e+01 stress_136
                      2.3574838611e+02 stress_137
                      2.0439675375e+02 stress_138
                      5.3695642968e+01 stress_139
                     -2.3262418322e+02 stress_140
                     -4.4328369654e+02 stress_141
                     -4.5175361036e+02 stress_142
                     -4.5194102525e+02 stress_143
                     -4.5195395037e+02 stress_144
                     -4.5195583417e+02 stress_145
                     -4.3425864356e+02 stress_146
                     -2.2596255686e+02 stress_147
                      1.1234720545e+02 stress_148
                      3.6091886091e+02 stress_149
                      4.2639015041e+02 stress_150
                      4.3942248126e+02 stress_151
                      4.4064645716e+02 stress_152
                      2.5239963907e+02 stress_153
                     -9.8905977389e+01 stress_154
                     -4.2416230798e+02 stress_155
                     -4.5118465252e+02 stress_156
                     -4.5178989264e+02 stress_157
                     -3.4519247556e+02 stress_158
                      3.2320422514e+01 stress_159
                      2.3141365623e+02 stress_160
                      8.6643471881e+01 stress_161
                     -2.9386982365e+02 stress_162
                     -4.5086924127e+02 stress_163
                     -4.5153255141e+02 stress_164
                     -4.1530178448e+02 stress_165
                     -3.4378407262e+02 stress_166
                     -2.3752754673e+02 stress_167
                     -9.7891248655e+01 stress_168
                      6.8373864205e+01 stress_169
                      2.3523253970e+02 stress_170
                      3.5554663418e+02 stress_171
                      4.1431517033e+02 stress_172
                      4.3720783861e+02 stress_173
                      4.4579421369e+02 stress_174
                      4.4917629815e+02 stress_175
                      4.5060628711e+02 stress_176
                      4.5125510669e+02 stress_177
                      4.5156913547e+02 stress_178
                      4.5173016078e+02 stress_179
                      4.5181711807e+02 stress_180
                      4.5186632809e+02 stress_181
                      4.5189539289e+02 stress_182
                      4.5191325506e+02 stress_183
                      4.5192464977e+02 stress_184
                      4.5193218163e+02 stress_185
                      4.5193733220e+02 stress_186
                      4.5194097065e+02 stress_187
                      4.5194362134e+02 stress_188
                      4.5194560841e+02 stress_189
                      4.5194713699e+02 stress_190
                      4.5194833954e+02 stress_191
                      4.5194930294e+02 stress_192
                      4.5195008545e+02 stress_193
                      4.5195072635e+02 stress_194
                      4.5195125249e+02 stress_195
                      4.5195168256e+02 stress_196
                      4.5195202934e+02 stress_197
                      4.5195230185e+02 stress_198
                      4.5195250625e+02 stress_199
                      4.5195264659e+02 stress_200
                      4.5195272551e+02 stress_201
                      4.5195272936e+02 stress_202
                      1.3238129190e+02 stress_203
                     -2.0513610113e+02 stress_204
                     -1.1064525137e+02 stress_205
                      2.8318026475e+02 stress_206
                      3.0408826567e+02 stress_207
                      2.4783642177e+02 stress_208
                      1.4559209011e+02 stress_209
                     -4.2797408149e-01 stress_210
                     -1.7652534306e+02 stress_211
                     -3.3045136286e+02 stress_212
                     -4.1005895939e+02 stress_213
                     -4.3781148295e+02 stress_214
                     -4.4672369080e+02 stress_215
                     -4.4979723922e+02 stress_216
                     -4.5097119463e+02 stress_217
                     -4.5146531992e+02 stress_218
                     -4.5169184623e+02 stress_219
                     -4.5180370270e+02 stress_220
                     -4.5186265446e+02 stress_221
                     -4.5189557089e+02 stress_222
                     -4.5191492877e+02 stress_223
                     -4.5192686055e+02 stress_224
                     -4.5193453630e+02 stress_225
                     -4.5193966828e+02 stress_226
                     -4.5194321842e+02 stress_227
                     -4.5194574660e+02 stress_228
                     -4.5194758781e+02 stress_229
                     -4.5194894876e+02 stress_230
                     -4.5194995919e+02 stress_231
                     -4.5195070161e+02 stress_232
                     -4.5195122942e+02 stress_233
                     -4.5195157615e+02 stress_234
                     -4.5195176188e+02 stress_235
                     -4.4631953454e+02 stress_236
                     -1.2399514932e+02 stress_237
                      1.6732216180e+02 stress_238
                     -2.6832989327e+01 stress_239
                     -3.0712351111e+02 stress_240
                     -1.3431397099e+01 stress_241
                      1.6132334038e+02 stress_242
                     -1.4082472691e+02 stress_243
                     -2.8270218325e+02 stress_244
                     -4.1222891802e+02 stress_245
                     -2.5102767086e+02 stress_246
                      6.7595172974e+01 stress_247
                      3.5001769970e+02 stress_248
                      4.2884086923e+02 stress_249
                      4.4294973792e+02 stress_250
                      4.4557104650e+02 stress_251
                      3.5406191286e+02 stress_252
                      6.3970046369e+01 stress_253
                     -3.0371556259e+02 stress_254
                     -4.3488843201e+02 stress_255
                     -4.4783203413e+02 stress_256
                     -4.4907034254e+02 stress_257
                     -2.0590224984e+02 stress_258
                      1.7419355086e+02 stress_259
                      3.0219178331e+02 stress_260
                      1.1451009308e+02 stress_261
                     -2.7110153416e+02 stress_262
                     -4.3369782862e+02 stress_263
                     -4.4193053384e+02 stress_264
                     -4.0545456587e+02 stress_265
                     -3.2351740749e+02 stress_266
                     -1.9710994537e+02 stress_267
                     -2.9400905117e+01 stress_268
                      1.6283989682e+02 stress_269
                      3.2446122787e+02 stress_270
                      4.0729584092e+02 stress_271
                      4.3668437818e+02 stress_272
                      4.4628558937e+02 stress_273
                      4.4962406952e+02 stress_274
                      4.5090028397e+02 stress_275
                      4.5143516800e+02 stress_276
                      4.5167858538e+02 stress_277
                      4.5179768102e+02 stress_278
                      4.5185980586e+02 stress_279
                      4.5189412324e+02 stress_280
                      4.5191408797e+02 stress_281
                      4.5192626522e+02 stress_282
                      4.5193402101e+02 stress_283
                      4.5193915938e+02 stress_284
                      4.5194268514e+02 stress_285
                      4.5194517842e+02 stress_286
                      4.5194698420e+02 stress_287
                      4.5194831306e+02 stress_288
                      4.5194929677e+02 stress_289
                      4.5195001880e+02 stress_290
                      4.5195053237e+02 stress_291
                      4.5195087126e+02 stress_292
                      4.5195105564e+02 stress_293
                      4.5195105832e+02 stress_294
                      1.2163338226e+02 stress_295
                     -2.0689491658e+02 stress_296
                     -9.3582197605e+01 stress_297
                      2.9417643843e+02 stress_298
                      3.1169333948e+02 stress_299
                      2.7393765036e+02 stress_300
                      2.0581890615e+02 stress_301
                      1.0778172864e+02 stress_302
                     -1.8224129802e+01 stress_303
                     -1.6284757188e+02 stress_304
                     -2.9671090991e+02 stress_305
                     -3.8379836783e+02 stress_306
                     -4.2433202483e+02 stress_307
                     -4.4048634317e+02 stress_308
                     -4.4688054787e+02 stress_309
                     -4.4954751315e+02 stress_310
                     -4.5073573755e+02 stress_311
                     -4.5130020215e+02 stress_312
                     -4.5158441085e+02 stress_313
                     -4.5173517319e+02 stress_314
                     -4.5181897163e+02 stress_315
                     -4.5186755721e+02 stress_316
                     -4.5189683831e+02 stress_317
                     -4.5191513160e+02 stress_318
                     -4.5192695589e+02 stress_319
                     -4.5193485300e+02 stress_320
                     -4.5194029748e+02 stress_321
                     -4.5194416980e+02 stress_322
                     -4.5194700897e+02 stress_323
                     -4.5194915297e+02 stress_324
                     -4.5195081820e+02 stress_325
                     -4.5195214568e+02 stress_326
                     -4.5195322916e+02 stress_327
                     -4.5195413159e+02 stress_328
                     -4.5195489612e+02 stress_329
                     -4.5195555246e+02 stress_330
                     -4.5195612126e+02 stress_331
                     -4.5195661710e+02 stress_332
                     -4.5195705018e+02 stress_333
                     -4.5195742777e+02 stress_334
                     -4.5195775507e+02 stress_335
                     -4.5195803562e+02 stress_336
                     -4.5195827206e+02 stress_337
                     -4.5195846617e+02 stress_338
                     -4.5195861919e+02 stress_339
                     -4.5195873199e+02 stress_340
                     -4.5195880510e+02 stress_341
                     -4.5195883884e+02 stress_342


Active response data for evaluation 43:
Active set vector = { 1 1 1 1 1 1 1 1 1 1 1 1 1 1 1 1 1 1 1 1 1 1 1 1 1 1 1 1 1 1 1 1 1 1 1 1 1 1 1 1 1 1 1 1 1 1 1 1 1 1 1 1 1 1 1 1 1 1 1 1 1 1 1 1 1 1 1 1 1 1 1 1 1 1 1 1 1 1 1 1 1 1 1 1 1 1 1 1 1 1 1 1 1 1 1 1 1 1 1 1 1 1 1 1 1 1 1 1 1 1 1 1 1 1 1 1 1 1 1 1 1 1 1 1 1 1 1 1 1 1 1 1 1 1 1 1 1 1 1 1 1 1 1 1 1 1 1 1 1 1 1 1 1 1 1 1 1 1 1 1 1 1 1 1 1 1 1 1 1 1 1 1 1 1 1 1 1 1 1 1 1 1 1 1 1 1 1 1 1 1 1 1 1 1 1 1 1 1 1 1 1 1 1 1 1 1 1 1 1 1 1 1 1 1 1 1 1 1 1 1 1 1 1 1 1 1 1 1 1 1 1 1 1 1 1 1 1 1 1 1 1 1 1 1 1 1 1 1 1 1 1 1 1 1 1 1 1 1 1 1 1 1 1 1 1 1 1 1 1 1 1 1 1 1 1 1 1 1 1 1 1 1 1 1 1 1 1 1 1 1 1 1 1 1 1 1 1 1 1 1 1 1 1 1 1 1 1 1 1 1 1 1 1 1 1 1 1 1 1 1 1 1 1 1 1 1 1 1 1 1 1 1 1 1 1 1 1 1 1 1 1 1 }
                      2.1010173167e+00 stress_1
                     -2.1835543866e+02 stress_2
                     -4.5191042236e+02 stress_3
                     -4.5194409075e+02 stress_4
                     -1.6576991508e+02 stress_5
                      2.6248364125e+02 stress_6
                      4.4450223160e+02 stress_7
                      4.4481374317e+02 stress_8
                      2.2796269239e+02 stress_9
                     -1.4238070676e+02 stress_10
                     -4.4740701646e+02 stress_11
                     -4.5193591600e+02 stress_12
                     -4.5194902440e+02 stress_13
                     -4.5194919581e+02 stress_14
                     -1.6148042135e+02 stress_15
                     -3.0718360553e+02 stress_16
                     -4.4910971166e+02 stress_17
                     -2.7971272652e+02 stress_18
                      3.7265868652e+01 stress_19
                      3.9688306439e+02 stress_20
                      4.5102277208e+02 stress_21
                      4.5189744943e+02 stress_22
                      4.5193961256e+02 stress_23
                      4.5194426100e+02 stress_24
                      1.6087212230e+02 stress_25
                      2.7200545648e+02 stress_26
                      3.9727129795e+02 stress_27
                      4.2876386878e+02 stress_28
                      3.2208590604e+02 stress_29
                      1.3201882559e+02 stress_30
                     -1.3294534425e+02 stress_31
                     -3.9963249469e+02 stress_32
                     -4.5001658973e+02 stress_33
                     -4.5184201966e+02 stress_34
                     -4.5193976232e+02 stress_35
                     -4.5194899679e+02 stress_36
                     -4.5195062116e+02 stress_37
                     -4.5195123241e+02 stress_38
                     -4.5195161799e+02 stress_39
                     -4.5195189776e+02 stress_40
                     -4.5195208963e+02 stress_41
                     -4.5195219336e+02 stress_42
                     -4.3853519981e+02 stress_43
                     -9.2297992250e+01 stress_44
                      2.0152889558e+02 stress_45
                      2.2645504362e+01 stress_46
                     -3.0389914315e+02 stress_47
                     -4.2307177470e+01 stress_48
                     -1.3160103139e+02 stress_49
                     -2.7097415934e+02 stress_50
                     -4.4649629152e+02 stress_51
                     -2.9864645491e+02 stress_52
                      1.8897639217e+01 stress_53
                      3.5411786974e+02 stress_54
                      4.4030883952e+02 stress_55
                      4.4906479775e+02 stress_56
                      4.5027550816e+02 stress_57
                      3.7533818170e+02 stress_58
                      9.4558654399e+01 stress_59
                     -3.0277389199e+02 stress_60
                     -4.4862328647e+02 stress_61
                     -4.5172151719e+02 stress_62
                     -4.5184613734e+02 stress_63
                     -2.1653138124e+02 stress_64
                      1.7881824003e+02 stress_65
                      2.9194996660e+02 stress_66
                      5.4751864949e+01 stress_67
                     -3.5436759140e+02 stress_68
                     -4.5096708963e+02 stress_69
                     -4.5106381282e+02 stress_70
                     -3.6825750607e+02 stress_71
                     -2.1647302006e+02 stress_72
                     -5.4398843578e-01 stress_73
                      2.5293174453e+02 stress_74
                      4.1132962812e+02 stress_75
                      4.4554141920e+02 stress_76
                      4.5069759576e+02 stress_77
                      4.5163560964e+02 stress_78
                      4.5185204278e+02 stress_79
                      4.5191335906e+02 stress_80
                      4.5193406986e+02 stress_81
                      4.5194224481e+02 stress_82
                      4.5194595977e+02 stress_83
                      4.5194786979e+02 stress_84
                      4.5194894934e+02 stress_85
                      4.5194959025e+02 stress_86
                      4.5194996076e+02 stress_87
                      4.5195013450e+02 stress_88
                      3.8797462174e+02 stress_89
                     -1.2095559040e+01 stress_90
                     -2.4162645552e+02 stress_91
                      1.0334828393e+01 stress_92
                      3.7234197602e+02 stress_93
                      3.8296123830e+02 stress_94
                      3.3072498530e+02 stress_95
                      2.3642412793e+02 stress_96
                      1.0112793008e+02 stress_97
                     -7.1925599236e+01 stress_98
                     -2.6046081595e+02 stress_99
                     -3.9094905688e+02 stress_100
                     -4.3658320359e+02 stress_101
                     -4.4785080947e+02 stress_102
                     -4.5069981739e+02 stress_103
                     -4.5151628795e+02 stress_104
                     -4.5178198471e+02 stress_105
                     -4.5187879317e+02 stress_106
                     -4.5191776380e+02 stress_107
                     -4.5193494078e+02 stress_108
                     -4.5194319578e+02 stress_109
                     -4.5194752210e+02 stress_110
                     -4.5195000116e+02 stress_111
                     -4.5195155671e+02 stress_112
                     -4.5195262194e+02 stress_113
                     -4.5195340954e+02 stress_114
                     -4.5195402806e+02 stress_115
                     -4.5195453467e+02 stress_116
                     -4.5195496002e+02 stress_117
                     -4.5195532084e+02 stress_118
                     -4.5195562613e+02 stress_119
                     -4.5195588059e+02 stress_120
                     -4.5195608666e+02 stress_121
                     -4.5195624541e+02 stress_122
                     -4.5195635723e+02 stress_123
                     -4.5195642226e+02 stress_124
                     -4.5195643968e+02 stress_125
                     -3.6291077553e+02 stress_126
                     -1.3964179292e+02 stress_127
                      1.6759255683e+02 stress_128
                      3.7692173314e+02 stress_129
                      4.3343158129e+02 stress_130
                      4.4554770845e+02 stress_131
                      4.4877356706e+02 stress_132
                      4.4976197980e+02 stress_133
                      4.4980936127e+02 stress_134
                      9.0915660429e+01 stress_135
                      7.0132676890e+01 stress_136
                      2.3578761399e+02 stress_137
                      2.0443598163e+02 stress_138
                      5.3734870368e+01 stress_139
                     -2.3258926274e+02 stress_140
                     -4.4329530653e+02 stress_141
                     -4.5175440330e+02 stress_142
                     -4.5194111457e+02 stress_143
                     -4.5195397261e+02 stress_144
                     -4.5195584574e+02 stress_145
                     -4.3425865512e+02 stress_146
                     -2.2596120707e+02 stress_147
                      1.1246043370e+02 stress_148
                      3.6124472972e+02 stress_149
                      4.2659025498e+02 stress_150
                      4.3954923438e+02 stress_151
                      4.4076445712e+02 stress_152
                      2.5251763903e+02 stress_153
                     -9.8788328905e+01 stress_154
                     -4.2413632106e+02 stress_155
                     -4.5118471241e+02 stress_156
                     -4.5178999089e+02 stress_157
                     -3.4519254982e+02 stress_158
                      3.2376267055e+01 stress_159
                      2.3164312024e+02 stress_160
                      8.6872935893e+01 stress_161
                     -2.9364296769e+02 stress_162
                     -4.5086387162e+02 stress_163
                     -4.5153051999e+02 stress_164
                     -4.1529975299e+02 stress_165
                     -3.4378201346e+02 stress_166
                     -2.3752448227e+02 stress_167
                     -9.7876142740e+01 stress_168
                      6.8455651063e+01 stress_169
                      2.3547337992e+02 stress_170
                      3.5587496607e+02 stress_171
                      4.1456204706e+02 stress_172
                      4.3734972261e+02 stress_173
                      4.4587005008e+02 stress_174
                      4.4921700038e+02 stress_175
                      4.5062879592e+02 stress_176
                      4.5126802825e+02 stress_177
                      4.5157684239e+02 stress_178
                      4.5173492999e+02 stress_179
                      4.5182017353e+02 stress_180
                      4.5186835003e+02 stress_181
                      4.5189677193e+02 stress_182
                      4.5191422251e+02 stress_183
                      4.5192534662e+02 stress_184
                      4.5193269617e+02 stress_185
                      4.5193772110e+02 stress_186
                      4.5194127117e+02 stress_187
                      4.5194385849e+02 stress_188
                      4.5194579933e+02 stress_189
                      4.5194729368e+02 stress_190
                      4.5194847052e+02 stress_191
                      4.5194941439e+02 stress_192
                      4.5195018193e+02 stress_193
                      4.5195081128e+02 stress_194
                      4.5195132848e+02 stress_195
                      4.5195175163e+02 stress_196
                      4.5195209311e+02 stress_197
                      4.5195236164e+02 stress_198
                      4.5195256316e+02 stress_199
                      4.5195270158e+02 stress_200
                      4.5195277944e+02 stress_201
                      4.5195278324e+02 stress_202
                      1.3236904786e+02 stress_203
                     -2.0539388089e+02 stress_204
                     -1.1090303114e+02 stress_205
                      2.8292324394e+02 stress_206
                      3.0383222330e+02 stress_207
                      2.4758037508e+02 stress_208
                      1.4533527307e+02 stress_209
                     -7.0088112312e-01 stress_210
                     -1.7689238350e+02 stress_211
                     -3.3091836764e+02 stress_212
                     -4.1039607283e+02 stress_213
                     -4.3798332327e+02 stress_214
                     -4.4680525311e+02 stress_215
                     -4.4983710836e+02 stress_216
                     -4.5099178802e+02 stress_217
                     -4.5147659624e+02 stress_218
                     -4.5169837269e+02 stress_219
                     -4.5180767805e+02 stress_220
                     -4.5186519179e+02 stress_221
                     -4.5189726128e+02 stress_222
                     -4.5191610024e+02 stress_223
                     -4.5192770264e+02 stress_224
                     -4.5193516261e+02 stress_225
                     -4.5194014923e+02 stress_226
                     -4.5194359909e+02 stress_227
                     -4.5194605667e+02 stress_228
                     -4.5194784741e+02 stress_229
                     -4.5194917192e+02 stress_230
                     -4.5195015598e+02 stress_231
                     -4.5195087953e+02 stress_232
                     -4.5195139422e+02 stress_233
                     -4.5195173251e+02 stress_234
                     -4.5195191376e+02 stress_235
                     -4.4631968643e+02 stress_236
                     -1.2398711160e+02 stress_237
                      1.6747870508e+02 stress_238
                     -2.6676478467e+01 stress_239
                     -3.0700573857e+02 stress_240
                     -1.3304652239e+01 stress_241
                      1.6151920216e+02 stress_242
                     -1.4063023157e+02 stress_243
                     -2.8253415732e+02 stress_244
                     -4.1219534261e+02 stress_245
                     -2.5099384517e+02 stress_246
                      6.7689133911e+01 stress_247
                      3.5033867510e+02 stress_248
                      4.2902644235e+02 stress_249
                      4.4304852507e+02 stress_250
                      4.4564764610e+02 stress_251
                      3.5413851242e+02 stress_252
                      6.4045101077e+01 stress_253
                     -3.0375109759e+02 stress_254
                     -4.3494697555e+02 stress_255
                     -4.4785540508e+02 stress_256
                     -4.4908826135e+02 stress_257
                     -2.0591846548e+02 stress_258
                      1.7433554626e+02 stress_259
                      3.0246741870e+02 stress_260
                      1.1478571788e+02 stress_261
                     -2.7088669237e+02 stress_262
                     -4.3369986608e+02 stress_263
                     -4.4193894861e+02 stress_264
                     -4.0546298058e+02 stress_265
                     -3.2352578085e+02 stress_266
                     -1.9711641532e+02 stress_267
                     -2.9382594429e+01 stress_268
                      1.6298032103e+02 stress_269
                      3.2476214615e+02 stress_270
                      4.0755128049e+02 stress_271
                      4.3682443496e+02 stress_272
                      4.4635453094e+02 stress_273
                      4.4965835638e+02 stress_274
                      4.5091810716e+02 stress_275
                      4.5144492705e+02 stress_276
                      4.5168421144e+02 stress_277
                      4.5180108633e+02 stress_278
                      4.5186196264e+02 stress_279
                      4.5189554800e+02 stress_280
                      4.5191506674e+02 stress_281
                      4.5192696265e+02 stress_282
                      4.5193453531e+02 stress_283
                      4.5193955112e+02 stress_284
                      4.5194299283e+02 stress_285
                      4.5194542727e+02 stress_286
                      4.5194719120e+02 stress_287
                      4.5194848997e+02 stress_288
                      4.5194945200e+02 stress_289
                      4.5195015853e+02 stress_290
                      4.5195066133e+02 stress_291
                      4.5195099327e+02 stress_292
                      4.5195117391e+02 stress_293
                      4.5195117654e+02 stress_294
                      1.2161916191e+02 stress_295
                     -2.0715478337e+02 stress_296
                     -9.3842064393e+01 stress_297
                      2.9391780446e+02 stress_298
                      3.1143589653e+02 stress_299
                      2.7368020688e+02 stress_300
                      2.0556136193e+02 stress_301
                      1.0752176941e+02 stress_302
                     -1.8504841685e+01 stress_303
                     -1.6320837869e+02 stress_304
                     -2.9717549081e+02 stress_305
                     -3.8421661466e+02 stress_306
                     -4.2459983078e+02 stress_307
                     -4.4063454128e+02 stress_308
                     -4.4696029171e+02 stress_309
                     -4.4959120354e+02 stress_310
                     -4.5076047683e+02 stress_311
                     -4.5131472914e+02 stress_312
                     -4.5159325156e+02 stress_313
                     -4.5174073780e+02 stress_314
                     -4.5182258560e+02 stress_315
                     -4.5186997334e+02 stress_316
                     -4.5189849751e+02 stress_317
                     -4.5191629967e+02 stress_318
                     -4.5192779744e+02 stress_319
                     -4.5193547251e+02 stress_320
                     -4.5194076285e+02 stress_321
                     -4.5194452608e+02 stress_322
                     -4.5194728666e+02 stress_323
                     -4.5194937311e+02 stress_324
                     -4.5195099555e+02 stress_325
                     -4.5195229078e+02 stress_326
                     -4.5195334962e+02 stress_327
                     -4.5195423302e+02 stress_328
                     -4.5195498270e+02 stress_329
                     -4.5195562734e+02 stress_330
                     -4.5195618685e+02 stress_331
                     -4.5195667526e+02 stress_332
                     -4.5195710237e+02 stress_333
                     -4.5195747517e+02 stress_334
                     -4.5195779860e+02 stress_335
                     -4.5195807605e+02 stress_336
                     -4.5195831004e+02 stress_337
                     -4.5195850224e+02 stress_338
                     -4.5195865381e+02 stress_339
                     -4.5195876557e+02 stress_340
                     -4.5195883803e+02 stress_341
                     -4.5195887147e+02 stress_342


Active response data for evaluation 44:
Active set vector = { 1 1 1 1 1 1 1 1 1 1 1 1 1 1 1 1 1 1 1 1 1 1 1 1 1 1 1 1 1 1 1 1 1 1 1 1 1 1 1 1 1 1 1 1 1 1 1 1 1 1 1 1 1 1 1 1 1 1 1 1 1 1 1 1 1 1 1 1 1 1 1 1 1 1 1 1 1 1 1 1 1 1 1 1 1 1 1 1 1 1 1 1 1 1 1 1 1 1 1 1 1 1 1 1 1 1 1 1 1 1 1 1 1 1 1 1 1 1 1 1 1 1 1 1 1 1 1 1 1 1 1 1 1 1 1 1 1 1 1 1 1 1 1 1 1 1 1 1 1 1 1 1 1 1 1 1 1 1 1 1 1 1 1 1 1 1 1 1 1 1 1 1 1 1 1 1 1 1 1 1 1 1 1 1 1 1 1 1 1 1 1 1 1 1 1 1 1 1 1 1 1 1 1 1 1 1 1 1 1 1 1 1 1 1 1 1 1 1 1 1 1 1 1 1 1 1 1 1 1 1 1 1 1 1 1 1 1 1 1 1 1 1 1 1 1 1 1 1 1 1 1 1 1 1 1 1 1 1 1 1 1 1 1 1 1 1 1 1 1 1 1 1 1 1 1 1 1 1 1 1 1 1 1 1 1 1 1 1 1 1 1 1 1 1 1 1 1 1 1 1 1 1 1 1 1 1 1 1 1 1 1 1 1 1 1 1 1 1 1 1 1 1 1 1 1 1 1 1 1 1 1 1 1 1 1 1 1 1 1 1 1 1 }
                      2.1010173167e+00 stress_1
                     -2.1835543866e+02 stress_2
                     -4.5191493260e+02 stress_3
                     -4.5194860902e+02 stress_4
                     -1.6577443335e+02 stress_5
                      2.6247996290e+02 stress_6
                      4.4450523500e+02 stress_7
                      4.4481667921e+02 stress_8
                      2.2796562843e+02 stress_9
                     -1.4237778817e+02 stress_10
                     -4.4741325444e+02 stress_11
                     -4.5194137856e+02 stress_12
                     -4.5195447692e+02 stress_13
                     -4.5195464818e+02 stress_14
                     -1.6148587341e+02 stress_15
                     -3.0718905759e+02 stress_16
                     -4.4911715588e+02 stress_17
                     -2.7972017074e+02 stress_18
                      3.7258548175e+01 stress_19
                      3.9689858615e+02 stress_20
                      4.5102457106e+02 stress_21
                      4.5189760608e+02 stress_22
                      4.5193964781e+02 stress_23
                      4.5194428080e+02 stress_24
                      1.6087214079e+02 stress_25
                      2.7200547498e+02 stress_26
                      3.9727131624e+02 stress_27
                      4.2876388419e+02 stress_28
                      3.2208592144e+02 stress_29
                      1.3201883894e+02 stress_30
                     -1.3294662020e+02 stress_31
                     -3.9965967664e+02 stress_32
                     -4.5002901911e+02 stress_33
                     -4.5185126676e+02 stress_34
                     -4.5194872645e+02 stress_35
                     -4.5195792724e+02 stress_36
                     -4.5195954608e+02 stress_37
                     -4.5196015613e+02 stress_38
                     -4.5196054137e+02 stress_39
                     -4.5196082102e+02 stress_40
                     -4.5196101286e+02 stress_41
                     -4.5196111657e+02 stress_42
                     -4.3854412302e+02 stress_43
                     -9.2306545327e+01 stress_44
                      2.0153586310e+02 stress_45
                      2.2652471889e+01 stress_46
                     -3.0389231498e+02 stress_47
                     -4.2300235227e+01 stress_48
                     -1.3159408915e+02 stress_49
                     -2.7096721726e+02 stress_50
                     -4.4650673207e+02 stress_51
                     -2.9865689465e+02 stress_52
                      1.8889328171e+01 stress_53
                      3.5414758995e+02 stress_54
                      4.4032425084e+02 stress_55
                      4.4907047069e+02 stress_56
                      4.5027920388e+02 stress_57
                      3.7534187742e+02 stress_58
                      9.4562347788e+01 stress_59
                     -3.0278057007e+02 stress_60
                     -4.4864291416e+02 stress_61
                     -4.5173762691e+02 stress_62
                     -4.5186200180e+02 stress_63
                     -2.1654722873e+02 stress_64
                      1.7881525699e+02 stress_65
                      2.9196514832e+02 stress_66
                      5.4767046672e+01 stress_67
                     -3.5435695780e+02 stress_68
                     -4.5098277857e+02 stress_69
                     -4.5107950877e+02 stress_70
                     -3.6827320201e+02 stress_71
                     -2.1648869593e+02 stress_72
                     -5.5799075321e-01 stress_73
                      2.5294065904e+02 stress_74
                      4.1135719336e+02 stress_75
                      4.4555145558e+02 stress_76
                      4.5070047254e+02 stress_77
                      4.5163651748e+02 stress_78
                      4.5185237199e+02 stress_79
                      4.5191349579e+02 stress_80
                      4.5193413422e+02 stress_81
                      4.5194227878e+02 stress_82
                      4.5194597970e+02 stress_83
                      4.5194788270e+02 stress_84
                      4.5194895851e+02 stress_85
                      4.5194959736e+02 stress_86
                      4.5194996677e+02 stress_87
                      4.5195014002e+02 stress_88
                      3.8797462725e+02 stress_89
                     -1.2098821713e+01 stress_90
                     -2.4165398523e+02 stress_91
                      1.0307298690e+01 stress_92
                      3.7231720307e+02 stress_93
                      3.8293755131e+02 stress_94
                      3.3070129830e+02 stress_95
                      2.3640043711e+02 stress_96
                      1.0110401290e+02 stress_97
                     -7.1953142294e+01 stress_98
                     -2.6050656640e+02 stress_99
                     -3.9100445455e+02 stress_100
                     -4.3662123677e+02 stress_101
                     -4.4787708750e+02 stress_102
                     -4.5072146615e+02 stress_103
                     -4.5153621236e+02 stress_104
                     -4.5180123678e+02 stress_105
                     -4.5189776511e+02 stress_106
                     -4.5193661094e+02 stress_107
                     -4.5195372870e+02 stress_108
                     -4.5196195394e+02 stress_109
                     -4.5196626450e+02 stress_110
                     -4.5196873480e+02 stress_111
                     -4.5197028528e+02 stress_112
                     -4.5197134744e+02 stress_113
                     -4.5197213312e+02 stress_114
                     -4.5197275041e+02 stress_115
                     -4.5197325619e+02 stress_116
                     -4.5197368099e+02 stress_117
                     -4.5197404142e+02 stress_118
                     -4.5197434645e+02 stress_119
                     -4.5197460071e+02 stress_120
                     -4.5197480665e+02 stress_121
                     -4.5197496531e+02 stress_122
                     -4.5197507706e+02 stress_123
                     -4.5197514206e+02 stress_124
                     -4.5197515947e+02 stress_125
                     -3.6292949416e+02 stress_126
                     -1.3965966209e+02 stress_127
                      1.6759501788e+02 stress_128
                      3.7695098346e+02 stress_129
                      4.3344854075e+02 stress_130
                      4.4555601682e+02 stress_131
                      4.4877845813e+02 stress_132
                      4.4976562520e+02 stress_133
                      4.4981294350e+02 stress_134
                      9.0919219964e+01 stress_135
                      7.0136219824e+01 stress_136
                      2.3579198382e+02 stress_137
                      2.0444035146e+02 stress_138
                      5.3739239894e+01 stress_139
                     -2.3258778712e+02 stress_140
                     -4.4332970262e+02 stress_141
                     -4.5178262157e+02 stress_142
                     -4.5196889746e+02 stress_143
                     -4.5198171351e+02 stress_144
                     -4.5198357993e+02 stress_145
                     -4.3428638931e+02 stress_146
                     -2.2598877597e+02 stress_147
                      1.1244760368e+02 stress_148
                      3.6126977897e+02 stress_149
                      4.2660918331e+02 stress_150
                      4.3956174362e+02 stress_151
                      4.4077615569e+02 stress_152
                      2.5252933759e+02 stress_153
                     -9.8776902288e+01 stress_154
                     -4.2416625227e+02 stress_155
                     -4.5121350981e+02 stress_156
                     -4.5181804224e+02 stress_157
                     -3.4522059828e+02 stress_158
                      3.2355550138e+01 stress_159
                      2.3164771542e+02 stress_160
                      8.6877531071e+01 stress_161
                     -2.9363905971e+02 stress_162
                     -4.5089160791e+02 stress_163
                     -4.5155832390e+02 stress_164
                     -4.1532755689e+02 stress_165
                     -3.4380981408e+02 stress_166
                     -2.3755216113e+02 stress_167
                     -9.7902320100e+01 stress_168
                      6.8438192903e+01 stress_169
                      2.3547893100e+02 stress_170
                      3.5589953595e+02 stress_171
                      4.1458449101e+02 stress_172
                      4.3736356996e+02 stress_173
                      4.4587771279e+02 stress_174
                      4.4922119658e+02 stress_175
                      4.5063114672e+02 stress_176
                      4.5126938990e+02 stress_177
                      4.5157765982e+02 stress_178
                      4.5173543832e+02 stress_179
                      4.5182050043e+02 stress_180
                      4.5186856700e+02 stress_181
                      4.5189692027e+02 stress_182
                      4.5191432678e+02 stress_183
                      4.5192542185e+02 stress_184
                      4.5193275179e+02 stress_185
                      4.5193776319e+02 stress_186
                      4.5194130372e+02 stress_187
                      4.5194388420e+02 stress_188
                      4.5194582005e+02 stress_189
                      4.5194731069e+02 stress_190
                      4.5194848474e+02 stress_191
                      4.5194942650e+02 stress_192
                      4.5195019242e+02 stress_193
                      4.5195082052e+02 stress_194
                      4.5195133674e+02 stress_195
                      4.5195175914e+02 stress_196
                      4.5195210005e+02 stress_197
                      4.5195236815e+02 stress_198
                      4.5195256935e+02 stress_199
                      4.5195270756e+02 stress_200
                      4.5195278531e+02 stress_201
                      4.5195278910e+02 stress_202
                      1.3236780442e+02 stress_203
                     -2.0542358434e+02 stress_204
                     -1.1093273458e+02 stress_205
                      2.8289364808e+02 stress_206
                      3.0380276137e+02 stress_207
                      2.4755091274e+02 stress_208
                      1.4530573413e+02 stress_209
                     -7.3209990610e-01 stress_210
                     -1.7693448452e+02 stress_211
                     -3.3097792694e+02 stress_212
                     -4.1045281018e+02 stress_213
                     -4.3802911574e+02 stress_214
                     -4.4684422642e+02 stress_215
                     -4.4987276838e+02 stress_216
                     -4.5102587477e+02 stress_217
                     -4.5150991000e+02 stress_218
                     -4.5173128802e+02 stress_219
                     -4.5184037772e+02 stress_220
                     -4.5189776919e+02 stress_221
                     -4.5192976635e+02 stress_222
                     -4.5194856084e+02 stress_223
                     -4.5196013493e+02 stress_224
                     -4.5196757631e+02 stress_225
                     -4.5197255040e+02 stress_226
                     -4.5197599159e+02 stress_227
                     -4.5197844306e+02 stress_228
                     -4.5198022943e+02 stress_229
                     -4.5198155079e+02 stress_230
                     -4.5198253257e+02 stress_231
                     -4.5198325447e+02 stress_232
                     -4.5198376803e+02 stress_233
                     -4.5198410558e+02 stress_234
                     -4.5198428644e+02 stress_235
                     -4.4635205911e+02 stress_236
                     -1.2401841585e+02 stress_237
                      1.6746877631e+02 stress_238
                     -2.6686418879e+01 stress_239
                     -3.0702746602e+02 stress_240
                     -1.3325160867e+01 stress_241
                      1.6150904688e+02 stress_242
                     -1.4064082862e+02 stress_243
                     -2.8255226021e+02 stress_244
                     -4.1223943043e+02 stress_245
                     -2.5103790058e+02 stress_246
                      6.7653837952e+01 stress_247
                      3.5035234942e+02 stress_248
                      4.2904174227e+02 stress_249
                      4.4305755101e+02 stress_250
                      4.4565481559e+02 stress_251
                      3.5414568189e+02 stress_252
                      6.4051788192e+01 stress_253
                     -3.0378168476e+02 stress_254
                     -4.3499469365e+02 stress_255
                     -4.4789422379e+02 stress_256
                     -4.4912560889e+02 stress_257
                     -2.0595558884e+02 stress_258
                      1.7432193609e+02 stress_259
                      3.0247839620e+02 stress_260
                      1.1479669192e+02 stress_261
                     -2.7089237315e+02 stress_262
                     -4.3374370758e+02 stress_263
                     -4.4198049794e+02 stress_264
                     -4.0550452989e+02 stress_265
                     -3.2356732496e+02 stress_266
                     -1.9715771136e+02 stress_267
                     -2.9420495888e+01 stress_268
                      1.6296082273e+02 stress_269
                      3.2477442139e+02 stress_270
                      4.0757162038e+02 stress_271
                      4.3683743576e+02 stress_272
                      4.4636135096e+02 stress_273
                      4.4966186539e+02 stress_274
                      4.5091996971e+02 stress_275
                      4.5144596127e+02 stress_276
                      4.5168481364e+02 stress_277
                      4.5180145353e+02 stress_278
                      4.5186219653e+02 stress_279
                      4.5189570320e+02 stress_280
                      4.5191517373e+02 stress_281
                      4.5192703910e+02 stress_282
                      4.5193459182e+02 stress_283
                      4.5193959425e+02 stress_284
                      4.5194302675e+02 stress_285
                      4.5194545474e+02 stress_286
                      4.5194721408e+02 stress_287
                      4.5194850954e+02 stress_288
                      4.5194946918e+02 stress_289
                      4.5195017401e+02 stress_290
                      4.5195067563e+02 stress_291
                      4.5195100679e+02 stress_292
                      4.5195118702e+02 stress_293
                      4.5195118964e+02 stress_294
                      1.2161771406e+02 stress_295
                     -2.0718477283e+02 stress_296
                     -9.3872053853e+01 stress_297
                      2.9388799108e+02 stress_298
                      3.1140624718e+02 stress_299
                      2.7365055748e+02 stress_300
                      2.0553170268e+02 stress_301
                      1.0749186677e+02 stress_302
                     -1.8536933019e+01 stress_303
                     -1.6324968749e+02 stress_304
                     -2.9723231025e+02 stress_305
                     -3.8427744523e+02 stress_306
                     -4.2465237476e+02 stress_307
                     -4.4067862970e+02 stress_308
                     -4.4699913856e+02 stress_309
                     -4.4962717960e+02 stress_310
                     -4.5079490854e+02 stress_311
                     -4.5134831585e+02 stress_312
                     -4.5162636267e+02 stress_313
                     -4.5177357272e+02 stress_314
                     -4.5185525505e+02 stress_315
                     -4.5190254069e+02 stress_316
                     -4.5193100010e+02 stress_317
                     -4.5194876011e+02 stress_318
                     -4.5196022978e+02 stress_319
                     -4.5196788570e+02 stress_320
                     -4.5197316272e+02 stress_321
                     -4.5197691651e+02 stress_322
                     -4.5197967028e+02 stress_323
                     -4.5198175173e+02 stress_324
                     -4.5198337046e+02 stress_325
                     -4.5198466288e+02 stress_326
                     -4.5198571959e+02 stress_327
                     -4.5198660133e+02 stress_328
                     -4.5198734972e+02 stress_329
                     -4.5198799333e+02 stress_330
                     -4.5198855203e+02 stress_331
                     -4.5198903979e+02 stress_332
                     -4.5198946639e+02 stress_333
                     -4.5198983877e+02 stress_334
                     -4.5199016186e+02 stress_335
                     -4.5199043904e+02 stress_336
                     -4.5199067282e+02 stress_337
                     -4.5199086485e+02 stress_338
                     -4.5199101629e+02 stress_339
                     -4.5199112796e+02 stress_340
                     -4.5199120037e+02 stress_341
                     -4.5199123378e+02 stress_342


Active response data for evaluation 45:
Active set vector = { 1 1 1 1 1 1 1 1 1 1 1 1 1 1 1 1 1 1 1 1 1 1 1 1 1 1 1 1 1 1 1 1 1 1 1 1 1 1 1 1 1 1 1 1 1 1 1 1 1 1 1 1 1 1 1 1 1 1 1 1 1 1 1 1 1 1 1 1 1 1 1 1 1 1 1 1 1 1 1 1 1 1 1 1 1 1 1 1 1 1 1 1 1 1 1 1 1 1 1 1 1 1 1 1 1 1 1 1 1 1 1 1 1 1 1 1 1 1 1 1 1 1 1 1 1 1 1 1 1 1 1 1 1 1 1 1 1 1 1 1 1 1 1 1 1 1 1 1 1 1 1 1 1 1 1 1 1 1 1 1 1 1 1 1 1 1 1 1 1 1 1 1 1 1 1 1 1 1 1 1 1 1 1 1 1 1 1 1 1 1 1 1 1 1 1 1 1 1 1 1 1 1 1 1 1 1 1 1 1 1 1 1 1 1 1 1 1 1 1 1 1 1 1 1 1 1 1 1 1 1 1 1 1 1 1 1 1 1 1 1 1 1 1 1 1 1 1 1 1 1 1 1 1 1 1 1 1 1 1 1 1 1 1 1 1 1 1 1 1 1 1 1 1 1 1 1 1 1 1 1 1 1 1 1 1 1 1 1 1 1 1 1 1 1 1 1 1 1 1 1 1 1 1 1 1 1 1 1 1 1 1 1 1 1 1 1 1 1 1 1 1 1 1 1 1 1 1 1 1 1 1 1 1 1 1 1 1 1 1 1 1 1 }
                      2.1010173167e+00 stress_1
                     -2.1835543866e+02 stress_2
                     -4.5191042236e+02 stress_3
                     -4.5194409075e+02 stress_4
                     -1.6576991508e+02 stress_5
                      2.6248449949e+02 stress_6
                      4.4451057516e+02 stress_7
                      4.4482202394e+02 stress_8
                      2.2797097316e+02 stress_9
                     -1.4237244339e+02 stress_10
                     -4.4740781121e+02 stress_11
                     -4.5193592680e+02 stress_12
                     -4.5194902514e+02 stress_13
                     -4.5194919640e+02 stress_14
                     -1.6148042163e+02 stress_15
                     -3.0718360581e+02 stress_16
                     -4.4910971172e+02 stress_17
                     -2.7971272658e+02 stress_18
                      3.7265992685e+01 stress_19
                      3.9690629727e+02 stress_20
                      4.5103256525e+02 stress_21
                      4.5190560585e+02 stress_22
                      4.5194764783e+02 stress_23
                      4.5195228084e+02 stress_24
                      1.6088014084e+02 stress_25
                      2.7201347502e+02 stress_26
                      3.9727932714e+02 stress_27
                      4.2877204010e+02 stress_28
                      3.2209407736e+02 stress_29
                      1.3202699486e+02 stress_30
                     -1.3293845869e+02 stress_31
                     -3.9965112164e+02 stress_32
                     -4.5002011235e+02 stress_33
                     -4.5184234446e+02 stress_34
                     -4.5193980338e+02 stress_35
                     -4.5194900410e+02 stress_36
                     -4.5195062293e+02 stress_37
                     -4.5195123298e+02 stress_38
                     -4.5195161822e+02 stress_39
                     -4.5195189788e+02 stress_40
                     -4.5195208971e+02 stress_41
                     -4.5195219342e+02 stress_42
                     -4.3853519987e+02 stress_43
                     -9.2297615692e+01 stress_44
                      2.0154537154e+02 stress_45
                      2.2661980322e+01 stress_46
                     -3.0388277206e+02 stress_47
                     -4.2290690317e+01 stress_48
                     -1.3158454424e+02 stress_49
                     -2.7095767231e+02 stress_50
                     -4.4649257474e+02 stress_51
                     -2.9864273732e+02 stress_52
                      1.8903495896e+01 stress_53
                      3.5416236055e+02 stress_54
                      4.4033971974e+02 stress_55
                      4.4908603656e+02 stress_56
                      4.5029478340e+02 stress_57
                      3.7535745694e+02 stress_58
                      9.4577927315e+01 stress_59
                     -3.0276498853e+02 stress_60
                     -4.4862731674e+02 stress_61
                     -4.5172202878e+02 stress_62
                     -4.5184640365e+02 stress_63
                     -2.1653163058e+02 stress_64
                      1.7883085514e+02 stress_65
                      2.9198074648e+02 stress_66
                      5.4782644831e+01 stress_67
                     -3.5434135964e+02 stress_68
                     -4.5096718039e+02 stress_69
                     -4.5106391059e+02 stress_70
                     -3.6825760383e+02 stress_71
                     -2.1647309775e+02 stress_72
                     -5.4239257692e-01 stress_73
                      2.5295625721e+02 stress_74
                      4.1137279154e+02 stress_75
                      4.4556705375e+02 stress_76
                      4.5071607072e+02 stress_77
                      4.5165211566e+02 stress_78
                      4.5186797017e+02 stress_79
                      4.5192909397e+02 stress_80
                      4.5194973239e+02 stress_81
                      4.5195787695e+02 stress_82
                      4.5196157788e+02 stress_83
                      4.5196348087e+02 stress_84
                      4.5196455668e+02 stress_85
                      4.5196519554e+02 stress_86
                      4.5196556494e+02 stress_87
                      4.5196573819e+02 stress_88
                      3.8799022543e+02 stress_89
                     -1.2083190044e+01 stress_90
                     -2.4163786804e+02 stress_91
                      1.0323415871e+01 stress_92
                      3.7233355710e+02 stress_93
                      3.8295400158e+02 stress_94
                      3.3071774857e+02 stress_95
                      2.3641688740e+02 stress_96
                      1.0112046454e+02 stress_97
                     -7.1936655924e+01 stress_98
                     -2.6048972966e+02 stress_99
                     -3.9098664332e+02 stress_100
                     -4.3660278130e+02 stress_101
                     -4.4785844052e+02 stress_102
                     -4.5070276906e+02 stress_103
                     -4.5151750093e+02 stress_104
                     -4.5178252073e+02 stress_105
                     -4.5187904740e+02 stress_106
                     -4.5191789257e+02 stress_107
                     -4.5193501005e+02 stress_108
                     -4.5194323516e+02 stress_109
                     -4.5194754565e+02 stress_110
                     -4.5195001591e+02 stress_111
                     -4.5195156637e+02 stress_112
                     -4.5195262852e+02 stress_113
                     -4.5195341420e+02 stress_114
                     -4.5195403149e+02 stress_115
                     -4.5195453727e+02 stress_116
                     -4.5195496206e+02 stress_117
                     -4.5195532249e+02 stress_118
                     -4.5195562752e+02 stress_119
                     -4.5195588178e+02 stress_120
                     -4.5195608772e+02 stress_121
                     -4.5195624637e+02 stress_122
                     -4.5195635813e+02 stress_123
                     -4.5195642313e+02 stress_124
                     -4.5195644054e+02 stress_125
                     -3.6291077522e+02 stress_126
                     -1.3964092299e+02 stress_127
                      1.6761477138e+02 stress_128
                      3.7697520182e+02 stress_129
                      4.3347527388e+02 stress_130
                      4.4558339187e+02 stress_131
                      4.4880600997e+02 stress_132
                      4.4979323159e+02 stress_133
                      4.4984055251e+02 stress_134
                      9.0946828980e+01 stress_135
                      7.0163828846e+01 stress_136
                      2.3581959357e+02 stress_137
                      2.0446796121e+02 stress_138
                      5.3766849642e+01 stress_139
                     -2.3256017524e+02 stress_140
                     -4.4330198966e+02 stress_141
                     -4.5175489498e+02 stress_142
                     -4.5194117058e+02 stress_143
                     -4.5195398661e+02 stress_144
                     -4.5195585302e+02 stress_145
                     -4.3425866241e+02 stress_146
                     -2.2596104907e+02 stress_147
                      1.1247533059e+02 stress_148
                      3.6129750588e+02 stress_149
                      4.2663691022e+02 stress_150
                      4.3958947053e+02 stress_151
                      4.4080388259e+02 stress_152
                      2.5255706450e+02 stress_153
                     -9.8749175380e+01 stress_154
                     -4.2413852536e+02 stress_155
                     -4.5118578291e+02 stress_156
                     -4.5179031534e+02 stress_157
                     -3.4519287137e+02 stress_158
                      3.2383277045e+01 stress_159
                      2.3167544233e+02 stress_160
                      8.6905257979e+01 stress_161
                     -2.9361133280e+02 stress_162
                     -4.5086388100e+02 stress_163
                     -4.5153059699e+02 stress_164
                     -4.1529982998e+02 stress_165
                     -3.4378208717e+02 stress_166
                     -2.3752443422e+02 stress_167
                     -9.7874593193e+01 stress_168
                      6.8465919811e+01 stress_169
                      2.3550665790e+02 stress_170
                      3.5592726285e+02 stress_171
                      4.1461221792e+02 stress_172
                      4.3739129687e+02 stress_173
                      4.4590543970e+02 stress_174
                      4.4924892349e+02 stress_175
                      4.5065887362e+02 stress_176
                      4.5129711681e+02 stress_177
                      4.5160538673e+02 stress_178
                      4.5176316522e+02 stress_179
                      4.5184822734e+02 stress_180
                      4.5189629391e+02 stress_181
                      4.5192464718e+02 stress_182
                      4.5194205369e+02 stress_183
                      4.5195314876e+02 stress_184
                      4.5196047870e+02 stress_185
                      4.5196549009e+02 stress_186
                      4.5196903063e+02 stress_187
                      4.5197161111e+02 stress_188
                      4.5197354695e+02 stress_189
                      4.5197503760e+02 stress_190
                      4.5197621165e+02 stress_191
                      4.5197715341e+02 stress_192
                      4.5197791933e+02 stress_193
                      4.5197854743e+02 stress_194
                      4.5197906365e+02 stress_195
                      4.5197948605e+02 stress_196
                      4.5197982696e+02 stress_197
                      4.5198009506e+02 stress_198
                      4.5198029626e+02 stress_199
                      4.5198043447e+02 stress_200
                      4.5198051222e+02 stress_201
                      4.5198051601e+02 stress_202
                      1.3239554745e+02 stress_203
                     -2.0539503655e+02 stress_204
                     -1.1090418679e+02 stress_205
                      2.8292220701e+02 stress_206
                      3.0383133467e+02 stress_207
                      2.4757948605e+02 stress_208
                      1.4533430819e+02 stress_209
                     -7.0349999450e-01 stress_210
                     -1.7690558952e+02 stress_211
                     -3.3094788772e+02 stress_212
                     -4.1042144971e+02 stress_213
                     -4.3799711862e+02 stress_214
                     -4.4681200331e+02 stress_215
                     -4.4984046518e+02 stress_216
                     -4.5099354083e+02 stress_217
                     -4.5147756314e+02 stress_218
                     -4.5169893526e+02 stress_219
                     -4.5180802206e+02 stress_220
                     -4.5186541202e+02 stress_221
                     -4.5189740834e+02 stress_222
                     -4.5191620235e+02 stress_223
                     -4.5192777614e+02 stress_224
                     -4.5193521734e+02 stress_225
                     -4.5194019130e+02 stress_226
                     -4.5194363242e+02 stress_227
                     -4.5194608383e+02 stress_228
                     -4.5194787016e+02 stress_229
                     -4.5194919149e+02 stress_230
                     -4.5195017325e+02 stress_231
                     -4.5195089514e+02 stress_232
                     -4.5195140869e+02 stress_233
                     -4.5195174623e+02 stress_234
                     -4.5195192709e+02 stress_235
                     -4.4631969976e+02 stress_236
                     -1.2398605649e+02 stress_237
                      1.6750113567e+02 stress_238
                     -2.6654059516e+01 stress_239
                     -3.0699510665e+02 stress_240
                     -1.3292801495e+01 stress_241
                      1.6154140625e+02 stress_242
                     -1.4060846924e+02 stress_243
                     -2.8251990083e+02 stress_244
                     -4.1220707101e+02 stress_245
                     -2.5100554116e+02 stress_246
                      6.7686197371e+01 stress_247
                      3.5038470885e+02 stress_248
                      4.2907410172e+02 stress_249
                      4.4308991046e+02 stress_250
                      4.4568717504e+02 stress_251
                      3.5417804134e+02 stress_252
                      6.4084147642e+01 stress_253
                     -3.0374932531e+02 stress_254
                     -4.3496233420e+02 stress_255
                     -4.4786186434e+02 stress_256
                     -4.4909324944e+02 stress_257
                     -2.0592322939e+02 stress_258
                      1.7435429554e+02 stress_259
                      3.0251075565e+02 stress_260
                      1.1482905137e+02 stress_261
                     -2.7086001370e+02 stress_262
                     -4.3371134813e+02 stress_263
                     -4.4194813849e+02 stress_264
                     -4.0547217044e+02 stress_265
                     -3.2353496551e+02 stress_266
                     -1.9712535191e+02 stress_267
                     -2.9388136436e+01 stress_268
                      1.6299318218e+02 stress_269
                      3.2480678084e+02 stress_270
                      4.0760397983e+02 stress_271
                      4.3686979521e+02 stress_272
                      4.4639371041e+02 stress_273
                      4.4969422484e+02 stress_274
                      4.5095232917e+02 stress_275
                      4.5147832072e+02 stress_276
                      4.5171717309e+02 stress_277
                      4.5183381298e+02 stress_278
                      4.5189455599e+02 stress_279
                      4.5192806265e+02 stress_280
                      4.5194753318e+02 stress_281
                      4.5195939855e+02 stress_282
                      4.5196695127e+02 stress_283
                      4.5197195370e+02 stress_284
                      4.5197538620e+02 stress_285
                      4.5197781419e+02 stress_286
                      4.5197957353e+02 stress_287
                      4.5198086900e+02 stress_288
                      4.5198182863e+02 stress_289
                      4.5198253346e+02 stress_290
                      4.5198303508e+02 stress_291
                      4.5198336624e+02 stress_292
                      4.5198354647e+02 stress_293
                      4.5198354910e+02 stress_294
                      1.2165007351e+02 stress_295
                     -2.0715241338e+02 stress_296
                     -9.3839694401e+01 stress_297
                      2.9392035053e+02 stress_298
                      3.1143860663e+02 stress_299
                      2.7368291693e+02 stress_300
                      2.0556406213e+02 stress_301
                      1.0752422623e+02 stress_302
                     -1.8504573567e+01 stress_303
                     -1.6321732804e+02 stress_304
                     -2.9719995080e+02 stress_305
                     -3.8424508578e+02 stress_306
                     -4.2462001531e+02 stress_307
                     -4.4064627025e+02 stress_308
                     -4.4696677910e+02 stress_309
                     -4.4959482015e+02 stress_310
                     -4.5076254909e+02 stress_311
                     -4.5131595639e+02 stress_312
                     -4.5159400322e+02 stress_313
                     -4.5174121326e+02 stress_314
                     -4.5182289560e+02 stress_315
                     -4.5187018124e+02 stress_316
                     -4.5189864065e+02 stress_317
                     -4.5191640066e+02 stress_318
                     -4.5192787033e+02 stress_319
                     -4.5193552625e+02 stress_320
                     -4.5194080327e+02 stress_321
                     -4.5194455706e+02 stress_322
                     -4.5194731083e+02 stress_323
                     -4.5194939228e+02 stress_324
                     -4.5195101101e+02 stress_325
                     -4.5195230343e+02 stress_326
                     -4.5195336013e+02 stress_327
                     -4.5195424188e+02 stress_328
                     -4.5195499027e+02 stress_329
                     -4.5195563388e+02 stress_330
                     -4.5195619258e+02 stress_331
                     -4.5195668034e+02 stress_332
                     -4.5195710693e+02 stress_333
                     -4.5195747931e+02 stress_334
                     -4.5195780241e+02 stress_335
                     -4.5195807959e+02 stress_336
                     -4.5195831337e+02 stress_337
                     -4.5195850540e+02 stress_338
                     -4.5195865684e+02 stress_339
                     -4.5195876851e+02 stress_340
                     -4.5195884091e+02 stress_341
                     -4.5195887433e+02 stress_342

>>>>> Total response returned to iterator:

Active set vector = { 2 2 2 2 2 2 2 2 2 2 2 2 2 2 2 2 2 2 2 2 2 2 2 2 2 2 2 2 2 2 2 2 2 2 2 2 2 2 2 2 2 2 2 2 2 2 2 2 2 2 2 2 2 2 2 2 2 2 2 2 2 2 2 2 2 2 2 2 2 2 2 2 2 2 2 2 2 2 2 2 2 2 2 2 2 2 2 2 2 2 2 2 2 2 2 2 2 2 2 2 2 2 2 2 2 2 2 2 2 2 2 2 2 2 2 2 2 2 2 2 2 2 2 2 2 2 2 2 2 2 2 2 2 2 2 2 2 2 2 2 2 2 2 2 2 2 2 2 2 2 2 2 2 2 2 2 2 2 2 2 2 2 2 2 2 2 2 2 2 2 2 2 2 2 2 2 2 2 2 2 2 2 2 2 2 2 2 2 2 2 2 2 2 2 2 2 2 2 2 2 2 2 2 2 2 2 2 2 2 2 2 2 2 2 2 2 2 2 2 2 2 2 2 2 2 2 2 2 2 2 2 2 2 2 2 2 2 2 2 2 2 2 2 2 2 2 2 2 2 2 2 2 2 2 2 2 2 2 2 2 2 2 2 2 2 2 2 2 2 2 2 2 2 2 2 2 2 2 2 2 2 2 2 2 2 2 2 2 2 2 2 2 2 2 2 2 2 2 2 2 2 2 2 2 2 2 2 2 2 2 2 2 2 2 2 2 2 2 2 2 2 2 2 2 2 2 2 2 2 2 2 2 2 2 2 2 2 2 2 2 2 2 } Deriv vars vector = { 1 2 3 4 5 6 7 }
 [  0.0000000000e+00  1.1653237462e-05  0.0000000000e+00  0.0000000000e+00 
   -0.0000000000e+00  0.0000000000e+00  0.0000000000e+00 ] stress_1 gradient
 [ -2.6551708702e-07 -1.2111020094e-03  0.0000000000e+00  0.0000000000e+00 
   -0.0000000000e+00  0.0000000000e+00  0.0000000000e+00 ] stress_2 gradient
 [ -9.9820562410e-01 -4.1997343162e-06 -1.7065200000e+02  0.0000000000e+00 
   -0.0000000000e+00 -4.5102400000e+02  0.0000000000e+00 ] stress_3 gradient
 [ -9.9977370188e-01 -5.3307157410e-07 -2.3880600000e+02  0.0000000000e+00 
   -0.0000000000e+00 -4.5182700000e+02  0.0000000000e+00 ] stress_4 gradient
 [ -9.9977367975e-01  1.5867243964e-03 -2.3880600000e+02  0.0000000000e+00 
   -0.0000000000e+00 -4.5182700000e+02  0.0000000000e+00 ] stress_5 gradient
 [ -9.6235999315e-01  3.8664830493e-03 -2.3789100000e+02 -1.1184545180e+00 
    3.7563000001e-01 -4.4296100000e+02  1.0698000000e+01 ] stress_6 gradient
 [  7.5219705736e-01  5.7128372629e-04 -1.1911200000e+02 -5.2753555385e+00 
    1.7718000000e+00 -5.4019999999e+01  4.7999600000e+02 ] stress_7 gradient
 [  7.6221304935e-01  5.4821516624e-04 -1.1658900000e+02 -5.1422039465e+00 
    1.7270800000e+00 -5.1811999998e+01  4.8266100000e+02 ] stress_8 gradient
 [  7.6221304935e-01 -6.5454344941e-04 -1.1658800000e+02 -5.1421921621e+00 
    1.7270750000e+00 -5.1811000000e+01  4.8266200000e+02 ] stress_9 gradient
 [  7.6142278187e-01 -2.7066145926e-03 -1.1660500000e+02 -5.1215341622e+00 
    1.7194300000e+00 -5.2027000001e+01  4.8245100000e+02 ] stress_10 gradient
 [ -8.6139599893e-01 -3.1817123728e-04 -2.4623800000e+02  1.5360454389e+00 
   -5.9030500000e-01 -5.0573700000e+02  3.8586000005e+01 ] stress_11 gradient
 [ -9.9969948984e-01 -6.7827825174e-07 -6.3600000000e+02  1.5531799185e-02 
   -5.8450000040e-03 -5.4508699999e+02  8.9000002390e-02 ] stress_12 gradient
 [ -9.9998826184e-01 -3.3556165184e-08 -8.9486500000e+02  1.0370244759e-03 
   -3.8999999674e-04 -5.4517400000e+02  3.9999974888e-03 ] stress_13 gradient
 [ -9.9999100552e-01 -2.7676903274e-08 -9.1860400000e+02  8.2490585597e-04 
   -3.0999999012e-04 -5.4517500000e+02  2.9999966955e-03 ] stress_14 gradient
 [ -9.9998859374e-01  1.6110435198e-03 -9.1860400000e+02  9.4274931044e-05 
   -1.5499999506e-04 -5.4517500000e+02  2.9999995377e-03 ] stress_15 gradient
 [ -9.9998859374e-01  8.0290462862e-04 -9.1860400000e+02  1.0605927649e-04 
   -1.5499998085e-04 -5.4517500000e+02  2.9999966955e-03 ] stress_16 gradient
 [ -9.9999755494e-01  1.5737785943e-05 -9.4449100000e+02  2.3568757881e-05 
   -3.4999999343e-05 -7.4441500000e+02  1.0000007933e-03 ] stress_17 gradient
 [ -9.9999755494e-01  9.5529365694e-04 -9.4449100000e+02  2.3568757881e-05 
   -3.4999999343e-05 -7.4441500000e+02  1.0000007933e-03 ] stress_18 gradient
 [ -9.9861999898e-01  2.7098993973e-03 -9.4445150000e+02 -2.8726286380e-01 
    5.9510499998e-02 -7.4394980000e+02  5.0120000026e-01 ] stress_19 gradient
 [ -2.0066678208e-02  2.2370251818e-03 -8.9273200000e+02 -4.6723128149e+01 
    9.6954600000e+00 -3.8691600000e+02  3.8419600000e+02 ] stress_20 gradient
 [  9.8090921884e-01  4.2282653762e-05 -5.1009800000e+02 -4.5277551316e+00 
    9.3888000001e-01 -7.8779999967e+00  7.9154100000e+02 ] stress_21 gradient
 [  9.9911683463e-01  1.9151418560e-06 -1.2212100000e+02 -3.8748185661e-01 
    8.0305000012e-02 -3.9600000150e-01  7.9958100000e+02 ] stress_22 gradient
 [  9.9985514926e-01  3.1276564413e-07  1.5364700000e+02 -8.6721175828e-02 
    1.7969999988e-02 -6.8999997893e-02  7.9993300000e+02 ] stress_23 gradient
 [  9.9992748055e-01  1.5857367913e-07  2.6992200000e+02 -4.8645877682e-02 
    1.0075000006e-02 -3.4999999343e-02  7.9996900000e+02 ] stress_24 gradient
 [  9.9991708113e-01 -1.6142387878e-03  2.6992200000e+02 -4.5134135538e-02 
    9.4399999995e-03 -3.8999999674e-02  7.9996600000e+02 ] stress_25 gradient
 [  9.9991705900e-01 -9.9784071110e-04  2.6992100000e+02 -4.5145919883e-02 
    9.4449999892e-03 -3.9000002516e-02  7.9996500000e+02 ] stress_26 gradient
 [  9.9991805469e-01 -3.0305948181e-04  2.7010700000e+02 -4.4615623300e-02 
    9.3349999872e-03 -3.8000001723e-02  8.0105200000e+02 ] stress_27 gradient
 [  9.9993104290e-01 -1.2841922178e-04  2.7276100000e+02 -3.7556785941e-02 
    7.8650000148e-03 -3.2000002648e-02  8.1555900000e+02 ] stress_28 gradient
 [  9.9993104290e-01 -7.2010576200e-04  2.7276000000e+02 -3.7556785941e-02 
    7.8650000148e-03 -3.3000003441e-02  8.1555900000e+02 ] stress_29 gradient
 [  9.9991400555e-01 -1.7742643118e-03  2.7276000000e+02 -3.2006347814e-02 
    6.8650000031e-03 -3.8000001723e-02  8.1555400000e+02 ] stress_30 gradient
 [  9.8274772582e-01 -3.2002460251e-03  2.7221800000e+02  3.3527592083e+00 
   -6.0525500000e-01 -6.5440000014e+00  8.0960700000e+02 ] stress_31 gradient
 [ -8.7577837583e-02 -1.9837362040e-03  2.0895300000e+02  6.2258403661e+01 
   -1.1270105000e+01 -4.6417400000e+02  3.9132600000e+02 ] stress_32 gradient
 [ -9.6528639017e-01 -7.5593498285e-05 -1.2127400000e+02  1.0219134270e+01 
   -1.8484550000e+00 -8.7324700000e+02  1.7429000002e+01 ] stress_33 gradient
 [ -9.9853524149e-01 -3.0599339993e-06 -5.3483600000e+02  9.2329357318e-01 
   -1.6687499999e-01 -8.9133500000e+02  8.9499999945e-01 ] stress_34 gradient
 [ -9.9989665843e-01 -2.1093238947e-07 -9.6759600000e+02  1.1585213746e-01 
   -2.0925000001e-02 -8.9222800000e+02  7.9000000142e-02 ] stress_35 gradient
 [ -9.9998868224e-01 -3.2502335002e-08 -1.3998760000e+03  2.0540156216e-02 
   -3.7099999872e-03 -8.9230300000e+02  1.0999997357e-02 ] stress_36 gradient
 [ -9.9999790896e-01 -1.8469756794e-08 -1.8135530000e+03  4.9612196487e-03 
   -8.9499999945e-04 -8.9231300000e+02  2.0000015866e-03 ] stress_37 gradient
 [ -9.9999912592e-01 -1.8691615912e-08 -2.1913880000e+03  1.5908898842e-03 
   -2.9000000268e-04 -8.9231400000e+02  1.0000007933e-03 ] stress_38 gradient
 [ -9.9999936931e-01 -2.0355558040e-08 -2.5176820000e+03  6.4814030583e-04 
   -1.1500000596e-04 -8.9231500000e+02  0.0000000000e+00 ] stress_39 gradient
 [ -9.9999939144e-01 -2.1742176269e-08 -2.7787030000e+03  3.4174672133e-04 
   -5.9999990754e-05 -8.9231400000e+02  0.0000000000e+00 ] stress_40 gradient
 [ -9.9999941356e-01 -2.2851471231e-08 -2.9636950000e+03  2.1211861997e-04 
   -4.0000003310e-05 -8.9231500000e+02  0.0000000000e+00 ] stress_41 gradient
 [ -9.9999941356e-01 -2.3406118396e-08 -3.0649060000e+03  1.6498117119e-04 
   -2.9999995377e-05 -8.9231500000e+02  0.0000000000e+00 ] stress_42 gradient
 [ -9.9999939144e-01  7.4393629659e-05 -3.0649050000e+03  1.7676555013e-04 
   -3.4999999343e-05 -8.9231400000e+02  1.0000007933e-03 ] stress_43 gradient
 [ -9.9726043623e-01  1.9878530573e-03 -3.0647870000e+03 -2.0080966454e+00 
    1.8067449999e-01 -8.9144260000e+02  1.5209000011e+00 ] stress_44 gradient
 [ -7.9095182673e-01  3.0967393994e-03 -3.0527000000e+03 -8.3653633717e+01 
    7.5518000000e+00 -8.1360800000e+02  1.3723600000e+02 ] stress_45 gradient
 [ -7.9095183336e-01  2.1045674228e-03 -3.0526996000e+03 -8.3653630182e+01 
    7.5518010000e+00 -8.1360750000e+02  1.3723580000e+02 ] stress_46 gradient
 [ -7.9216541701e-01  2.9647082586e-04 -3.0528590000e+03 -8.3163038627e+01 
    7.5032800000e+00 -8.1783900000e+02  1.3645300000e+02 ] stress_47 gradient
 [ -7.9132025166e-01  1.7452426330e-03 -3.0528253000e+03 -8.3780269731e+01 
    7.5589605000e+00 -8.1756780000e+02  1.3692320000e+02 ] stress_48 gradient
 [ -7.9132025387e-01  1.2499766325e-03 -3.0528250000e+03 -8.3780268553e+01 
    7.5589600000e+00 -8.1756800000e+02  1.3692300000e+02 ] stress_49 gradient
 [ -7.9132171421e-01  4.7695091243e-04 -3.0528260000e+03 -8.3779679335e+01 
    7.5589050000e+00 -8.1757300000e+02  1.3692200000e+02 ] stress_50 gradient
 [ -9.5156061500e-01 -9.1619645388e-05 -3.0837170000e+03 -1.9348886061e+01 
    1.6988550000e+00 -1.3838260000e+03  3.1906999999e+01 ] stress_51 gradient
 [ -9.5155638886e-01  7.2841487858e-04 -3.0837160000e+03 -1.9353269847e+01 
    1.6992450000e+00 -1.3838230000e+03  3.1910000001e+01 ] stress_52 gradient
 [ -9.3302207195e-01  2.4427879973e-03 -3.0828153000e+03 -3.0657465267e+01 
    2.7136680000e+00 -1.3738382000e+03  4.2934299999e+01 ] stress_53 gradient
 [ -4.3541534271e-02  2.0648859376e-03 -3.0043480000e+03 -2.0962273496e+02 
    1.8834135000e+01 -7.9480600000e+02  6.8225400000e+02 ] stress_54 gradient
 [  8.6069423716e-01  2.8289217115e-04 -2.6791550000e+03 -9.2717746570e+01 
    8.3264300000e+00 -1.2415400000e+02  1.4227360000e+03 ] stress_55 gradient
 [  9.6922958504e-01  6.0795673216e-05 -2.3761680000e+03 -3.3346772716e+01 
    2.9915900000e+00 -3.1024000003e+01  1.5255630000e+03 ] stress_56 gradient
 [  9.8316830495e-01  3.2739890534e-05 -2.2387370000e+03 -2.1604838639e+01 
    1.9374100000e+00 -1.7909999997e+01  1.5400420000e+03 ] stress_57 gradient
 [  9.8316830495e-01 -3.8289802910e-04 -2.2387370000e+03 -2.1604838639e+01 
    1.9374100000e+00 -1.7910000003e+01  1.5400420000e+03 ] stress_58 gradient
 [  9.8314577139e-01 -1.9401766743e-03 -2.2387375000e+03 -2.1599756040e+01 
    1.9363180000e+00 -1.7924700001e+01  1.5400280000e+03 ] stress_59 gradient
 [  7.5147438612e-01 -3.5562815953e-03 -2.2467700000e+03 -4.3205034232e-01 
   -2.4146450000e+00 -1.8487900000e+02  1.3732750000e+03 ] stress_60 gradient
 [ -9.2992282770e-01 -1.5554020181e-04 -2.5133540000e+03  1.0061482973e+01 
   -2.3272100000e+00 -1.4973270000e+03  6.2414999996e+01 ] stress_61 gradient
 [ -9.9605836496e-01 -8.5442315924e-06 -2.8100380000e+03  1.2213320646e+00 
   -2.7585500001e-01 -1.5558010000e+03  4.0119999994e+00 ] stress_62 gradient
 [ -9.9831692003e-01 -3.6214035179e-06 -2.9097030000e+03  6.3164221015e-01 
   -1.4214000001e-01 -1.5580180000e+03  1.7969999988e+00 ] stress_63 gradient
 [ -9.9821460743e-01  1.3012860611e-03 -2.9097000000e+03  5.4341263499e-01 
   -1.3391499999e-01 -1.5579660000e+03  1.8489999974e+00 ] stress_64 gradient
 [ -8.4388027653e-01  3.1042479380e-03 -2.9011820000e+03 -6.2693883255e+01 
    5.7964000000e+00 -1.4575840000e+03  1.0223100000e+02 ] stress_65 gradient
 [ -4.8332007569e-01  2.8237051976e-03 -2.8749120000e+03 -1.4575057973e+02 
    1.3604145000e+01 -1.2026570000e+03  3.5715900000e+02 ] stress_66 gradient
 [ -4.8332007348e-01  1.5080922348e-03 -2.8749114000e+03 -1.4575058091e+02 
    1.3604145500e+01 -1.2026568000e+03  3.5715910000e+02 ] stress_67 gradient
 [ -5.3343546002e-01 -6.3409898146e-04 -2.8786610000e+03 -1.3008416775e+02 
    1.1490130000e+01 -1.2346660000e+03  3.2515000000e+02 ] stress_68 gradient
 [ -9.9122163858e-01 -1.6601871059e-05 -3.0630300000e+03 -1.8902953731e+00 
   -8.1035000022e-02 -1.5526870000e+03  7.1310000010e+00 ] stress_69 gradient
 [ -9.9213984106e-01 -1.4833433429e-05 -3.0687110000e+03 -1.6770218523e+00 
   -8.0954999987e-02 -1.5534040000e+03  6.4140000006e+00 ] stress_70 gradient
 [ -9.9213977468e-01  4.4444940933e-04 -3.0687120000e+03 -1.6770807741e+00 
   -8.0950000012e-02 -1.5534040000e+03  6.4140000006e+00 ] stress_71 gradient
 [ -9.9201925203e-01  1.2860124040e-03 -3.0687070000e+03 -1.7854498369e+00 
   -7.1219999995e-02 -1.5533430000e+03  6.4750000007e+00 ] stress_72 gradient
 [ -9.7790130335e-01  2.4479379266e-03 -3.0680394740e+03 -1.0605647805e+01 
    7.2394233000e-01 -1.5450202090e+03  1.4797420000e+01 ] stress_73 gradient
 [ -6.3395146047e-01  2.9864183764e-03 -3.0458510000e+03 -1.2424051099e+02 
    1.1014465000e+01 -1.3114420000e+03  2.4837500000e+02 ] stress_74 gradient
 [  4.9838715488e-01  1.0263203553e-03 -2.8768640000e+03 -1.7812806448e+02 
    1.6010210000e+01 -4.4551800000e+02  1.1143000000e+03 ] stress_75 gradient
 [  9.2481436666e-01  1.5202224002e-04 -2.5407290000e+03 -6.0089325456e+01 
    5.4037900000e+00 -7.7120000003e+01  1.4826970000e+03 ] stress_76 gradient
 [  9.8753077349e-01  2.4197322884e-05 -2.1424520000e+03 -1.6835492146e+01 
    1.5129800000e+00 -1.4917999999e+01  1.5449000000e+03 ] stress_77 gradient
 [  9.9739659341e-01  4.7727404998e-06 -1.7176810000e+03 -5.2583506932e+00 
    4.7219000001e-01 -3.6539999996e+00  1.5561640000e+03 ] stress_78 gradient
 [  9.9933225752e-01  1.1369716153e-06 -1.2812730000e+03 -1.8960461455e+00 
    1.7013500002e-01 -1.1060000020e+00  1.5587120000e+03 ] stress_79 gradient
 [  9.9979616020e-01  3.1698096391e-07 -8.4545700000e+02 -7.8474473990e-01 
    7.0370000003e-02 -4.0099999978e-01  1.5594170000e+03 ] stress_80 gradient
 [  9.9992767968e-01  1.0266522573e-07 -4.2198500000e+02 -3.6853259028e-01 
    3.3024999993e-02 -1.6900000332e-01  1.5596480000e+03 ] stress_81 gradient
 [  9.9997067133e-01  4.0322862622e-08 -2.2199000000e+01 -1.9422997963e-01 
    1.7395000015e-02 -8.2000002521e-02  1.5597350000e+03 ] stress_82 gradient
 [  9.9998651385e-01  2.1132064324e-08  3.4319300000e+02 -1.1383701020e-01 
    1.0194999987e-02 -4.5999996701e-02  1.5597720000e+03 ] stress_83 gradient
 [  9.9999299690e-01  1.5474661532e-08  6.6447200001e+02 -7.3640525520e-02 
    6.5949999737e-03 -2.7999999475e-02  1.5597890000e+03 ] stress_84 gradient
 [  9.9999589546e-01  1.4198972232e-08  9.3300300000e+02 -5.2263679136e-02 
    4.6799999893e-03 -1.8999998019e-02  1.5597980000e+03 ] stress_85 gradient
 [  9.9999724517e-01  1.4365366570e-08  1.1416400000e+03 -4.0538231402e-02 
    3.6299999806e-03 -1.5000000531e-02  1.5598030000e+03 ] stress_86 gradient
 [  9.9999790896e-01  1.4753619713e-08  1.2848420000e+03 -3.4245378005e-02 
    3.0649999871e-03 -1.1999998151e-02  1.5598050000e+03 ] stress_87 gradient
 [  9.9999817448e-01  1.5030943295e-08  1.3586870000e+03 -3.1440698094e-02 
    2.8150000162e-03 -1.1000003042e-02  1.5598060000e+03 ] stress_88 gradient
 [  9.9999813023e-01 -3.5482333294e-04  1.3586870000e+03 -3.1358207509e-02 
    2.8100000122e-03 -1.0999997357e-02  1.5598070000e+03 ] stress_89 gradient
 [  9.7186765702e-01 -2.5027259860e-03  1.3571308000e+03  2.1429519037e+01 
   -1.5308305000e+00 -2.0101200000e+01  1.5430657000e+03 ] stress_90 gradient
 [  6.1441652456e-01 -2.8751325997e-03  1.3304820000e+03  1.7040888994e+02 
   -1.2208185000e+01 -3.1133400000e+02  1.3003850000e+03 ] stress_91 gradient
 [  6.1441653120e-01 -1.4776359606e-03  1.3304822000e+03  1.7040889701e+02 
   -1.2208186000e+01 -3.1133310000e+02  1.3003850000e+03 ] stress_92 gradient
 [  6.4998338466e-01  4.4014318273e-04  1.3335620000e+03  1.5455772262e+02 
   -1.0971535000e+01 -2.8298800000e+02  1.3524150000e+03 ] stress_93 gradient
 [  6.6436655811e-01  4.6264711177e-04  1.3349530000e+03  1.4816123751e+02 
   -1.0486140000e+01 -2.7147100000e+02  1.3735560000e+03 ] stress_94 gradient
 [  6.6436651386e-01  1.7292013218e-04  1.3349520000e+03  1.4816126108e+02 
   -1.0486140000e+01 -2.7147200000e+02  1.3735550000e+03 ] stress_95 gradient
 [  6.6434673283e-01 -3.5006701000e-04  1.3349510000e+03  1.4818724562e+02 
   -1.0487995000e+01 -2.7148300000e+02  1.3735460000e+03 ] stress_96 gradient
 [  6.6285704898e-01 -1.0967201357e-03  1.3348740000e+03  1.4969919202e+02 
   -1.0596415000e+01 -2.7243500000e+02  1.3727290000e+03 ] stress_97 gradient
 [  6.2930971659e-01 -1.9719362534e-03  1.3327964000e+03  1.7318828418e+02 
   -1.2286836000e+01 -2.9693860000e+02  1.3516984000e+03 ] stress_98 gradient
 [  3.3098865112e-01 -2.2670325466e-03  1.3081640000e+03  2.8205160345e+02 
   -2.0154670000e+01 -5.4411100000e+02  1.1395630000e+03 ] stress_99 gradient
 [ -4.0982059790e-01 -1.1346612318e-03  1.1895620000e+03  3.0025782990e+02 
   -2.1540980000e+01 -1.2315710000e+03  5.4955200000e+02 ] stress_100 gradient
 [ -8.4782960041e-01 -2.9428174368e-04  9.5259100000e+02  1.4756209659e+02 
   -1.0586400000e+01 -1.6860380000e+03  1.5950900000e+02 ] stress_101 gradient
 [ -9.6350583231e-01 -6.8313308017e-05  6.5058100000e+02  5.6267866516e+01 
   -4.0333200000e+00 -1.8211390000e+03  4.3559000000e+01 ] stress_102 gradient
 [ -9.9032640333e-01 -1.7219581819e-05  3.1258100000e+02  2.1531257035e+01 
   -1.5419600000e+00 -1.8564840000e+03  1.3225000004e+01 ] stress_103 gradient
 [ -9.9711629583e-01 -4.8050764407e-06 -5.1704000003e+01  8.7936969239e+00 
   -6.2921000000e-01 -1.8665990000e+03  4.5440000008e+00 ] stress_104 gradient
 [ -9.9904611857e-01 -1.4608302069e-06 -4.3715300000e+02  3.8707883112e+00 
   -2.7674499998e-01 -1.8698580000e+03  1.7469999989e+00 ] stress_105 gradient
 [ -9.9965572377e-01 -4.7522185468e-07 -8.3959700000e+02  1.8311024847e+00 
   -1.3081500001e-01 -1.8710310000e+03  7.4000000154e-01 ] stress_106 gradient
 [ -9.9986650011e-01 -1.6473026462e-07 -1.2549560000e+03  9.2575650643e-01 
   -6.6090000018e-02 -1.8714960000e+03  3.4100000335e-01 ] stress_107 gradient
 [ -9.9994513744e-01 -6.3396192656e-08 -1.6790890000e+03  4.9734753425e-01 
   -3.5485000012e-02 -1.8716950000e+03  1.6999999843e-01 ] stress_108 gradient
 [ -9.9997642420e-01 -3.0949322434e-08 -2.1077940000e+03  2.8244777038e-01 
   -2.0140000004e-02 -1.8717880000e+03  9.0000003183e-02 ] stress_109 gradient
 [ -9.9998956730e-01 -2.2074964632e-08 -2.5368490000e+03  1.6878752566e-01 
   -1.2029999994e-02 -1.8718340000e+03  5.1000000667e-02 ] stress_110 gradient
 [ -9.9999532017e-01 -2.1464852686e-08 -2.9620270000e+03  1.0571757961e-01 
   -7.5300000049e-03 -1.8718580000e+03  3.1000001854e-02 ] stress_111 gradient
 [ -9.9999793109e-01 -2.3572512735e-08 -3.3791010000e+03  6.9162465140e-02 
   -4.9250000131e-03 -1.8718720000e+03  1.8999998019e-02 ] stress_112 gradient
 [ -9.9999912592e-01 -2.6456678753e-08 -3.7839710000e+03  4.7137478383e-02 
   -3.3550000182e-03 -1.8718790000e+03  1.2999998944e-02 ] stress_113 gradient
 [ -9.9999967908e-01 -2.9396309866e-08 -4.1726570000e+03  3.3373334700e-02 
   -2.3750000082e-03 -1.8718830000e+03  9.0000014552e-03 ] stress_114 gradient
 [ -9.9999994460e-01 -3.2169546640e-08 -4.5413130000e+03  2.4499704391e-02 
   -1.7450000200e-03 -1.8718860000e+03  6.0000047597e-03 ] stress_115 gradient
 [ -1.0000000774e+00 -3.4720924610e-08 -4.8863090000e+03  1.8607519543e-02 
   -1.3199999955e-03 -1.8718880000e+03  3.9999974888e-03 ] stress_116 gradient
 [ -1.0000000995e+00 -3.6939513903e-08 -5.2042050000e+03  1.4612618298e-02 
   -1.0400000008e-03 -1.8718890000e+03  3.9999974888e-03 ] stress_117 gradient
 [ -1.0000001216e+00 -3.8936244393e-08 -5.4919080000e+03  1.1843291390e-02 
   -8.3999998424e-04 -1.8718900000e+03  2.9999966955e-03 ] stress_118 gradient
 [ -1.0000001216e+00 -4.0655650985e-08 -5.7465830000e+03  9.8870860936e-03 
   -7.0500001925e-04 -1.8718910000e+03  2.0000015866e-03 ] stress_119 gradient
 [ -1.0000000995e+00 -4.2097734309e-08 -5.9656670000e+03  8.5083148294e-03 
   -6.0499999677e-04 -1.8718910000e+03  1.9999959022e-03 ] stress_120 gradient
 [ -1.0000000995e+00 -4.3262494050e-08 -6.1470520000e+03  7.5302121142e-03 
   -5.3499999808e-04 -1.8718920000e+03  9.9999510894e-04 ] stress_121 gradient
 [ -1.0000000774e+00 -4.4149929578e-08 -6.2889290000e+03  6.8702874294e-03 
   -4.8999999080e-04 -1.8718920000e+03  2.0000015866e-03 ] stress_122 gradient
 [ -1.0000000774e+00 -4.4760041524e-08 -6.3898810000e+03  6.4342658105e-03 
   -4.6000002385e-04 -1.8718910000e+03  2.0000015866e-03 ] stress_123 gradient
 [ -1.0000000774e+00 -4.5148294666e-08 -6.4489500000e+03  6.1867940537e-03 
   -4.4000000798e-04 -1.8718920000e+03  1.0000007933e-03 ] stress_124 gradient
 [ -1.0000000774e+00 -4.5259224225e-08 -6.4648200000e+03  6.1278722260e-03 
   -4.3500000402e-04 -1.8718920000e+03  1.0000007933e-03 ] stress_125 gradient
 [ -9.9999432448e-01  4.9382955252e-04 -6.4648200000e+03 -6.9645624609e-03 
    1.3000001786e-04 -1.8718890000e+03  4.9999982821e-03 ] stress_126 gradient
 [ -9.9375712801e-01  1.7164422695e-03 -6.4644150000e+03 -9.2764789774e+00 
    4.0392000000e-01 -1.8677010000e+03  6.2090000000e+00 ] stress_127 gradient
 [ -7.2885861073e-01  2.7533295443e-03 -6.4411870000e+03 -2.1734929830e+02 
    9.5149750000e+00 -1.6568900000e+03  3.1846000000e+02 ] stress_128 gradient
 [  3.0082648067e-01  1.3313759575e-03 -6.2548140000e+03 -4.1692800294e+02 
    1.8270445000e+01 -7.2905700000e+02  1.6927790000e+03 ] stress_129 gradient
 [  8.2111767016e-01  3.4415291617e-04 -5.8997980000e+03 -2.1747335236e+02 
    9.5122050000e+00 -2.0649500000e+02  2.4668180000e+03 ] stress_130 gradient
 [  9.4176967091e-01  1.1000115795e-04 -5.5361500000e+03 -1.0350015014e+02 
    4.5197450000e+00 -7.3111999995e+01  2.6643930000e+03 ] stress_131 gradient
 [  9.7270646545e-01  5.0611737644e-05 -5.2463810000e+03 -6.0229488748e+01 
    2.6274200000e+00 -3.6377000004e+01  2.7188070000e+03 ] stress_132 gradient
 [  9.8182773110e-01  3.3303855966e-05 -5.0738890000e+03 -4.4677161254e+01 
    1.9479100000e+00 -2.5041999999e+01  2.7355970000e+03 ] stress_133 gradient
 [  9.8225800160e-01  3.2491519448e-05 -5.0633310000e+03 -4.3891780158e+01 
    1.9136050000e+00 -2.4497999999e+01  2.7364030000e+03 ] stress_134 gradient
 [  9.8207963605e-01 -1.9576486373e-03 -5.0633361000e+03 -4.3826775218e+01 
    1.9031910000e+00 -2.4684700000e+01  2.7362169000e+03 ] stress_135 gradient
 [  9.8193990987e-01 -2.0725653020e-03 -5.0633401000e+03 -4.3779481008e+01 
    1.8956380000e+00 -2.4834200001e+01  2.7360680000e+03 ] stress_136 gradient
 [  9.8392476325e-01 -1.1587457949e-03 -5.0628880000e+03 -5.1668014611e+01 
    2.3083250000e+00 -2.4682000000e+01  2.7362930000e+03 ] stress_137 gradient
 [  9.8392476325e-01 -1.3326367818e-03 -5.0628880000e+03 -5.1668014611e+01 
    2.3083250000e+00 -2.4682000000e+01  2.7362930000e+03 ] stress_138 gradient
 [  9.8392242006e-01 -2.1684905029e-03 -5.0628875000e+03 -5.1667111929e+01 
    2.3081820000e+00 -2.4683800001e+01  2.7362910000e+03 ] stress_139 gradient
 [  9.4309322954e-01 -3.6526539030e-03 -5.0640770000e+03 -4.3769529108e+01 
    1.1107700000e+00 -7.4592000001e+01  2.6865960000e+03 ] stress_140 gradient
 [ -7.8599822856e-01 -4.8295796516e-04 -5.2326220000e+03  2.5394915802e+01 
   -4.9698350000e+00 -2.4456420000e+03  3.2565400000e+02 ] stress_141 gradient
 [ -9.9587090987e-01 -9.1844610356e-06 -5.6354970000e+03  1.6014369057e+00 
   -2.8300500000e-01 -2.7652260000e+03  7.4329999961e+00 ] stress_142 gradient
 [ -9.9973681712e-01 -6.1565856537e-07 -6.0141330000e+03  1.7776721531e-01 
   -3.0764999991e-02 -2.7721360000e+03  5.5200000020e-01 ] stress_143 gradient
 [ -9.9995281531e-01 -1.4936653296e-07 -6.3007690000e+03  4.4026404822e-02 
   -7.5600000002e-03 -2.7725780000e+03  1.1199999790e-01 ] stress_144 gradient
 [ -9.9997901300e-01 -9.4456444965e-08 -6.4503330000e+03  2.2849892612e-02 
   -3.9100000038e-03 -2.7726370000e+03  5.3999997363e-02 ] stress_145 gradient
 [ -9.9997903512e-01  9.8062540007e-05 -6.4503340000e+03  2.2838108300e-02 
   -3.9100000038e-03 -2.7726370000e+03  5.3000002254e-02 ] stress_146 gradient
 [ -9.9894480166e-01  1.2507670050e-03 -6.4502710000e+03 -1.7648625432e+00 
    7.3920000006e-02 -2.7716740000e+03  1.0159999988e+00 ] stress_147 gradient
 [ -8.3729899198e-01  2.7204630278e-03 -6.4371270000e+03 -1.4879309184e+02 
    6.5174200000e+00 -2.5864860000e+03  1.8620500000e+02 ] stress_148 gradient
 [  1.7632707036e-01  1.5560389751e-03 -6.2774120000e+03 -4.2833184345e+02 
    1.8802870000e+01 -1.2556490000e+03  1.5170420000e+03 ] stress_149 gradient
 [  7.5297546508e-01  4.7642732533e-04 -5.9777070000e+03 -2.6297789420e+02 
    1.1526825000e+01 -4.1253200000e+02  2.3601590000e+03 ] stress_150 gradient
 [  8.8228686443e-01  2.2529964188e-04 -5.7586810000e+03 -1.6655850038e+02 
    7.2926850000e+00 -2.0761300000e+02  2.5650780000e+03 ] stress_151 gradient
 [  8.9442438252e-01  2.0172474426e-04 -5.7240620000e+03 -1.5505371495e+02 
    6.7878900000e+00 -1.8772100000e+02  2.5849690000e+03 ] stress_152 gradient
 [  8.9442436039e-01 -8.4238126595e-04 -5.7240630000e+03 -1.5505371495e+02 
    6.7878900000e+00 -1.8772200000e+02  2.5849690000e+03 ] stress_153 gradient
 [  8.9116291615e-01 -2.7825763213e-03 -5.7241495000e+03 -1.5436435172e+02 
    6.6711375000e+00 -1.9156580000e+02  2.5811250000e+03 ] stress_154 gradient
 [ -4.1608414694e-01 -1.2979607283e-03 -5.8067500000e+03 -1.8140799628e+01 
   -5.2964850000e+00 -1.9338240000e+03  8.3886700000e+02 ] stress_155 gradient
 [ -9.8508060356e-01 -3.2833348614e-05 -6.1206370000e+03  1.6222952399e+00 
   -6.5838000000e-01 -2.7480640000e+03  2.4625999998e+01 ] stress_156 gradient
 [ -9.9717433345e-01 -6.1502626736e-06 -6.2904440000e+03  5.5763636908e-01 
   -1.8747499999e-01 -2.7676400000e+03  5.0499999986e+00 ] stress_157 gradient
 [ -9.9715964150e-01  5.8505251412e-04 -6.2904430000e+03  5.2610139609e-01 
   -1.8609000000e-01 -2.7676280000e+03  5.0630000032e+00 ] stress_158 gradient
 [ -9.2837348879e-01  2.5057708169e-03 -6.2853382000e+03 -7.3120825455e+01 
    3.1022255000e+00 -2.6921368000e+03  8.0553900000e+01 ] stress_159 gradient
 [ -5.3861262362e-01  2.6302938407e-03 -6.2464060000e+03 -3.0191127122e+02 
    1.3366180000e+01 -2.2137180000e+03  5.5897300000e+02 ] stress_160 gradient
 [ -5.3861263911e-01  1.8273298316e-03 -6.2464061000e+03 -3.0191127712e+02 
    1.3366181500e+01 -2.2137185000e+03  5.5897230000e+02 ] stress_161 gradient
 [ -5.4438574040e-01 -2.6857217478e-04 -6.2467950000e+03 -2.9810024145e+02 
    1.3053220000e+01 -2.2198460000e+03  5.5284500000e+02 ] stress_162 gradient
 [ -9.9052461186e-01 -1.7743279853e-05 -6.4124300000e+03 -6.1566967559e+00 
   -7.2595000006e-02 -2.7591100000e+03  1.3581000002e+01 ] stress_163 gradient
 [ -9.9654780153e-01 -6.3417269408e-06 -6.4614070000e+03 -2.2420941586e+00 
   -6.4409999993e-02 -2.7675090000e+03  5.1820000010e+00 ] stress_164 gradient
 [ -9.9654775728e-01  1.9461117005e-04 -6.4614070000e+03 -2.2421884336e+00 
   -6.4404999989e-02 -2.7675090000e+03  5.1819999953e+00 ] stress_165 gradient
 [ -9.9653105183e-01  5.9124021549e-04 -6.4614060000e+03 -2.2784960763e+00 
   -6.2835000023e-02 -2.7674950000e+03  5.1960000008e+00 ] stress_166 gradient
 [ -9.9578067830e-01  1.1786997327e-03 -6.4613610000e+03 -3.5985104518e+00 
   -5.4150000039e-03 -2.7668030000e+03  5.8880000012e+00 ] stress_167 gradient
 [ -9.8412271954e-01  1.9238391371e-03 -6.4605720000e+03 -1.9416824130e+01 
    6.8542300000e-01 -2.7548206000e+03  1.7870100001e+01 ] stress_168 gradient
 [ -8.9257622621e-01  2.6156463806e-03 -6.4533389000e+03 -1.0704888106e+02 
    4.5264300000e+00 -2.6511020000e+03  1.2158880000e+02 ] stress_169 gradient
 [ -5.2028933087e-01  2.6054909539e-03 -6.4148120000e+03 -3.1617031129e+02 
    1.3728055000e+01 -2.1905030000e+03  5.8218700000e+02 ] stress_170 gradient
 [  1.3732988386e-01  1.6239130579e-03 -6.2990600000e+03 -4.3130858700e+02 
    1.8834335000e+01 -1.3098790000e+03  1.4628110000e+03 ] stress_171 gradient
 [  6.3651814817e-01  7.0070408655e-04 -6.0925580000e+03 -3.2432958490e+02 
    1.4171705000e+01 -5.8994600000e+02  2.1827450000e+03 ] stress_172 gradient
 [  8.6052921826e-01  2.6744535321e-04 -5.8228860000e+03 -1.8638208441e+02 
    8.1382100000e+00 -2.4290700000e+02  2.5297840000e+03 ] stress_173 gradient
 [  9.4499891235e-01  1.0372332639e-04 -5.5136950000e+03 -9.9609375536e+01 
    4.3451500000e+00 -1.0275900000e+02  2.6699320000e+03 ] stress_174 gradient
 [  9.7686882258e-01  4.2671905276e-05 -5.1761830000e+03 -5.3455550282e+01 
    2.3295850000e+00 -4.6297000000e+01  2.7263940000e+03 ] stress_175 gradient
 [  9.8957709187e-01  1.8745638555e-05 -4.8158730000e+03 -2.9558474992e+01 
    1.2869850000e+00 -2.2316999997e+01  2.7503730000e+03 ] stress_176 gradient
 [  9.9499072059e-01  8.7584364014e-06 -4.4363670000e+03 -1.6966899651e+01 
    7.3811999999e-01 -1.1458999995e+01  2.7612320000e+03 ] stress_177 gradient
 [  9.9744867902e-01  4.3248072949e-06 -4.0406410000e+03 -1.0118813931e+01 
    4.3986000000e-01 -6.2290000017e+00  2.7664620000e+03 ] stress_178 gradient
 [  9.9863127018e-01  2.2433266966e-06 -3.6315470000e+03 -6.2612241142e+00 
    2.7197500000e-01 -3.5620000006e+00  2.7691280000e+03 ] stress_179 gradient
 [  9.9923069722e-01  1.2162861871e-06 -3.2119130000e+03 -4.0110223094e+00 
    1.7411000002e-01 -2.1320000030e+00  2.7705590000e+03 ] stress_180 gradient
 [  9.9954903013e-01  6.8665342684e-07 -2.7845740000e+03 -2.6540875039e+00 
    1.1513500002e-01 -1.3300000035e+00  2.7713610000e+03 ] stress_181 gradient
 [  9.9972533351e-01  4.0284037466e-07 -2.3524330000e+03 -1.8100791694e+00 
    7.8480000013e-02 -8.6200000169e-01  2.7718290000e+03 ] stress_182 gradient
 [  9.9982676105e-01  2.4565331408e-07 -1.9183840000e+03 -1.2697540392e+00 
    5.5019999991e-02 -5.7699999729e-01  2.7721140000e+03 ] stress_183 gradient
 [  9.9988712194e-01  1.5607776593e-07 -1.4853610000e+03 -9.1454957097e-01 
    3.9609999988e-02 -3.9899999820e-01  2.7722920000e+03 ] stress_184 gradient
 [  9.9992422796e-01  1.0388544993e-07 -1.0562600000e+03 -6.7524437760e-01 
    2.9229999996e-02 -2.8399999792e-01  2.7724070000e+03 ] stress_185 gradient
 [  9.9994765985e-01  7.2936127184e-08 -6.3397000000e+02 -5.1034569391e-01 
    2.2085000012e-02 -2.0800000016e-01  2.7724820000e+03 ] stress_186 gradient
 [  9.9996288283e-01  5.4410905610e-08 -2.2132700000e+02 -3.9435214404e-01 
    1.7060000005e-02 -1.5699999949e-01  2.7725340000e+03 ] stress_187 gradient
 [  9.9997301673e-01  4.3428888074e-08  1.7890800000e+02 -3.1117806346e-01 
    1.3454999987e-02 -1.1999999856e-01  2.7725710000e+03 ] stress_188 gradient
 [  9.9997992018e-01  3.6884049124e-08  5.6403600000e+02 -2.5051212883e-01 
    1.0830000008e-02 -9.4000000672e-02  2.7725960000e+03 ] stress_189 gradient
 [  9.9998469949e-01  3.3223376822e-08  9.3147900000e+02 -2.0559011188e-01 
    8.8849999997e-03 -7.5999997762e-02  2.7726150000e+03 ] stress_190 gradient
 [  9.9998806270e-01  3.1226646017e-08  1.2787800000e+03 -1.7185146177e-01 
    7.4250000068e-03 -6.2999998818e-02  2.7726280000e+03 ] stress_191 gradient
 [  9.9999049661e-01  3.0339210489e-08  1.6035710000e+03 -1.4623224225e-01 
    6.3199999829e-03 -5.2999996569e-02  2.7726380000e+03 ] stress_192 gradient
 [  9.9999226673e-01  3.0228280930e-08  1.9037200000e+03 -1.2657591379e-01 
    5.4650000152e-03 -4.4000000798e-02  2.7726470000e+03 ] stress_193 gradient
 [  9.9999357218e-01  3.0450139733e-08  2.1772010000e+03 -1.1142121446e-01 
    4.8100000072e-03 -3.8000001723e-02  2.7726530000e+03 ] stress_194 gradient
 [  9.9999452362e-01  3.0838393190e-08  2.4221420000e+03 -9.9695766725e-02 
    4.3050000045e-03 -3.4999999343e-02  2.7726560000e+03 ] stress_195 gradient
 [  9.9999525379e-01  3.1393040356e-08  2.6369470000e+03 -9.0610017797e-02 
    3.9100000038e-03 -3.1000001854e-02  2.7726600000e+03 ] stress_196 gradient
 [  9.9999580695e-01  3.1947687521e-08  2.8201300000e+03 -8.3657239715e-02 
    3.6099999932e-03 -2.7999999475e-02  2.7726630000e+03 ] stress_197 gradient
 [  9.9999618310e-01  3.2446870222e-08  2.9704950000e+03 -7.8436763997e-02 
    3.3850000136e-03 -2.6000003572e-02  2.7726650000e+03 ] stress_198 gradient
 [  9.9999647075e-01  3.2890588144e-08  3.0870360000e+03 -7.4653981372e-02 
    3.2199999964e-03 -2.5000002779e-02  2.7726660000e+03 ] stress_199 gradient
 [  9.9999664776e-01  3.3167912042e-08  3.1689350000e+03 -7.2132126288e-02 
    3.1099999944e-03 -2.3999996301e-02  2.7726670000e+03 ] stress_200 gradient
 [  9.9999673626e-01  3.3334306066e-08  3.2156720000e+03 -7.0753355024e-02 
    3.0550000076e-03 -2.3999996301e-02  2.7726670000e+03 ] stress_201 gradient
 [  9.9999673626e-01  3.3334306066e-08  3.2179610000e+03 -7.0682648817e-02 
    3.0500000037e-03 -2.3999996301e-02  2.7726670000e+03 ] stress_202 gradient
 [  9.9055379662e-01 -1.7487104879e-03  3.2172780000e+03  1.5761158308e+01 
   -5.6529500000e-01 -1.1284999999e+01  2.7630180000e+03 ] stress_203 gradient
 [  5.9335911345e-01 -2.6225506863e-03  3.1763500000e+03  3.3202292809e+02 
   -1.1984405000e+01 -5.7346400000e+02  2.2813150000e+03 ] stress_204 gradient
 [  5.9335911345e-01 -2.0984596850e-03  3.1763500000e+03  3.3202292809e+02 
   -1.1984400000e+01 -5.7346400000e+02  2.2813150000e+03 ] stress_205 gradient
 [  5.9458951982e-01  8.2769803102e-05  3.1764320000e+03  3.3102151593e+02 
   -1.1938990000e+01 -5.7178800000e+02  2.2841050000e+03 ] stress_206 gradient
 [  5.9616629328e-01  1.9474728052e-04  3.1765440000e+03  3.2973614761e+02 
   -1.1882840000e+01 -5.6962500000e+02  2.2877050000e+03 ] stress_207 gradient
 [  5.9616427978e-01 -1.1724707101e-04  3.1765440000e+03  3.2974169804e+02 
   -1.1883035000e+01 -5.6962700000e+02  2.2877040000e+03 ] stress_208 gradient
 [  5.9568196791e-01 -6.8313041786e-04  3.1765120000e+03  3.3073355308e+02 
   -1.1918695000e+01 -5.7015500000e+02  2.2872510000e+03 ] stress_209 gradient
 [  5.8115427127e-01 -1.4565166785e-03  3.1753775360e+03  3.5145962996e+02 
   -1.2667578625e+01 -5.8836257300e+02  2.2716285870e+03 ] stress_210 gradient
 [  4.3349919410e-01 -2.0623015028e-03  3.1611760000e+03  4.7276483257e+02 
   -1.7069565000e+01 -7.9618900000e+02  2.0933110000e+03 ] stress_211 gradient
 [ -8.5102841801e-02 -1.6154214069e-03  3.0837840000e+03  6.0164387177e+02 
   -2.1769590000e+01 -1.6020120000e+03  1.4019100000e+03 ] stress_212 gradient
 [ -6.3393510904e-01 -6.8343608402e-04  2.8933830000e+03  4.3428481203e+02 
   -1.5706345000e+01 -2.5324660000e+03  6.0358100000e+02 ] stress_213 gradient
 [ -8.7738070532e-01 -2.2859851796e-04  2.6157490000e+03  2.2133970975e+02 
   -7.9922500000e+00 -2.9807970000e+03  2.1891500000e+02 ] stress_214 gradient
 [ -9.5731412778e-01 -7.8034889552e-05  2.2874860000e+03  1.0504146319e+02 
   -3.7869750000e+00 -3.1399360000e+03  8.2375000000e+01 ] stress_215 gradient
 [ -9.8365247543e-01 -2.9111110206e-05  1.9253860000e+03  5.1339643153e+01 
   -1.8483700000e+00 -3.1963280000e+03  3.3991999999e+01 ] stress_216 gradient
 [ -9.9309853490e-01 -1.1933071473e-05  1.5375360000e+03  2.6515220466e+01 
   -9.5347000001e-01 -3.2179810000e+03  1.5413000006e+01 ] stress_217 gradient
 [ -9.9681969107e-01 -5.3296064454e-06  1.1295580000e+03  1.4517506647e+01 
   -5.2148500001e-01 -3.2270790000e+03  7.6070000034e+00 ] stress_218 gradient
 [ -9.9841737401e-01 -2.5690710891e-06  7.0649600000e+02  8.4016309476e+00 
   -3.0150500001e-01 -3.2312320000e+03  4.0440000021e+00 ] stress_219 gradient
 [ -9.9915730386e-01 -1.3267164760e-06  2.7333000000e+02  5.1171268080e+00 
   -1.8347500000e-01 -3.2332720000e+03  2.2940000008e+00 ] stress_220 gradient
 [ -9.9952351836e-01 -7.3063696208e-07 -1.6496000000e+02  3.2658494826e+00 
   -1.1700500002e-01 -3.2343390000e+03  1.3780000018e+00 ] stress_221 gradient
 [ -9.9971564213e-01 -4.2829868832e-07 -6.0335500000e+02  2.1755949610e+00 
   -7.7890000000e-02 -3.2349290000e+03  8.7199999825e-01 ] stress_222 gradient
 [ -9.9982176048e-01 -2.6745095544e-07 -1.0368610000e+03  1.5076451081e+00 
   -5.3944999991e-02 -3.2352710000e+03  5.7799999809e-01 ] stress_223 gradient
 [ -9.9988316131e-01 -1.7837459000e-07 -1.4605300000e+03  1.0836788433e+00 
   -3.8749999987e-02 -3.2354790000e+03  3.9999999899e-01 ] stress_224 gradient
 [ -9.9992011245e-01 -1.2729156801e-07 -1.8695480000e+03  8.0595660518e-01 
   -2.8804999999e-02 -3.2356090000e+03  2.8800000109e-01 ] stress_225 gradient
 [ -9.9994321244e-01 -9.7174216959e-08 -2.2592590000e+03  6.1887973787e-01 
   -2.2110000003e-02 -3.2356950000e+03  2.1500000003e-01 ] stress_226 gradient
 [ -9.9995810352e-01 -7.9037248212e-08 -2.6252140000e+03  4.8982910645e-01 
   -1.7494999980e-02 -3.2357510000e+03  1.6600000095e-01 ] stress_227 gradient
 [ -9.9996797191e-01 -6.7999765896e-08 -2.9632920000e+03  3.9897161690e-01 
   -1.4244999988e-02 -3.2357900000e+03  1.3299999750e-01 ] stress_228 gradient
 [ -9.9997467622e-01 -6.1177603363e-08 -3.2695850000e+03  3.3401617169e-01 
   -1.1919999992e-02 -3.2358180000e+03  1.0900000120e-01 ] stress_229 gradient
 [ -9.9997927851e-01 -5.6962283265e-08 -3.5406510000e+03  2.8712616513e-01 
   -1.0244999999e-02 -3.2358380000e+03  9.2000004770e-02 ] stress_230 gradient
 [ -9.9998248684e-01 -5.4410905610e-08 -3.7734140000e+03  2.5319896502e-01 
   -9.0350000050e-03 -3.2358520000e+03  8.0000000935e-02 ] stress_231 gradient
 [ -9.9998472161e-01 -5.2857893042e-08 -3.9651620000e+03  2.2891137932e-01 
   -8.1649999970e-03 -3.2358610000e+03  7.2000000273e-02 ] stress_232 gradient
 [ -9.9998622621e-01 -5.1914992419e-08 -4.1137840000e+03  2.1203616207e-01 
   -7.5650000042e-03 -3.2358680000e+03  6.6000001198e-02 ] stress_233 gradient
 [ -9.9998717765e-01 -5.1415809718e-08 -4.2175760000e+03  2.0117097333e-01 
   -7.1750000075e-03 -3.2358720000e+03  6.2999998818e-02 ] stress_234 gradient
 [ -9.9998766443e-01 -5.1193950915e-08 -4.2753130000e+03  1.9540841658e-01 
   -6.9699999869e-03 -3.2358740000e+03  6.0999997231e-02 ] stress_235 gradient
 [ -9.9998768656e-01  3.1187820837e-05 -4.2753130000e+03  1.9540841658e-01 
   -6.9650000114e-03 -3.2358750000e+03  6.0000002122e-02 ] stress_236 gradient
 [ -9.9230682920e-01  1.7996093110e-03 -4.2748190000e+03 -1.0608890510e+01 
    4.8239500001e-01 -3.2269040000e+03  9.0319999998e+00 ] stress_237 gradient
 [ -7.3518968963e-01  2.7685773548e-03 -4.2527190000e+03 -2.0664111269e+02 
    9.4042900000e+00 -2.8737350000e+03  3.6220100000e+02 ] stress_238 gradient
 [ -7.3522296335e-01  1.6917848278e-03 -4.2527208000e+03 -2.0658933688e+02 
    9.3985320000e+00 -2.8737476000e+03  3.6218870000e+02 ] stress_239 gradient
 [ -7.8193785213e-01  2.5460543331e-04 -4.2604120000e+03 -1.4745934867e+02 
    3.6793800000e+00 -2.9086210000e+03  3.2731600000e+02 ] stress_240 gradient
 [ -7.7235596516e-01  1.8594301804e-03 -4.2598088000e+03 -1.5933212107e+02 
    4.2307285000e+00 -2.8970085000e+03  3.3892870000e+02 ] stress_241 gradient
 [ -6.5159520638e-01  2.5248027977e-03 -4.2505770000e+03 -2.5104137661e+02 
    8.5836650000e+00 -2.7322610000e+03  5.0367600000e+02 ] stress_242 gradient
 [ -6.5314998618e-01  8.5286304715e-04 -4.2507140000e+03 -2.4892208737e+02 
    8.3676900000e+00 -2.7332430000e+03  5.0269500000e+02 ] stress_243 gradient
 [ -6.8659943568e-01  1.5013227916e-04 -4.2550530000e+03 -2.0921981558e+02 
    4.7570850000e+00 -2.7617060000e+03  4.7423200000e+02 ] stress_244 gradient
 [ -8.9379484141e-01 -4.7278196104e-05 -4.3181390000e+03 -2.3126990306e+01 
   -6.9751350000e+00 -3.0137550000e+03  2.2218700000e+02 ] stress_245 gradient
 [ -8.9361886993e-01  8.4637700097e-04 -4.3181290000e+03 -2.3458048601e+01 
   -6.9598100000e+00 -3.0135790000e+03  2.2236300000e+02 ] stress_246 gradient
 [ -8.1516599311e-01  2.4161891567e-03 -4.3122039000e+03 -1.0347332891e+02 
   -3.0776835000e+00 -2.9140592000e+03  3.2188270000e+02 ] stress_247 gradient
 [  1.0620649715e-01  1.6705404862e-03 -4.1833680000e+03 -4.1261117624e+02 
    1.4579440000e+01 -1.5484560000e+03  1.6874870000e+03 ] stress_248 gradient
 [  7.7754250372e-01  4.2834572253e-04 -3.8609260000e+03 -2.4177569212e+02 
    9.7966500000e+00 -4.2933800000e+02  2.8066070000e+03 ] stress_249 gradient
 [  9.1719880440e-01  1.5741868147e-04 -3.5788890000e+03 -1.2907976236e+02 
    5.3737850000e+00 -1.7216300000e+02  3.0637820000e+03 ] stress_250 gradient
 [  9.4276035957e-01  1.0801491031e-04 -3.4605010000e+03 -1.0015978809e+02 
    4.1970800000e+00 -1.2246700000e+02  3.1134780000e+03 ] stress_251 gradient
 [  9.4276029319e-01 -3.9953789350e-04 -3.4605010000e+03 -1.0015971738e+02 
    4.1970700000e+00 -1.2246700000e+02  3.1134780000e+03 ] stress_252 gradient
 [  9.3938604179e-01 -1.9999866061e-03 -3.4606448000e+03 -9.7816787906e+01 
    3.9754125000e+00 -1.2637100000e+02  3.1095740000e+03 ] stress_253 gradient
 [  4.0171829848e-01 -2.6848526153e-03 -3.4975740000e+03  6.7400784373e+01 
   -1.0830035000e+01 -8.9271000000e+02  2.3432350000e+03 ] stress_254 gradient
 [ -7.8452945418e-01 -4.4310078429e-04 -3.7682550000e+03  9.2010519414e+01 
   -9.7674500000e+00 -2.8183200000e+03  4.1762500000e+02 ] stress_255 gradient
 [ -9.5271789353e-01 -9.5268393020e-05 -4.0376180000e+03  3.6368037607e+01 
   -3.7451500000e+00 -3.1328410000e+03  1.0310400000e+02 ] stress_256 gradient
 [ -9.6805518066e-01 -6.3855329891e-05 -4.1152640000e+03  2.7842529367e+01 
   -2.8539250000e+00 -3.1639690000e+03  7.1975999998e+01 ] stress_257 gradient
 [ -9.6667168154e-01  1.2813852585e-03 -4.1151820000e+03  2.5588933663e+01 
   -2.7493300000e+00 -3.1624700000e+03  7.3475000002e+01 ] stress_258 gradient
 [ -6.9587983459e-01  2.7083469227e-03 -4.0918320000e+03 -1.8422198590e+02 
    7.1660000000e+00 -2.7942170000e+03  4.4172800000e+02 ] stress_259 gradient
 [ -2.0549186996e-01  2.1871220061e-03 -4.0290910000e+03 -3.6205124590e+02 
    1.5797330000e+01 -2.0617160000e+03  1.1742290000e+03 ] stress_260 gradient
 [ -2.0550459266e-01  1.1461827550e-03 -4.0290900000e+03 -3.6203478314e+02 
    1.5795640000e+01 -2.0617240000e+03  1.1742210000e+03 ] stress_261 gradient
 [ -3.1118049808e-01 -7.2641714973e-04 -4.0390880000e+03 -2.7214741824e+02 
    8.0487600000e+00 -2.1778300000e+03  1.0581150000e+03 ] stress_262 gradient
 [ -8.9785674456e-01 -1.5516010198e-04 -4.2216430000e+03  1.8454605606e+01 
   -6.8113900000e+00 -3.0218720000e+03  2.1407300000e+02 ] stress_263 gradient
 [ -9.4817387766e-01 -7.4633736499e-05 -4.2960180000e+03  2.2173187000e+01 
   -5.2004950000e+00 -3.1148340000e+03  1.2111100000e+02 ] stress_264 gradient
 [ -9.4817385553e-01  1.2767915581e-04 -4.2960190000e+03  2.2173092725e+01 
   -5.2004850000e+00 -3.1148340000e+03  1.2111100000e+02 ] stress_265 gradient
 [ -9.4814770209e-01  5.8207561083e-04 -4.2960170000e+03  2.2118531094e+01 
   -5.1980100000e+00 -3.1148090000e+03  1.2113600000e+02 ] stress_266 gradient
 [ -9.4661270332e-01  1.2793259083e-03 -4.2959240000e+03  1.9602780304e+01 
   -5.0823050000e+00 -3.1131430000e+03  1.2280200000e+02 ] stress_267 gradient
 [ -9.1928454986e-01  2.1407248729e-03 -4.2939907000e+03 -1.3206230382e+01 
   -3.5520615000e+00 -3.0797336000e+03  1.5621160000e+02 ] stress_268 gradient
 [ -7.0663108775e-01  2.6721133639e-03 -4.2753370000e+03 -1.7538612450e+02 
    4.2026200000e+00 -2.7903540000e+03  4.4559100000e+02 ] stress_269 gradient
 [ -6.4856364245e-02  1.9578839797e-03 -4.1870690000e+03 -3.9064931834e+02 
    1.5289785000e+01 -1.8304330000e+03  1.4055120000e+03 ] stress_270 gradient
 [  5.7371093448e-01  8.1875805854e-04 -3.9835010000e+03 -3.3429372898e+02 
    1.4117980000e+01 -7.8960700000e+02  2.4463380000e+03 ] stress_271 gradient
 [  8.5645235765e-01  2.7469570345e-04 -3.6931750000e+03 -1.8377069168e+02 
    7.9438300000e+00 -2.8868600000e+02  2.9472590000e+03 ] stress_272 gradient
 [  9.5018724979e-01  9.3443603219e-05 -3.3534220000e+03 -9.0561772585e+01 
    3.9537450000e+00 -1.0874700000e+02  3.1271980000e+03 ] stress_273 gradient
 [  9.8113439950e-01  3.4458964550e-05 -2.9815540000e+03 -4.5065927607e+01 
    1.9776300000e+00 -4.4624999998e+01  3.1913200000e+03 ] stress_274 gradient
 [  9.9216707869e-01  1.3875391050e-05 -2.5858120000e+03 -2.3434503430e+01 
    1.0314500000e+00 -2.0035000000e+01  3.2159110000e+03 ] stress_275 gradient
 [  9.9646254841e-01  6.0588567896e-06 -2.1718600000e+03 -1.2834250863e+01 
    5.6592999999e-01 -9.7639999979e+00  3.2261810000e+03 ] stress_276 gradient
 [  9.9827861918e-01  2.8440652482e-06 -1.7446470000e+03 -7.3999359635e+00 
    3.2669499998e-01 -5.1189999965e+00  3.2308260000e+03 ] stress_277 gradient
 [  9.9910497486e-01  1.4249445225e-06 -1.3089990000e+03 -4.4793920788e+00 
    1.9791000003e-01 -2.8620000023e+00  3.2330830000e+03 ] stress_278 gradient
 [  9.9950619337e-01  7.5836933014e-07 -8.6973500000e+02 -2.8372401761e+00 
    1.2542499999e-01 -1.6959999982e+00  3.2342500000e+03 ] stress_279 gradient
 [  9.9971254443e-01  4.2796589996e-07 -4.3166800000e+02 -1.8743511211e+00 
    8.2889999987e-02 -1.0579999980e+00  3.2348870000e+03 ] stress_280 gradient
 [  9.9982430502e-01  2.5641347249e-07  4.1499999952e-01 -1.2876544966e+00 
    5.6955000019e-02 -6.9200000326e-01  3.2352530000e+03 ] stress_281 gradient
 [  9.9988763085e-01  1.6373189953e-07  4.2179900000e+02 -9.1754280081e-01 
    4.0589999998e-02 -4.7300000006e-01  3.2354720000e+03 ] stress_282 gradient
 [  9.9992502451e-01  1.1198330145e-07  8.2788100000e+02 -6.7662314886e-01 
    2.9934999986e-02 -3.3599999938e-01  3.2356090000e+03 ] stress_283 gradient
 [  9.9994796962e-01  8.2365132467e-08  1.2142500000e+03 -5.1537761976e-01 
    2.2800000011e-02 -2.4699999699e-01  3.2356980000e+03 ] stress_284 gradient
 [  9.9996248455e-01  6.5004670319e-08  1.5766700000e+03 -4.0480487985e-01 
    1.7909999997e-02 -1.8999999725e-01  3.2357550000e+03 ] stress_285 gradient
 [  9.9997193254e-01  5.4799158752e-08  1.9112120000e+03 -3.2739335602e-01 
    1.4485000008e-02 -1.4999999962e-01  3.2357950000e+03 ] stress_286 gradient
 [  9.9997826070e-01  4.8753502818e-08  2.2142350000e+03 -2.7233678128e-01 
    1.2049999981e-02 -1.2200000015e-01  3.2358230000e+03 ] stress_287 gradient
 [  9.9998255322e-01  4.5203759445e-08  2.4824000000e+03 -2.3275308384e-01 
    1.0299999985e-02 -1.0300000213e-01  3.2358430000e+03 ] stress_288 gradient
 [  9.9998551817e-01  4.3096099396e-08  2.7128180000e+03 -2.0422312507e-01 
    9.0350000050e-03 -8.9000002390e-02  3.2358560000e+03 ] stress_289 gradient
 [  9.9998753167e-01  4.1931339970e-08  2.9029730000e+03 -1.8383616564e-01 
    8.1350000016e-03 -7.9000000142e-02  3.2358660000e+03 ] stress_290 gradient
 [  9.9998890351e-01  4.1265763561e-08  3.0507700000e+03 -1.6967135334e-01 
    7.5099999890e-03 -7.2000000273e-02  3.2358730000e+03 ] stress_291 gradient
 [  9.9998976644e-01  4.0988439662e-08  3.1546330000e+03 -1.6051489821e-01 
    7.0999999764e-03 -6.7999997100e-02  3.2358770000e+03 ] stress_292 gradient
 [  9.9999020897e-01  4.0822045639e-08  3.2134030000e+03 -1.5560081607e-01 
    6.8849999764e-03 -6.5999995513e-02  3.2358790000e+03 ] stress_293 gradient
 [  9.9999023109e-01  4.0822045324e-08  3.2142710000e+03 -1.5553010987e-01 
    6.8800000008e-03 -6.6000001198e-02  3.2358800000e+03 ] stress_294 gradient
 [  9.8876261808e-01 -1.8038178642e-03  3.2134520000e+03  1.8304366678e+01 
   -6.5620000000e-01 -1.3545000000e+01  3.2224000000e+03 ] stress_295 gradient
 [  5.8775305119e-01 -2.6182285413e-03  3.1719630000e+03  3.3472086524e+02 
   -1.2085600000e+01 -5.8182600000e+02  2.6541190000e+03 ] stress_296 gradient
 [  5.8775306004e-01 -1.9897425467e-03  3.1719633000e+03  3.3472086877e+02 
   -1.2085602500e+01 -5.8182550000e+02  2.6541197000e+03 ] stress_297 gradient
 [  5.8976489659e-01  1.5586028880e-04  3.1721000000e+03  3.3309286636e+02 
   -1.2011265000e+01 -5.7908500000e+02  2.6568600000e+03 ] stress_298 gradient
 [  5.9169646732e-01  2.4813208855e-04  3.1722370000e+03  3.3152724216e+02 
   -1.1942495000e+01 -5.7643600000e+02  2.6595090000e+03 ] stress_299 gradient
 [  5.9169622393e-01  3.8721762271e-05  3.1722370000e+03  3.3152792565e+02 
   -1.1942520000e+01 -5.7643600000e+02  2.6595090000e+03 ] stress_300 gradient
 [  5.9164188142e-01 -3.3896047402e-04  3.1722340000e+03  3.3165760085e+02 
   -1.1947170000e+01 -5.7649100000e+02  2.6594540000e+03 ] stress_301 gradient
 [  5.8996206518e-01 -8.7849995725e-04  3.1721150000e+03  3.3476768454e+02 
   -1.2059245000e+01 -5.7841500000e+02  2.6575310000e+03 ] stress_302 gradient
 [  5.7002066017e-01 -1.5272771596e-03  3.1705002000e+03  3.6150302642e+02 
   -1.3026479000e+01 -6.0383760000e+02  2.6321076000e+03 ] stress_303 gradient
 [  4.4724596725e-01 -2.0210095601e-03  3.1586590000e+03  4.6472302556e+02 
   -1.6774315000e+01 -7.7601700000e+02  2.4599280000e+03 ] stress_304 gradient
 [  7.0182814842e-02 -1.8174790505e-03  3.1080290000e+03  5.9850935908e+02 
   -2.1651585000e+01 -1.3516270000e+03  1.8843180000e+03 ] stress_305 gradient
 [ -4.3433455524e-01 -1.0371114079e-03  2.9833200000e+03  5.3883932150e+02 
   -1.9501170000e+01 -2.1828230000e+03  1.0531220000e+03 ] stress_306 gradient
 [ -7.6036173118e-01 -4.4650421139e-04  2.7858530000e+03  3.4498992988e+02 
   -1.2473090000e+01 -2.7597800000e+03  4.7616500000e+02 ] stress_307 gradient
 [ -9.0321136210e-01 -1.7884498617e-04  2.5392030000e+03  1.9088657720e+02 
   -6.8923700000e+00 -3.0303680000e+03  2.0557700000e+02 ] stress_308 gradient
 [ -9.5943983578e-01 -7.3593606312e-05  2.2593110000e+03  1.0270203014e+02 
   -3.7036100000e+00 -3.1439630000e+03  9.1982999999e+01 ] stress_309 gradient
 [ -9.8193736754e-01 -3.2030385636e-05  1.9536580000e+03  5.6262846375e+01 
   -2.0266150000e+00 -3.1922830000e+03  4.3662000002e+01 ] stress_310 gradient
 [ -9.9143823417e-01 -1.4796438450e-05  1.6260410000e+03  3.1855248625e+01 
   -1.1462500000e+00 -3.2139210000e+03  2.2024000003e+01 ] stress_311 gradient
 [ -9.9570106741e-01 -7.2258902915e-06  1.2789500000e+03  1.8703868592e+01 
   -6.7238500000e-01 -3.2241940000e+03  1.1752000000e+01 ] stress_312 gradient
 [ -9.9772687459e-01 -3.7110345305e-06  9.1451500000e+02  1.1381721252e+01 
   -4.0880500001e-01 -3.2293500000e+03  6.5950000021e+00 ] stress_313 gradient
 [ -9.9874134916e-01 -1.9948446810e-06  5.3472000000e+02  7.1634708033e+00 
   -2.5709000002e-01 -3.2320740000e+03  3.8720000020e+00 ] stress_314 gradient
 [ -9.9927373312e-01 -1.1185573233e-06  1.4155500000e+02  4.6520330933e+00 
   -1.6682999998e-01 -3.2335790000e+03  2.3660000011e+00 ] stress_315 gradient
 [ -9.9956511605e-01 -6.5320819153e-07 -2.6294500000e+02  3.1099304885e+00 
   -1.1144999999e-01 -3.2344450000e+03  1.4999999962e+00 ] stress_316 gradient
 [ -9.9973071023e-01 -3.9746029545e-07 -6.7671900000e+02  2.1355281044e+00 
   -7.6484999994e-02 -3.2349620000e+03  9.8300000104e-01 ] stress_317 gradient
 [ -9.9982811076e-01 -2.5275280019e-07 -1.0976590000e+03  1.5033202445e+00 
   -5.3809999997e-02 -3.2352820000e+03  6.6299999730e-01 ] stress_318 gradient
 [ -9.9988718832e-01 -1.6877919069e-07 -1.5236170000e+03  1.0830307030e+00 
   -3.8744999983e-02 -3.2354850000e+03  4.5999999543e-01 ] stress_319 gradient
 [ -9.9992405095e-01 -1.1924918159e-07 -1.9524430000e+03  7.9723617166e-01 
   -2.8504999989e-02 -3.2356180000e+03  3.2699999792e-01 ] stress_320 gradient
 [ -9.9994763772e-01 -8.9575547827e-08 -2.3819470000e+03  5.9884630955e-01 
   -2.1400000008e-02 -3.2357070000e+03  2.3800000122e-01 ] stress_321 gradient
 [ -9.9996310409e-01 -7.1715902978e-08 -2.8099620000e+03  4.5844733025e-01 
   -1.6375000001e-02 -3.2357680000e+03  1.7699999830e-01 ] stress_322 gradient
 [ -9.9997345926e-01 -6.1066674120e-08 -3.2343010000e+03  3.5731387037e-01 
   -1.2760000004e-02 -3.2358100000e+03  1.3499999909e-01 ] stress_323 gradient
 [ -9.9998053972e-01 -5.4910087996e-08 -3.6528130000e+03  2.8324910754e-01 
   -1.0110000005e-02 -3.2358400000e+03  1.0500000371e-01 ] stress_324 gradient
 [ -9.9998549604e-01 -5.1582204057e-08 -4.0633940000e+03  2.2818074843e-01 
   -8.1400000056e-03 -3.2358630000e+03  8.2000002521e-02 ] stress_325 gradient
 [ -9.9998899201e-01 -5.0029191488e-08 -4.4639340000e+03  1.8667619869e-01 
   -6.6549999929e-03 -3.2358790000e+03  6.6000001198e-02 ] stress_326 gradient
 [ -9.9999153655e-01 -4.9585473567e-08 -4.8524300000e+03  1.5497624453e-01 
   -5.5250000059e-03 -3.2358920000e+03  5.3999997363e-02 ] stress_327 gradient
 [ -9.9999335092e-01 -4.9807332685e-08 -5.2268660000e+03  1.3050010889e-01 
   -4.6549999979e-03 -3.2359000000e+03  4.5000001592e-02 ] stress_328 gradient
 [ -9.9999474489e-01 -5.0583838969e-08 -5.5853800000e+03  1.1138586139e-01 
   -3.9699999945e-03 -3.2359080000e+03  3.7000000930e-02 ] stress_329 gradient
 [ -9.9999576270e-01 -5.1582204057e-08 -5.9261540000e+03  9.6325437095e-02 
   -3.4300000209e-03 -3.2359130000e+03  3.2000002648e-02 ] stress_330 gradient
 [ -9.9999653713e-01 -5.2691499018e-08 -6.2474320000e+03  8.4376086294e-02 
   -3.0049999964e-03 -3.2359170000e+03  2.7999999475e-02 ] stress_331 gradient
 [ -9.9999715667e-01 -5.3911722909e-08 -6.5476140000e+03  7.4807178164e-02 
   -2.6600000069e-03 -3.2359210000e+03  2.4000001986e-02 ] stress_332 gradient
 [ -9.9999759919e-01 -5.5131947115e-08 -6.8251490000e+03  6.7135553570e-02 
   -2.3900000201e-03 -3.2359240000e+03  2.2000000399e-02 ] stress_333 gradient
 [ -9.9999795322e-01 -5.6296706856e-08 -7.0786460000e+03  6.0972328274e-02 
   -2.1699999877e-03 -3.2359260000e+03  1.9999998813e-02 ] stress_334 gradient
 [ -9.9999824086e-01 -5.7406001502e-08 -7.3068440000e+03  5.5999324246e-02 
   -1.9949999910e-03 -3.2359270000e+03  1.7999997226e-02 ] stress_335 gradient
 [ -9.9999846213e-01 -5.8348902125e-08 -7.5085150000e+03  5.2016207380e-02 
   -1.8549999936e-03 -3.2359280000e+03  1.6999996433e-02 ] stress_336 gradient
 [ -9.9999863914e-01 -5.9236337653e-08 -7.6827030000e+03  4.8857996302e-02 
   -1.7399999876e-03 -3.2359300000e+03  1.5000000531e-02 ] stress_337 gradient
 [ -9.9999877190e-01 -6.0012843937e-08 -7.8284930000e+03  4.6395063046e-02 
   -1.6500000015e-03 -3.2359310000e+03  1.3999999737e-02 ] stress_338 gradient
 [ -9.9999886040e-01 -6.0567491418e-08 -7.9451380000e+03  4.4533132714e-02 
   -1.5850000068e-03 -3.2359310000e+03  1.3999999737e-02 ] stress_339 gradient
 [ -9.9999892678e-01 -6.1011209025e-08 -8.0320730000e+03  4.3201498966e-02 
   -1.5399999995e-03 -3.2359310000e+03  1.3999999737e-02 ] stress_340 gradient
 [ -9.9999897103e-01 -6.1288532923e-08 -8.0888430000e+03  4.2364808664e-02 
   -1.5100000041e-03 -3.2359320000e+03  1.3999999737e-02 ] stress_341 gradient
 [ -9.9999899316e-01 -6.1454926946e-08 -8.1151500000e+03  4.1975924494e-02 
   -1.4949999922e-03 -3.2359320000e+03  1.2999998944e-02 ] stress_342 gradient



---------------------
Begin Evaluation   46
---------------------
Parameters for evaluation 46:
                      4.5818459093e+02 fy
                      1.9787489968e+05 E
                      2.3005156848e-02 b
                      8.9914458792e-01 cR1
                      1.0000000000e-06 cR2
                      1.9496781752e-02 a1
                      3.1482780825e-02 a3

blocking fork: workflow_driver1 paramsDakota.in results.out

Active response data for evaluation 46:
Active set vector = { 1 1 1 1 1 1 1 1 1 1 1 1 1 1 1 1 1 1 1 1 1 1 1 1 1 1 1 1 1 1 1 1 1 1 1 1 1 1 1 1 1 1 1 1 1 1 1 1 1 1 1 1 1 1 1 1 1 1 1 1 1 1 1 1 1 1 1 1 1 1 1 1 1 1 1 1 1 1 1 1 1 1 1 1 1 1 1 1 1 1 1 1 1 1 1 1 1 1 1 1 1 1 1 1 1 1 1 1 1 1 1 1 1 1 1 1 1 1 1 1 1 1 1 1 1 1 1 1 1 1 1 1 1 1 1 1 1 1 1 1 1 1 1 1 1 1 1 1 1 1 1 1 1 1 1 1 1 1 1 1 1 1 1 1 1 1 1 1 1 1 1 1 1 1 1 1 1 1 1 1 1 1 1 1 1 1 1 1 1 1 1 1 1 1 1 1 1 1 1 1 1 1 1 1 1 1 1 1 1 1 1 1 1 1 1 1 1 1 1 1 1 1 1 1 1 1 1 1 1 1 1 1 1 1 1 1 1 1 1 1 1 1 1 1 1 1 1 1 1 1 1 1 1 1 1 1 1 1 1 1 1 1 1 1 1 1 1 1 1 1 1 1 1 1 1 1 1 1 1 1 1 1 1 1 1 1 1 1 1 1 1 1 1 1 1 1 1 1 1 1 1 1 1 1 1 1 1 1 1 1 1 1 1 1 1 1 1 1 1 1 1 1 1 1 1 1 1 1 1 1 1 1 1 1 1 1 1 1 1 1 1 1 }
                      2.3058831024e+00 stress_1
                     -2.1386013046e+02 stress_2
                     -3.9294165549e+02 stress_3
                     -4.0646639227e+02 stress_4
                     -1.1001638726e+02 stress_5
                      1.8401854502e+02 stress_6
                      2.9339908125e+02 stress_7
                      2.9418306512e+02 stress_8
                      6.6479425954e+01 stress_9
                     -2.0278976472e+02 stress_10
                     -3.4904116056e+02 stress_11
                     -4.1143359982e+02 stress_12
                     -4.3706680791e+02 stress_13
                     -4.3905401586e+02 stress_14
                     -1.3774941614e+02 stress_15
                     -2.8457954906e+02 stress_16
                     -3.8990014631e+02 stress_17
                     -2.0806020658e+02 stress_18
                      6.4888937451e+01 stress_19
                      2.6255896609e+02 stress_20
                      3.6252947824e+02 stress_21
                      4.1108353586e+02 stress_22
                      4.3466179146e+02 stress_23
                      4.4295303868e+02 stress_24
                      1.4062758078e+02 stress_25
                      2.5631746232e+02 stress_26
                      3.5207147585e+02 stress_27
                      3.7090896194e+02 stress_28
                      2.5488322099e+02 stress_29
                      6.6329126395e+01 stress_30
                     -1.3018589762e+02 stress_31
                     -2.7566835930e+02 stress_32
                     -3.6533500965e+02 stress_33
                     -4.1948873827e+02 stress_34
                     -4.5453312621e+02 stress_35
                     -4.7932119272e+02 stress_36
                     -4.9810489220e+02 stress_37
                     -5.1283964188e+02 stress_38
                     -5.2438202626e+02 stress_39
                     -5.3306319370e+02 stress_40
                     -5.3898776634e+02 stress_41
                     -5.4216222474e+02 stress_42
                     -5.2743848185e+02 stress_43
                     -1.7489540418e+02 stress_44
                      4.7482588426e+01 stress_45
                     -1.3994935542e+02 stress_46
                     -3.6844688837e+02 stress_47
                     -9.7352308565e+01 stress_48
                     -1.9341959891e+02 stress_49
                     -3.2005680208e+02 stress_50
                     -4.3707453445e+02 stress_51
                     -2.7741482405e+02 stress_52
                      6.3652892407e+00 stress_53
                      2.1747110539e+02 stress_54
                      3.2012718187e+02 stress_55
                      3.6506290435e+02 stress_56
                      3.8008446657e+02 stress_57
                      2.9813975557e+02 stress_58
                      1.8993550086e+01 stress_59
                     -2.4696082501e+02 stress_60
                     -3.8624890323e+02 stress_61
                     -4.4423402119e+02 stress_62
                     -4.5888354601e+02 stress_63
                     -2.1025377320e+02 stress_64
                      9.7984355515e+01 stress_65
                      1.6608317722e+02 stress_66
                     -7.9742221060e+01 stress_67
                     -3.4955598047e+02 stress_68
                     -4.3815743315e+02 stress_69
                     -4.3950405222e+02 stress_70
                     -3.4908186325e+02 stress_71
                     -1.9208730456e+02 stress_72
                     -6.6467133117e+00 stress_73
                      1.5502339910e+02 stress_74
                      2.6843210676e+02 stress_75
                      3.4100914304e+02 stress_76
                      3.8800679490e+02 stress_77
                      4.2050707133e+02 stress_78
                      4.4481699259e+02 stress_79
                      4.6424088803e+02 stress_80
                      4.8045234868e+02 stress_81
                      4.9426812215e+02 stress_82
                      5.0605539220e+02 stress_83
                      5.1594900924e+02 stress_84
                      5.2396289792e+02 stress_85
                      5.3006055554e+02 stress_86
                      5.3419046630e+02 stress_87
                      5.3630431096e+02 stress_88
                      4.6625040654e+02 stress_89
                      7.9043053125e+01 stress_90
                     -9.0247556494e+01 stress_91
                      1.6472105236e+02 stress_92
                      3.8200383968e+02 stress_93
                      3.8645066952e+02 stress_94
                      3.2924155262e+02 stress_95
                      2.2827348685e+02 stress_96
                      9.4898374406e+01 stress_97
                     -4.8012920599e+01 stress_98
                     -1.7513442593e+02 stress_99
                     -2.7315803028e+02 stress_100
                     -3.4303563035e+02 stress_101
                     -3.9199105699e+02 stress_102
                     -4.2721493322e+02 stress_103
                     -4.5388678762e+02 stress_104
                     -4.7530053795e+02 stress_105
                     -4.9345823742e+02 stress_106
                     -5.0955066836e+02 stress_107
                     -5.2427764125e+02 stress_108
                     -5.3804248776e+02 stress_109
                     -5.5106820784e+02 stress_110
                     -5.6346572438e+02 stress_111
                     -5.7527497932e+02 stress_112
                     -5.8649345303e+02 stress_113
                     -5.9709127713e+02 stress_114
                     -6.0702161950e+02 stress_115
                     -6.1622902846e+02 stress_116
                     -6.2465320310e+02 stress_117
                     -6.3223558420e+02 stress_118
                     -6.3891918061e+02 stress_119
                     -6.4465000088e+02 stress_120
                     -6.4938296051e+02 stress_121
                     -6.5307823025e+02 stress_122
                     -6.5570417649e+02 stress_123
                     -6.5723942249e+02 stress_124
                     -6.5765173607e+02 stress_125
                     -5.6031675935e+02 stress_126
                     -3.3069732700e+02 stress_127
                     -6.8084574989e+01 stress_128
                      1.2418780905e+02 stress_129
                      2.3574155719e+02 stress_130
                      2.9701976590e+02 stress_131
                      3.3030467280e+02 stress_132
                      3.4622023546e+02 stress_133
                      3.4712170145e+02 stress_134
                     -2.0166219092e+01 stress_135
                     -3.8435000988e+01 stress_136
                      1.3175189197e+02 stress_137
                      9.7374235914e+01 stress_138
                     -6.2074764040e+01 stress_139
                     -3.0065971163e+02 stress_140
                     -4.7396218602e+02 stress_141
                     -5.6290746153e+02 stress_142
                     -6.0717899768e+02 stress_143
                     -6.2979778475e+02 stress_144
                     -6.3944116730e+02 stress_145
                     -6.2002149405e+02 stress_146
                     -3.9788854944e+02 stress_147
                     -9.6267026794e+01 stress_148
                      1.1604448247e+02 stress_149
                      2.2262946566e+02 stress_150
                      2.6740136590e+02 stress_151
                      2.7323832015e+02 stress_152
                      7.1255474519e+01 stress_153
                     -2.3011699370e+02 stress_154
                     -4.3109818645e+02 stress_155
                     -5.2202090081e+02 stress_156
                     -5.5294204918e+02 stress_157
                     -4.3677995035e+02 stress_158
                     -8.3473020452e+01 stress_159
                      6.2794051627e+01 stress_160
                     -9.2715862287e+01 stress_161
                     -3.9541121048e+02 stress_162
                     -5.2452600946e+02 stress_163
                     -5.3781840647e+02 stress_164
                     -4.9808858318e+02 stress_165
                     -4.2045720531e+02 stress_166
                     -3.0975321762e+02 stress_167
                     -1.7790399442e+02 stress_168
                     -4.3554599326e+01 stress_169
                      7.5579656872e+01 stress_170
                      1.7047506014e+02 stress_171
                      2.4141721678e+02 stress_172
                      2.9336925466e+02 stress_173
                      3.3188277445e+02 stress_174
                      3.6141581114e+02 stress_175
                      3.8508615365e+02 stress_176
                      4.0494966452e+02 stress_177
                      4.2232940832e+02 stress_178
                      4.3806463784e+02 stress_179
                      4.5268491567e+02 stress_180
                      4.6652063564e+02 stress_181
                      4.7977132048e+02 stress_182
                      4.9255235873e+02 stress_183
                      5.0492199534e+02 stress_184
                      5.1690131938e+02 stress_185
                      5.2848562589e+02 stress_186
                      5.3965323010e+02 stress_187
                      5.5037158405e+02 stress_188
                      5.6060037654e+02 stress_189
                      5.7029569790e+02 stress_190
                      5.7941175112e+02 stress_191
                      5.8790124246e+02 stress_192
                      5.9572012003e+02 stress_193
                      6.0282487755e+02 stress_194
                      6.0917420229e+02 stress_195
                      6.1473249445e+02 stress_196
                      6.1946583732e+02 stress_197
                      6.2334693720e+02 stress_198
                      6.2635250980e+02 stress_199
                      6.2846341816e+02 stress_200
                      6.2966758731e+02 stress_201
                      6.2972656492e+02 stress_202
                      2.9476783578e+02 stress_203
                      1.4425619519e-01 stress_204
                      1.0261297974e+02 stress_205
                      4.1636643706e+02 stress_206
                      4.2692234922e+02 stress_207
                      3.6532766851e+02 stress_208
                      2.5609762924e+02 stress_209
                      1.1271828173e+02 stress_210
                     -3.8152345372e+01 stress_211
                     -1.6888160851e+02 stress_212
                     -2.6714909959e+02 stress_213
                     -3.3592354687e+02 stress_214
                     -3.8370786255e+02 stress_215
                     -4.1811344206e+02 stress_216
                     -4.4433380158e+02 stress_217
                     -4.6557143320e+02 stress_218
                     -4.8372181059e+02 stress_219
                     -4.9988696646e+02 stress_220
                     -5.1469876022e+02 stress_221
                     -5.2850764690e+02 stress_222
                     -5.4149502192e+02 stress_223
                     -5.5373847047e+02 stress_224
                     -5.6525290892e+02 stress_225
                     -5.7601430845e+02 stress_226
                     -5.8597577105e+02 stress_227
                     -5.9507965399e+02 stress_228
                     -6.0326052640e+02 stress_229
                     -6.1045575758e+02 stress_230
                     -6.1660529396e+02 stress_231
                     -6.2165342316e+02 stress_232
                     -6.2555616324e+02 stress_233
                     -6.2827686123e+02 stress_234
                     -6.2978867719e+02 stress_235
                     -6.2360735122e+02 stress_236
                     -2.8663908540e+02 stress_237
                     -3.3835972209e+01 stress_238
                     -2.3511209662e+02 stress_239
                     -4.3412147238e+02 stress_240
                     -1.2942698692e+02 stress_241
                      2.1397962650e+01 stress_242
                     -2.7591045841e+02 stress_243
                     -3.7523341344e+02 stress_244
                     -4.6421018363e+02 stress_245
                     -2.9027324964e+02 stress_246
                     -1.9852363432e-02 stress_247
                      2.1763400812e+02 stress_248
                      3.2631679231e+02 stress_249
                      3.7417087553e+02 stress_250
                      3.8916225813e+02 stress_251
                      2.8919619662e+02 stress_252
                      1.1728119096e+00 stress_253
                     -2.7164165740e+02 stress_254
                     -4.1960107587e+02 stress_255
                     -4.8211175971e+02 stress_256
                     -4.9579423078e+02 stress_257
                     -2.3812744996e+02 stress_258
                      7.9296471464e+01 stress_259
                      1.7528195589e+02 stress_260
                     -2.4565906030e+01 stress_261
                     -3.2969810626e+02 stress_262
                     -4.6572856324e+02 stress_263
                     -4.8712996234e+02 stress_264
                     -4.4713026345e+02 stress_265
                     -3.5830583491e+02 stress_266
                     -2.2807988921e+02 stress_267
                     -7.5356534879e+01 stress_268
                      7.2729298420e+01 stress_269
                      1.9502850047e+02 stress_270
                      2.8575833717e+02 stress_271
                      3.5005752911e+02 stress_272
                      3.9581025827e+02 stress_273
                      4.2957842549e+02 stress_274
                      4.5582596427e+02 stress_275
                      4.7735183445e+02 stress_276
                      4.9585735315e+02 stress_277
                      5.1235822767e+02 stress_278
                      5.2745220901e+02 stress_279
                      5.4148121247e+02 stress_280
                      5.5462905590e+02 stress_281
                      5.6698113681e+02 stress_282
                      5.7856087927e+02 stress_283
                      5.8935428654e+02 stress_284
                      5.9932315943e+02 stress_285
                      6.0841768460e+02 stress_286
                      6.1658177056e+02 stress_287
                      6.2375725804e+02 stress_288
                      6.2989049689e+02 stress_289
                      6.3493211475e+02 stress_290
                      6.3883933560e+02 stress_291
                      6.4157957384e+02 stress_292
                      6.4312820733e+02 stress_293
                      6.4315106792e+02 stress_294
                      2.9748178434e+02 stress_295
                      9.4549761826e+00 stress_296
                      1.3163204992e+02 stress_297
                      4.2954704501e+02 stress_298
                      4.3801849510e+02 stress_299
                      3.9662303775e+02 stress_300
                      3.2274308732e+02 stress_301
                      2.2057278997e+02 stress_302
                      1.0017875993e+02 stress_303
                     -2.3187646790e+01 stress_304
                     -1.3441759914e+02 stress_305
                     -2.2503243305e+02 stress_306
                     -2.9425379314e+02 stress_307
                     -3.4575122322e+02 stress_308
                     -3.8425782478e+02 stress_309
                     -4.1382342096e+02 stress_310
                     -4.3742339951e+02 stress_311
                     -4.5709400590e+02 stress_312
                     -4.7418146857e+02 stress_313
                     -4.8956746162e+02 stress_314
                     -5.0382461840e+02 stress_315
                     -5.1732241908e+02 stress_316
                     -5.3029737030e+02 stress_317
                     -5.4289665794e+02 stress_318
                     -5.5520763794e+02 stress_319
                     -5.6727726170e+02 stress_320
                     -5.7912378444e+02 stress_321
                     -5.9074652112e+02 stress_322
                     -6.0213051910e+02 stress_323
                     -6.1325177933e+02 stress_324
                     -6.2408028619e+02 stress_325
                     -6.3458049756e+02 stress_326
                     -6.4471570137e+02 stress_327
                     -6.5444571826e+02 stress_328
                     -6.6373208010e+02 stress_329
                     -6.7253565271e+02 stress_330
                     -6.8081756663e+02 stress_331
                     -6.8854170040e+02 stress_332
                     -6.9567247675e+02 stress_333
                     -7.0217755371e+02 stress_334
                     -7.0802742357e+02 stress_335
                     -7.1319295723e+02 stress_336
                     -7.1765142958e+02 stress_337
                     -7.2138099157e+02 stress_338
                     -7.2436372583e+02 stress_339
                     -7.2658599155e+02 stress_340
                     -7.2803685834e+02 stress_341
                     -7.2870910538e+02 stress_342



------------------------------------------
Begin Dakota derivative estimation routine
------------------------------------------

>>>>> map at X performed previously and results retrieved

>>>>> Dakota finite difference gradient evaluation for x[1] + h:

---------------------
Begin Evaluation   47
---------------------
Parameters for evaluation 47:
                      4.5864277552e+02 fy
                      1.9787489968e+05 E
                      2.3005156848e-02 b
                      8.9914458792e-01 cR1
                      1.0000000000e-06 cR2
                      1.9496781752e-02 a1
                      3.1482780825e-02 a3

(Asynchronous job 47 added to queue)


>>>>> Dakota finite difference gradient evaluation for x[2] + h:

---------------------
Begin Evaluation   48
---------------------
Parameters for evaluation 48:
                      4.5818459093e+02 fy
                      1.9807277458e+05 E
                      2.3005156848e-02 b
                      8.9914458792e-01 cR1
                      1.0000000000e-06 cR2
                      1.9496781752e-02 a1
                      3.1482780825e-02 a3

(Asynchronous job 48 added to queue)


>>>>> Dakota finite difference gradient evaluation for x[3] + h:

---------------------
Begin Evaluation   49
---------------------
Parameters for evaluation 49:
                      4.5818459093e+02 fy
                      1.9787489968e+05 E
                      2.3028162005e-02 b
                      8.9914458792e-01 cR1
                      1.0000000000e-06 cR2
                      1.9496781752e-02 a1
                      3.1482780825e-02 a3

(Asynchronous job 49 added to queue)


>>>>> Dakota finite difference gradient evaluation for x[4] + h:

---------------------
Begin Evaluation   50
---------------------
Parameters for evaluation 50:
                      4.5818459093e+02 fy
                      1.9787489968e+05 E
                      2.3005156848e-02 b
                      9.0004373250e-01 cR1
                      1.0000000000e-06 cR2
                      1.9496781752e-02 a1
                      3.1482780825e-02 a3

(Asynchronous job 50 added to queue)


>>>>> Dakota finite difference gradient evaluation for x[5] + h:

---------------------
Begin Evaluation   51
---------------------
Parameters for evaluation 51:
                      4.5818459093e+02 fy
                      1.9787489968e+05 E
                      2.3005156848e-02 b
                      8.9914458792e-01 cR1
                      1.1000000000e-05 cR2
                      1.9496781752e-02 a1
                      3.1482780825e-02 a3

(Asynchronous job 51 added to queue)


>>>>> Dakota finite difference gradient evaluation for x[6] + h:

---------------------
Begin Evaluation   52
---------------------
Parameters for evaluation 52:
                      4.5818459093e+02 fy
                      1.9787489968e+05 E
                      2.3005156848e-02 b
                      8.9914458792e-01 cR1
                      1.0000000000e-06 cR2
                      1.9516278534e-02 a1
                      3.1482780825e-02 a3

(Asynchronous job 52 added to queue)


>>>>> Dakota finite difference gradient evaluation for x[7] + h:

---------------------
Begin Evaluation   53
---------------------
Parameters for evaluation 53:
                      4.5818459093e+02 fy
                      1.9787489968e+05 E
                      2.3005156848e-02 b
                      8.9914458792e-01 cR1
                      1.0000000000e-06 cR2
                      1.9496781752e-02 a1
                      3.1514263605e-02 a3

(Asynchronous job 53 added to queue)



Blocking synchronize of 7 asynchronous evaluations
First pass: initiating 7 local asynchronous jobs
Initiating evaluation 47
nonblocking fork: workflow_driver1 paramsDakota.in results.out
Initiating evaluation 48
nonblocking fork: workflow_driver1 paramsDakota.in results.out
Initiating evaluation 49
nonblocking fork: workflow_driver1 paramsDakota.in results.out
Initiating evaluation 50
nonblocking fork: workflow_driver1 paramsDakota.in results.out
Initiating evaluation 51
nonblocking fork: workflow_driver1 paramsDakota.in results.out
Initiating evaluation 52
nonblocking fork: workflow_driver1 paramsDakota.in results.out
Initiating evaluation 53
nonblocking fork: workflow_driver1 paramsDakota.in results.out
Waiting on completed jobs
Evaluation 47 has completed
Evaluation 48 has completed
Evaluation 49 has completed
Evaluation 50 has completed
Evaluation 51 has completed
Waiting on completed jobs
Evaluation 52 has completed
Waiting on completed jobs
Evaluation 53 has completed

Active response data for evaluation 47:
Active set vector = { 1 1 1 1 1 1 1 1 1 1 1 1 1 1 1 1 1 1 1 1 1 1 1 1 1 1 1 1 1 1 1 1 1 1 1 1 1 1 1 1 1 1 1 1 1 1 1 1 1 1 1 1 1 1 1 1 1 1 1 1 1 1 1 1 1 1 1 1 1 1 1 1 1 1 1 1 1 1 1 1 1 1 1 1 1 1 1 1 1 1 1 1 1 1 1 1 1 1 1 1 1 1 1 1 1 1 1 1 1 1 1 1 1 1 1 1 1 1 1 1 1 1 1 1 1 1 1 1 1 1 1 1 1 1 1 1 1 1 1 1 1 1 1 1 1 1 1 1 1 1 1 1 1 1 1 1 1 1 1 1 1 1 1 1 1 1 1 1 1 1 1 1 1 1 1 1 1 1 1 1 1 1 1 1 1 1 1 1 1 1 1 1 1 1 1 1 1 1 1 1 1 1 1 1 1 1 1 1 1 1 1 1 1 1 1 1 1 1 1 1 1 1 1 1 1 1 1 1 1 1 1 1 1 1 1 1 1 1 1 1 1 1 1 1 1 1 1 1 1 1 1 1 1 1 1 1 1 1 1 1 1 1 1 1 1 1 1 1 1 1 1 1 1 1 1 1 1 1 1 1 1 1 1 1 1 1 1 1 1 1 1 1 1 1 1 1 1 1 1 1 1 1 1 1 1 1 1 1 1 1 1 1 1 1 1 1 1 1 1 1 1 1 1 1 1 1 1 1 1 1 1 1 1 1 1 1 1 1 1 1 1 1 }
                      2.3058831024e+00 stress_1
                     -2.1390365263e+02 stress_2
                     -3.9319917420e+02 stress_3
                     -4.0674886989e+02 stress_4
                     -1.1027075269e+02 stress_5
                      1.8395666519e+02 stress_6
                      2.9347813575e+02 stress_7
                      2.9426327405e+02 stress_8
                      6.6545753254e+01 stress_9
                     -2.0285326367e+02 stress_10
                     -3.4926409814e+02 stress_11
                     -4.1174111078e+02 stress_12
                     -4.3740865721e+02 stress_13
                     -4.3939843705e+02 stress_14
                     -1.3806432704e+02 stress_15
                     -2.8490355415e+02 stress_16
                     -3.9026066629e+02 stress_17
                     -2.0841289360e+02 stress_18
                      6.4651606078e+01 stress_19
                      2.6255589207e+02 stress_20
                      3.6270158227e+02 stress_21
                      4.1134711994e+02 stress_22
                      4.3496763489e+02 stress_23
                      4.4327290100e+02 stress_24
                      1.4091999209e+02 stress_25
                      2.5661527869e+02 stress_26
                      3.5239684705e+02 stress_27
                      3.7124382976e+02 stress_28
                      2.5521607926e+02 stress_29
                      6.6627187977e+01 stress_30
                     -1.3001448327e+02 stress_31
                     -2.7567921021e+02 stress_32
                     -3.6549785383e+02 stress_33
                     -4.1975073831e+02 stress_34
                     -4.5485516382e+02 stress_35
                     -4.7967953498e+02 stress_36
                     -4.9848568957e+02 stress_37
                     -5.1323467155e+02 stress_38
                     -5.2478620543e+02 stress_39
                     -5.3347320225e+02 stress_40
                     -5.3940128548e+02 stress_41
                     -5.4257748122e+02 stress_42
                     -5.2785373554e+02 stress_43
                     -1.7526507988e+02 stress_44
                      4.7255341520e+01 stress_45
                     -1.4018292573e+02 stress_46
                     -3.6874276671e+02 stress_47
                     -9.7619706692e+01 stress_48
                     -1.9368844939e+02 stress_49
                     -3.2034286575e+02 stress_50
                     -4.3740826354e+02 stress_51
                     -2.7774376810e+02 stress_52
                      6.1349009138e+00 stress_53
                      2.1746446787e+02 stress_54
                      3.2028691370e+02 stress_55
                      3.6530285300e+02 stress_56
                      3.8035101905e+02 stress_57
                      2.9840583011e+02 stress_58
                      1.9218380672e+01 stress_59
                     -2.4691098623e+02 stress_60
                     -3.8636957266e+02 stress_61
                     -4.4444034210e+02 stress_62
                     -4.5911221092e+02 stress_63
                     -2.1046804538e+02 stress_64
                      9.7917143172e+01 stress_65
                      1.6608145849e+02 stress_66
                     -7.9760965778e+01 stress_67
                     -3.4971324268e+02 stress_68
                     -4.3840466953e+02 stress_69
                     -4.3975282402e+02 stress_70
                     -3.4932987324e+02 stress_71
                     -1.9232023739e+02 stress_72
                     -6.8104647543e+00 stress_73
                      1.5499307103e+02 stress_74
                      2.6854563668e+02 stress_75
                      3.4123398165e+02 stress_76
                      3.8830591876e+02 stress_77
                      4.2085355424e+02 stress_78
                      4.4519370812e+02 stress_79
                      4.6463728284e+02 stress_80
                      4.8086186677e+02 stress_81
                      4.9468658984e+02 stress_82
                      5.0648006699e+02 stress_83
                      5.1637802434e+02 stress_84
                      5.2439492962e+02 stress_85
                      5.3049462121e+02 stress_86
                      5.3462579441e+02 stress_87
                      5.3674025184e+02 stress_88
                      4.6668605485e+02 stress_89
                      7.9395641581e+01 stress_90
                     -9.0025014942e+01 stress_91
                      1.6495812398e+02 stress_92
                      3.8231739461e+02 stress_93
                      3.8676673919e+02 stress_94
                      3.2955739707e+02 stress_95
                      2.2858471736e+02 stress_96
                      9.5183915399e+01 stress_97
                     -4.7797911474e+01 stress_98
                     -1.7503520764e+02 stress_99
                     -2.7318887040e+02 stress_100
                     -3.4318034488e+02 stress_101
                     -3.9222238667e+02 stress_102
                     -4.2750788603e+02 stress_103
                     -4.5422256844e+02 stress_104
                     -4.7566606439e+02 stress_105
                     -4.9384464694e+02 stress_106
                     -5.0995197051e+02 stress_107
                     -5.2468974937e+02 stress_108
                     -5.3846257311e+02 stress_109
                     -5.5149427950e+02 stress_110
                     -5.6389635632e+02 stress_111
                     -5.7570913194e+02 stress_112
                     -5.8693035584e+02 stress_113
                     -5.9753034959e+02 stress_114
                     -6.0746241695e+02 stress_115
                     -6.1667120494e+02 stress_116
                     -6.2509648489e+02 stress_117
                     -6.3267975135e+02 stress_118
                     -6.3936405311e+02 stress_119
                     -6.4509542839e+02 stress_120
                     -6.4982881500e+02 stress_121
                     -6.5352439991e+02 stress_122
                     -6.5615056099e+02 stress_123
                     -6.5768592924e+02 stress_124
                     -6.5809827525e+02 stress_125
                     -5.6076259536e+02 stress_126
                     -3.3111674205e+02 stress_127
                     -6.8372101147e+01 stress_128
                      1.2410711878e+02 stress_129
                      2.3582962259e+02 stress_130
                      2.9721147486e+02 stress_131
                      3.3055288382e+02 stress_132
                      3.4649466644e+02 stress_133
                      3.4739759170e+02 stress_134
                     -1.9926877808e+01 stress_135
                     -3.8201399907e+01 stress_136
                      1.3199679299e+02 stress_137
                      9.7619079035e+01 stress_138
                     -6.1840530545e+01 stress_139
                     -3.0053356390e+02 stress_140
                     -4.7403766149e+02 stress_141
                     -5.6313144346e+02 stress_142
                     -6.0748109718e+02 stress_143
                     -6.3013712206e+02 stress_144
                     -6.3979514398e+02 stress_145
                     -6.2037546558e+02 stress_146
                     -3.9823219807e+02 stress_147
                     -9.6503077887e+01 stress_148
                      1.1600369473e+02 stress_149
                      2.2273238963e+02 stress_150
                      2.6757224463e+02 stress_151
                      2.7341826620e+02 stress_152
                      7.1429117024e+01 stress_153
                     -2.3003508786e+02 stress_154
                     -4.3118273268e+02 stress_155
                     -5.2221430686e+02 stress_156
                     -5.5317618907e+02 stress_157
                     -4.3701283438e+02 stress_158
                     -8.3623053030e+01 stress_159
                      6.2748518011e+01 stress_160
                     -9.2765181024e+01 stress_161
                     -3.9555374351e+02 stress_162
                     -5.2477197314e+02 stress_163
                     -5.3807751766e+02 stress_164
                     -4.9834763987e+02 stress_165
                     -4.2071488606e+02 stress_166
                     -3.1000172794e+02 stress_167
                     -1.7812126225e+02 stress_168
                     -4.3705443271e+01 stress_169
                      7.5526222338e+01 stress_170
                      1.7052914655e+02 stress_171
                      2.4156882285e+02 stress_172
                      2.9359926563e+02 stress_173
                      3.3217182835e+02 stress_174
                      3.6174803176e+02 stress_175
                      3.8544966323e+02 stress_176
                      4.0533592348e+02 stress_177
                      4.2273236251e+02 stress_178
                      4.3847999396e+02 stress_179
                      4.5310960784e+02 stress_180
                      4.6695245112e+02 stress_181
                      4.8020864170e+02 stress_182
                      4.9299398792e+02 stress_183
                      5.0536703363e+02 stress_184
                      5.1734908362e+02 stress_185
                      5.2893559027e+02 stress_186
                      5.4010498501e+02 stress_187
                      5.5082480672e+02 stress_188
                      5.6105480964e+02 stress_189
                      5.7075113406e+02 stress_190
                      5.7986802135e+02 stress_191
                      5.8835820744e+02 stress_192
                      5.9617766371e+02 stress_193
                      6.0328290201e+02 stress_194
                      6.0963262381e+02 stress_195
                      6.1519124059e+02 stress_196
                      6.1992484430e+02 stress_197
                      6.2380614805e+02 stress_198
                      6.2681187269e+02 stress_199
                      6.2892288490e+02 stress_200
                      6.3012711224e+02 stress_201
                      6.3018609268e+02 stress_202
                      2.9520027551e+02 stress_203
                      4.2408176481e-01 stress_204
                      1.0289354077e+02 stress_205
                      4.1669575761e+02 stress_206
                      4.2725547008e+02 stress_207
                      3.6566052359e+02 stress_208
                      2.5642498725e+02 stress_209
                      1.1301528811e+02 stress_210
                     -3.7936291800e+01 stress_211
                     -1.6879275574e+02 stress_212
                     -2.6719670009e+02 stress_213
                     -3.3608605749e+02 stress_214
                     -3.8395534017e+02 stress_215
                     -4.1842024002e+02 stress_216
                     -4.4468132423e+02 stress_217
                     -4.6594702726e+02 stress_218
                     -4.8411702065e+02 stress_219
                     -5.0029612575e+02 stress_220
                     -5.1511802355e+02 stress_221
                     -5.2893436044e+02 stress_222
                     -5.4192732000e+02 stress_223
                     -5.5417501636e+02 stress_224
                     -5.6569272702e+02 stress_225
                     -5.7645667348e+02 stress_226
                     -5.8642013391e+02 stress_227
                     -5.9552559158e+02 stress_228
                     -6.0370770621e+02 stress_229
                     -6.1090391340e+02 stress_230
                     -6.1705420796e+02 stress_231
                     -6.2210291258e+02 stress_232
                     -6.2600607095e+02 stress_233
                     -6.2872704771e+02 stress_234
                     -6.3023901423e+02 stress_235
                     -6.2405768810e+02 stress_236
                     -2.8706148233e+02 stress_237
                     -3.4139907787e+01 stress_238
                     -2.3542190378e+02 stress_239
                     -4.3447127378e+02 stress_240
                     -1.2974519175e+02 stress_241
                      2.1153789699e+01 stress_242
                     -2.7617455999e+02 stress_243
                     -3.7552471804e+02 stress_244
                     -4.6453987776e+02 stress_245
                     -2.9059772953e+02 stress_246
                     -2.4967117502e-01 stress_247
                      2.1761638922e+02 stress_248
                      3.2646236068e+02 stress_249
                      3.7439709494e+02 stress_250
                      3.8941396140e+02 stress_251
                      2.8944722172e+02 stress_252
                      1.3841446056e+00 stress_253
                     -2.7158805846e+02 stress_254
                     -4.1970597386e+02 stress_255
                     -4.8229884003e+02 stress_256
                     -4.9600013956e+02 stress_257
                     -2.3832055172e+02 stress_258
                      7.9232939736e+01 stress_259
                      1.7530071367e+02 stress_260
                     -2.4554373022e+01 stress_261
                     -3.2979582103e+02 stress_262
                     -4.6594358940e+02 stress_263
                     -4.8736776265e+02 stress_264
                     -4.4736801293e+02 stress_265
                     -3.5854190401e+02 stress_266
                     -2.2830347153e+02 stress_267
                     -7.5537045060e+01 stress_268
                      7.2635028103e+01 stress_269
                      1.9504788201e+02 stress_270
                      2.8588900064e+02 stress_271
                      3.5027889447e+02 stress_272
                      3.9609866964e+02 stress_273
                      4.2991433309e+02 stress_274
                      4.5619513513e+02 stress_275
                      4.7774440786e+02 stress_276
                      4.9626659807e+02 stress_277
                      5.1277953600e+02 stress_278
                      5.2788239088e+02 stress_279
                      5.4191802633e+02 stress_280
                      5.5507090011e+02 stress_281
                      5.6742684718e+02 stress_282
                      5.7900959482e+02 stress_283
                      5.8980535980e+02 stress_284
                      5.9977609492e+02 stress_285
                      6.0887209684e+02 stress_286
                      6.1703735416e+02 stress_287
                      6.2421376634e+02 stress_288
                      6.3034772672e+02 stress_289
                      6.3538989479e+02 stress_290
                      6.3929751756e+02 stress_291
                      6.4203802570e+02 stress_292
                      6.4358680755e+02 stress_293
                      6.4360967030e+02 stress_294
                      2.9791175892e+02 stress_295
                      9.7373704348e+00 stress_296
                      1.3191573456e+02 stress_297
                      4.2988190830e+02 stress_298
                      4.3835653920e+02 stress_299
                      3.9696100428e+02 stress_300
                      3.2307942743e+02 stress_301
                      2.2089928945e+02 stress_302
                      1.0047332181e+02 stress_303
                     -2.2960174239e+01 stress_304
                     -1.3428986265e+02 stress_305
                     -2.2501803223e+02 stress_306
                     -2.9434571195e+02 stress_307
                     -3.4593131526e+02 stress_308
                     -3.8450606380e+02 stress_309
                     -4.1412249756e+02 stress_310
                     -4.3775989275e+02 stress_311
                     -4.5745801887e+02 stress_312
                     -4.7456584828e+02 stress_313
                     -4.8996706576e+02 stress_314
                     -5.0423573667e+02 stress_315
                     -5.1774235226e+02 stress_316
                     -5.3072413451e+02 stress_317
                     -5.4332877806e+02 stress_318
                     -5.5564400417e+02 stress_319
                     -5.6771702937e+02 stress_320
                     -5.7956630318e+02 stress_321
                     -5.9119128476e+02 stress_322
                     -6.0257712943e+02 stress_323
                     -6.1369991999e+02 stress_324
                     -6.2452970344e+02 stress_325
                     -6.3503098590e+02 stress_326
                     -6.4516709298e+02 stress_327
                     -6.5489787477e+02 stress_328
                     -6.6418488656e+02 stress_329
                     -6.7298901276e+02 stress_330
                     -6.8127139877e+02 stress_331
                     -6.8899593514e+02 stress_332
                     -6.9612705425e+02 stress_333
                     -7.0263242199e+02 stress_334
                     -7.0848253700e+02 stress_335
                     -7.1364827525e+02 stress_336
                     -7.1810691582e+02 stress_337
                     -7.2183661291e+02 stress_338
                     -7.2481945171e+02 stress_339
                     -7.2704179336e+02 stress_340
                     -7.2849270885e+02 stress_341
                     -7.2916497823e+02 stress_342


Active response data for evaluation 48:
Active set vector = { 1 1 1 1 1 1 1 1 1 1 1 1 1 1 1 1 1 1 1 1 1 1 1 1 1 1 1 1 1 1 1 1 1 1 1 1 1 1 1 1 1 1 1 1 1 1 1 1 1 1 1 1 1 1 1 1 1 1 1 1 1 1 1 1 1 1 1 1 1 1 1 1 1 1 1 1 1 1 1 1 1 1 1 1 1 1 1 1 1 1 1 1 1 1 1 1 1 1 1 1 1 1 1 1 1 1 1 1 1 1 1 1 1 1 1 1 1 1 1 1 1 1 1 1 1 1 1 1 1 1 1 1 1 1 1 1 1 1 1 1 1 1 1 1 1 1 1 1 1 1 1 1 1 1 1 1 1 1 1 1 1 1 1 1 1 1 1 1 1 1 1 1 1 1 1 1 1 1 1 1 1 1 1 1 1 1 1 1 1 1 1 1 1 1 1 1 1 1 1 1 1 1 1 1 1 1 1 1 1 1 1 1 1 1 1 1 1 1 1 1 1 1 1 1 1 1 1 1 1 1 1 1 1 1 1 1 1 1 1 1 1 1 1 1 1 1 1 1 1 1 1 1 1 1 1 1 1 1 1 1 1 1 1 1 1 1 1 1 1 1 1 1 1 1 1 1 1 1 1 1 1 1 1 1 1 1 1 1 1 1 1 1 1 1 1 1 1 1 1 1 1 1 1 1 1 1 1 1 1 1 1 1 1 1 1 1 1 1 1 1 1 1 1 1 1 1 1 1 1 1 1 1 1 1 1 1 1 1 1 1 1 1 }
                      2.3081889855e+00 stress_1
                     -2.1403036481e+02 stress_2
                     -3.9307683273e+02 stress_3
                     -4.0659014846e+02 stress_4
                     -1.0987187970e+02 stress_5
                      1.8426428701e+02 stress_6
                      2.9361318564e+02 stress_7
                      2.9439679881e+02 stress_8
                      6.6479371330e+01 stress_9
                     -2.0292904958e+02 stress_10
                     -3.4916716144e+02 stress_11
                     -4.1153742676e+02 stress_12
                     -4.3716194299e+02 stress_13
                     -4.3914856748e+02 stress_14
                     -1.3757224899e+02 stress_15
                     -2.8454010912e+02 stress_16
                     -3.8992949388e+02 stress_17
                     -2.0791556981e+02 stress_18
                      6.5190921455e+01 stress_19
                      2.6282416371e+02 stress_20
                      3.6271951782e+02 stress_21
                      4.1123073351e+02 stress_22
                      4.3479035950e+02 stress_23
                      4.4307589787e+02 stress_24
                      1.4047563793e+02 stress_25
                      2.5627580275e+02 stress_26
                      3.5209801868e+02 stress_27
                      3.7094484988e+02 stress_28
                      2.5480509886e+02 stress_29
                      6.6097340943e+01 stress_30
                     -1.3048731080e+02 stress_31
                     -2.7593283829e+02 stress_32
                     -3.6553717553e+02 stress_33
                     -4.1964597114e+02 stress_34
                     -4.5466542940e+02 stress_35
                     -4.7944202535e+02 stress_36
                     -4.9822208473e+02 stress_37
                     -5.1295735780e+02 stress_38
                     -5.2450214898e+02 stress_39
                     -5.3318617727e+02 stress_40
                     -5.3911316940e+02 stress_41
                     -5.4228906766e+02 stress_42
                     -5.2755060383e+02 stress_43
                     -1.7470067340e+02 stress_44
                      4.7757031677e+01 stress_45
                     -1.3985600604e+02 stress_46
                     -3.6851961186e+02 stress_47
                     -9.7182485645e+01 stress_48
                     -1.9334439119e+02 stress_49
                     -3.2009100410e+02 stress_50
                     -4.3717803423e+02 stress_51
                     -2.7736346133e+02 stress_52
                      6.6016909447e+00 stress_53
                      2.1769470887e+02 stress_54
                      3.2028713736e+02 stress_55
                      3.6518765714e+02 stress_56
                      3.8019766942e+02 stress_57
                      2.9817149302e+02 stress_58
                      1.8787488688e+01 stress_59
                     -2.4725756561e+02 stress_60
                     -3.8651431607e+02 stress_61
                     -4.4447176526e+02 stress_62
                     -4.5911360022e+02 stress_63
                     -2.1024962557e+02 stress_64
                      9.8149438497e+01 stress_65
                      1.6625080492e+02 stress_66
                     -7.9803356957e+01 stress_67
                     -3.4974823444e+02 stress_68
                     -4.3834827305e+02 stress_69
                     -4.3969470304e+02 stress_70
                     -3.4918285568e+02 stress_71
                     -1.9204641623e+02 stress_72
                     -6.4896995137e+00 stress_73
                      1.5520850625e+02 stress_74
                      2.6858671707e+02 stress_75
                      3.4112505609e+02 stress_76
                      3.8809547475e+02 stress_77
                      4.2058093956e+02 stress_78
                      4.4488497315e+02 stress_79
                      4.6430863801e+02 stress_80
                      4.8052320426e+02 stress_81
                      4.9434385619e+02 stress_82
                      5.0613671511e+02 stress_83
                      5.1603589165e+02 stress_84
                      5.2405478195e+02 stress_85
                      5.3015650622e+02 stress_86
                      5.3428928629e+02 stress_87
                      5.3640463290e+02 stress_88
                      4.6628096796e+02 stress_89
                      7.8769653193e+01 stress_90
                     -9.0560014063e+01 stress_91
                      1.6464899840e+02 stress_92
                      3.8207244004e+02 stress_93
                      3.8652119803e+02 stress_94
                      3.2925509783e+02 stress_95
                      2.2819068958e+02 stress_96
                      9.4707949532e+01 stress_97
                     -4.8275602878e+01 stress_98
                     -1.7540832292e+02 stress_99
                     -2.7339986152e+02 stress_100
                     -3.4323351185e+02 stress_101
                     -3.9215135667e+02 stress_102
                     -4.2734890991e+02 stress_103
                     -4.5400467099e+02 stress_104
                     -4.7541013771e+02 stress_105
                     -4.9356514792e+02 stress_106
                     -5.0965880553e+02 stress_107
                     -5.2438971950e+02 stress_108
                     -5.3816036876e+02 stress_109
                     -5.5119313977e+02 stress_110
                     -5.6359850243e+02 stress_111
                     -5.7541605286e+02 stress_112
                     -5.8664300027e+02 stress_113
                     -5.9724925686e+02 stress_114
                     -6.0718780801e+02 stress_115
                     -6.1640304813e+02 stress_116
                     -6.2483454384e+02 stress_117
                     -6.3242362374e+02 stress_118
                     -6.3911319981e+02 stress_119
                     -6.4484919702e+02 stress_120
                     -6.4958646348e+02 stress_121
                     -6.5328511397e+02 stress_122
                     -6.5591347173e+02 stress_123
                     -6.5745013098e+02 stress_124
                     -6.5786282452e+02 stress_125
                     -5.6043121790e+02 stress_126
                     -3.3060865244e+02 stress_127
                     -6.7865411098e+01 stress_128
                      1.2439224546e+02 stress_129
                      2.3588880237e+02 stress_130
                      2.9712470862e+02 stress_131
                      3.3038644954e+02 stress_132
                      3.4629173545e+02 stress_133
                      3.4719264526e+02 stress_134
                     -2.0425926969e+01 stress_135
                     -3.8707225075e+01 stress_136
                      1.3163854807e+02 stress_137
                      9.7226572434e+01 stress_138
                     -6.2371235889e+01 stress_139
                     -3.0108644790e+02 stress_140
                     -4.7436040754e+02 stress_141
                     -5.6324613376e+02 stress_142
                     -6.0748387590e+02 stress_143
                     -6.3008807919e+02 stress_144
                     -6.3972648141e+02 stress_145
                     -6.2028739365e+02 stress_146
                     -3.9794266515e+02 stress_147
                     -9.6127327124e+01 stress_148
                      1.1620103611e+02 stress_149
                      2.2274886561e+02 stress_150
                      2.6749760009e+02 stress_151
                      2.7333132762e+02 stress_152
                      7.1152818338e+01 stress_153
                     -2.3042910795e+02 stress_154
                     -4.3144465219e+02 stress_155
                     -5.2234939034e+02 stress_156
                     -5.5326072514e+02 stress_157
                     -4.3698372315e+02 stress_158
                     -8.3406497607e+01 stress_159
                      6.2902215268e+01 stress_160
                     -9.2759415570e+01 stress_161
                     -3.9566410763e+02 stress_162
                     -5.2480451850e+02 stress_163
                     -5.3809705604e+02 stress_164
                     -4.9832755757e+02 stress_165
                     -4.2061992769e+02 stress_166
                     -3.0981442811e+02 stress_167
                     -1.7786466348e+02 stress_168
                     -4.3447451953e+01 stress_169
                      7.5708424466e+01 stress_170
                      1.7059114933e+02 stress_171
                      2.4150673010e+02 stress_172
                      2.9343234766e+02 stress_173
                      3.3192537983e+02 stress_174
                      3.6144482244e+02 stress_175
                      3.8510757968e+02 stress_176
                      4.0496823133e+02 stress_177
                      4.2234868047e+02 stress_178
                      4.3808725946e+02 stress_179
                      4.5271283408e+02 stress_180
                      4.6655527626e+02 stress_181
                      4.7981371376e+02 stress_182
                      4.9260323119e+02 stress_183
                      5.0498183322e+02 stress_184
                      5.1697041457e+02 stress_185
                      5.2856410845e+02 stress_186
                      5.3974109234e+02 stress_187
                      5.5046869905e+02 stress_188
                      5.6070651168e+02 stress_189
                      5.7041052678e+02 stress_190
                      5.7953486321e+02 stress_191
                      5.8803215033e+02 stress_192
                      5.9585826894e+02 stress_193
                      6.0296965115e+02 stress_194
                      6.0932492875e+02 stress_195
                      6.1488845508e+02 stress_196
                      6.1962627084e+02 stress_197
                      6.2351104823e+02 stress_198
                      6.2651947461e+02 stress_199
                      6.2863239018e+02 stress_200
                      6.2983770540e+02 stress_201
                      6.2989673916e+02 stress_202
                      2.9463020516e+02 stress_203
                     -1.3512731852e-01 stress_204
                      1.0243532763e+02 stress_205
                      4.1645367181e+02 stress_206
                      4.2701633221e+02 stress_207
                      3.6536032328e+02 stress_208
                      2.5602656472e+02 stress_209
                      1.1253425594e+02 stress_210
                     -3.8406157693e+01 stress_211
                     -1.6913884011e+02 stress_212
                     -2.6736813391e+02 stress_213
                     -3.3609650920e+02 stress_214
                     -3.8384372872e+02 stress_215
                     -4.1822447264e+02 stress_216
                     -4.4443039083e+02 stress_217
                     -4.6566123611e+02 stress_218
                     -4.8381018292e+02 stress_219
                     -4.9997758060e+02 stress_220
                     -5.1479410134e+02 stress_221
                     -5.2860936114e+02 stress_222
                     -5.4160414997e+02 stress_223
                     -5.5385560259e+02 stress_224
                     -5.6537828980e+02 stress_225
                     -5.7614790893e+02 stress_226
                     -5.8611733920e+02 stress_227
                     -5.9522875446e+02 stress_228
                     -6.0341656807e+02 stress_229
                     -6.1061802045e+02 stress_230
                     -6.1677294974e+02 stress_231
                     -6.2182555281e+02 stress_232
                     -6.2573177821e+02 stress_233
                     -6.2845491869e+02 stress_234
                     -6.2996809622e+02 stress_235
                     -6.2378058907e+02 stress_236
                     -2.8650336220e+02 stress_237
                     -3.3566117552e+01 stress_238
                     -2.3503763271e+02 stress_239
                     -4.3420594181e+02 stress_240
                     -1.2923843257e+02 stress_241
                      2.1663178543e+01 stress_242
                     -2.7592257238e+02 stress_243
                     -3.7531758684e+02 stress_244
                     -4.6434486982e+02 stress_245
                     -2.9023922562e+02 stress_246
                      2.0959471731e-01 stress_247
                      2.1786876096e+02 stress_248
                      3.2649708864e+02 stress_249
                      3.7431844322e+02 stress_250
                      3.8929936068e+02 stress_251
                      2.8923401312e+02 stress_252
                      9.6239209692e-01 stress_253
                     -2.7196690215e+02 stress_254
                     -4.1991566158e+02 stress_255
                     -4.8240665482e+02 stress_256
                     -4.9608397946e+02 stress_257
                     -2.3817236773e+02 stress_258
                      7.9439203488e+01 stress_259
                      1.7543831092e+02 stress_260
                     -2.4602158826e+01 stress_261
                     -3.2993008341e+02 stress_262
                     -4.6597918240e+02 stress_263
                     -4.8737920297e+02 stress_264
                     -4.4733955533e+02 stress_265
                     -3.5842798681e+02 stress_266
                     -2.2808433036e+02 stress_267
                     -7.5251408620e+01 stress_268
                      7.2896147926e+01 stress_269
                      1.9520390572e+02 stress_270
                      2.8591316502e+02 stress_271
                      3.5018597546e+02 stress_272
                      3.9591744938e+02 stress_273
                      4.2967192647e+02 stress_274
                      4.5591248135e+02 stress_275
                      4.7743649978e+02 stress_276
                      4.9594387152e+02 stress_277
                      5.1244919791e+02 stress_278
                      5.2754941065e+02 stress_279
                      5.4158581949e+02 stress_280
                      5.5474178686e+02 stress_281
                      5.6710235873e+02 stress_282
                      5.7869067971e+02 stress_283
                      5.8949252580e+02 stress_284
                      5.9946950779e+02 stress_285
                      6.0857165272e+02 stress_286
                      6.1674273297e+02 stress_287
                      6.2392447249e+02 stress_288
                      6.3006312402e+02 stress_289
                      6.3510923403e+02 stress_290
                      6.3901996074e+02 stress_291
                      6.4176266968e+02 stress_292
                      6.4331270364e+02 stress_293
                      6.4333558493e+02 stress_294
                      2.9734932848e+02 stress_295
                      9.1823203791e+00 stress_296
                      1.3148027760e+02 stress_297
                      4.2964190048e+02 stress_298
                      4.3811863531e+02 stress_299
                      3.9668186028e+02 stress_300
                      3.2272966047e+02 stress_301
                      2.2046705718e+02 stress_302
                      9.9984638170e+01 stress_303
                     -2.3437936446e+01 stress_304
                     -1.3467928210e+02 stress_305
                     -2.2527135425e+02 stress_306
                     -2.9445563942e+02 stress_307
                     -3.4591645429e+02 stress_308
                     -3.8439348631e+02 stress_309
                     -4.1393787643e+02 stress_310
                     -4.3752409378e+02 stress_311
                     -4.5718689549e+02 stress_312
                     -4.7427111377e+02 stress_313
                     -4.8965729553e+02 stress_314
                     -5.0391721650e+02 stress_315
                     -5.1741971663e+02 stress_316
                     -5.3040082480e+02 stress_317
                     -5.4300736617e+02 stress_318
                     -5.5532641933e+02 stress_319
                     -5.6740471796e+02 stress_320
                     -5.7926034160e+02 stress_321
                     -5.9089246057e+02 stress_322
                     -6.0228599954e+02 stress_323
                     -6.1341685378e+02 stress_324
                     -6.2425491511e+02 stress_325
                     -6.3476455776e+02 stress_326
                     -6.4490899532e+02 stress_327
                     -6.5464797888e+02 stress_328
                     -6.6394297845e+02 stress_329
                     -6.7275480216e+02 stress_330
                     -6.8104452687e+02 stress_331
                     -6.8877598298e+02 stress_332
                     -6.9591354805e+02 stress_333
                     -7.0242483990e+02 stress_334
                     -7.0828031498e+02 stress_335
                     -7.1345080999e+02 stress_336
                     -7.1791357293e+02 stress_337
                     -7.2164672966e+02 stress_338
                     -7.2463234233e+02 stress_339
                     -7.2685675454e+02 stress_340
                     -7.2830902359e+02 stress_341
                     -7.2898192059e+02 stress_342


Active response data for evaluation 49:
Active set vector = { 1 1 1 1 1 1 1 1 1 1 1 1 1 1 1 1 1 1 1 1 1 1 1 1 1 1 1 1 1 1 1 1 1 1 1 1 1 1 1 1 1 1 1 1 1 1 1 1 1 1 1 1 1 1 1 1 1 1 1 1 1 1 1 1 1 1 1 1 1 1 1 1 1 1 1 1 1 1 1 1 1 1 1 1 1 1 1 1 1 1 1 1 1 1 1 1 1 1 1 1 1 1 1 1 1 1 1 1 1 1 1 1 1 1 1 1 1 1 1 1 1 1 1 1 1 1 1 1 1 1 1 1 1 1 1 1 1 1 1 1 1 1 1 1 1 1 1 1 1 1 1 1 1 1 1 1 1 1 1 1 1 1 1 1 1 1 1 1 1 1 1 1 1 1 1 1 1 1 1 1 1 1 1 1 1 1 1 1 1 1 1 1 1 1 1 1 1 1 1 1 1 1 1 1 1 1 1 1 1 1 1 1 1 1 1 1 1 1 1 1 1 1 1 1 1 1 1 1 1 1 1 1 1 1 1 1 1 1 1 1 1 1 1 1 1 1 1 1 1 1 1 1 1 1 1 1 1 1 1 1 1 1 1 1 1 1 1 1 1 1 1 1 1 1 1 1 1 1 1 1 1 1 1 1 1 1 1 1 1 1 1 1 1 1 1 1 1 1 1 1 1 1 1 1 1 1 1 1 1 1 1 1 1 1 1 1 1 1 1 1 1 1 1 1 1 1 1 1 1 1 1 1 1 1 1 1 1 1 1 1 1 1 }
                      2.3058831024e+00 stress_1
                     -2.1386073765e+02 stress_2
                     -3.9294849173e+02 stress_3
                     -4.0647467222e+02 stress_4
                     -1.1002425212e+02 stress_5
                      1.8401484755e+02 stress_6
                      2.9340058173e+02 stress_7
                      2.9418462040e+02 stress_8
                      6.6480738887e+01 stress_9
                     -2.0279168249e+02 stress_10
                     -3.4905086752e+02 stress_11
                     -4.1145202720e+02 stress_12
                     -4.3709132187e+02 stress_13
                     -4.3907909650e+02 stress_14
                     -1.3777408502e+02 stress_15
                     -2.8460452594e+02 stress_16
                     -3.8992698000e+02 stress_17
                     -2.0808694433e+02 stress_18
                      6.4863965277e+01 stress_19
                      2.6253997002e+02 stress_20
                      3.6251941520e+02 stress_21
                      4.1108237852e+02 stress_22
                      4.3466720663e+02 stress_23
                      4.4296126360e+02 stress_24
                      1.4063540238e+02 stress_25
                      2.5632543178e+02 stress_26
                      3.5208043264e+02 stress_27
                      3.7091835760e+02 stress_28
                      2.5489259183e+02 stress_29
                      6.6338025202e+01 stress_30
                     -1.3017923297e+02 stress_31
                     -2.7566679647e+02 stress_32
                     -3.6534117105e+02 stress_33
                     -4.1950435919e+02 stress_34
                     -4.5455910820e+02 stress_35
                     -4.7935776262e+02 stress_36
                     -4.9815171043e+02 stress_37
                     -5.1289587751e+02 stress_38
                     -5.2444642247e+02 stress_39
                     -5.3313413105e+02 stress_40
                     -5.3906334488e+02 stress_41
                     -5.4224034410e+02 stress_42
                     -5.2751660118e+02 stress_43
                     -1.7497287396e+02 stress_44
                      4.7407788424e+01 stress_45
                     -1.4002436485e+02 stress_46
                     -3.6852496037e+02 stress_47
                     -9.7430002833e+01 stress_48
                     -1.9349733871e+02 stress_49
                     -3.2013516177e+02 stress_50
                     -4.3715547336e+02 stress_51
                     -2.7749570158e+02 stress_52
                      6.2859591821e+00 stress_53
                      2.1739749614e+02 stress_54
                      3.2006178621e+02 stress_55
                      3.6500450663e+02 stress_56
                      3.8002929797e+02 stress_57
                      2.9808457992e+02 stress_58
                      1.8937691293e+01 stress_59
                     -2.4702089743e+02 stress_60
                     -3.8631635431e+02 stress_61
                     -4.4430785402e+02 stress_62
                     -4.5895961273e+02 stress_63
                     -2.1032961307e+02 stress_64
                      9.7911695014e+01 stress_65
                      1.6601251615e+02 stress_66
                     -7.9813223591e+01 stress_67
                     -3.4963129957e+02 stress_68
                     -4.3823792758e+02 stress_69
                     -4.3958466427e+02 stress_70
                     -3.4916246451e+02 stress_71
                     -1.9216767988e+02 stress_72
                     -6.7258576600e+00 stress_73
                      1.5494757239e+02 stress_74
                      2.6836207045e+02 stress_75
                      3.4094696806e+02 stress_76
                      3.8795393892e+02 stress_77
                      4.2046445156e+02 stress_78
                      4.4478508398e+02 stress_79
                      4.6421978634e+02 stress_80
                      4.8044180951e+02 stress_81
                      4.9426758947e+02 stress_82
                      5.0606402486e+02 stress_83
                      5.1596571174e+02 stress_84
                      5.2398635134e+02 stress_85
                      5.3008925717e+02 stress_86
                      5.3422277146e+02 stress_87
                      5.3633847469e+02 stress_88
                      4.6628456651e+02 stress_89
                      7.9075951354e+01 stress_90
                     -9.0217292966e+01 stress_91
                      1.6475182358e+02 stress_92
                      3.8203892951e+02 stress_93
                      3.8648596505e+02 stress_94
                      3.2927684530e+02 stress_95
                      2.2830871999e+02 stress_96
                      9.4933249683e+01 stress_97
                     -4.7979206206e+01 stress_98
                     -1.7510322749e+02 stress_99
                     -2.7313096098e+02 stress_100
                     -3.4301421839e+02 stress_101
                     -3.9197658794e+02 stress_102
                     -4.2720844313e+02 stress_103
                     -4.5388910469e+02 stress_104
                     -4.7531231874e+02 stress_105
                     -4.9347999344e+02 stress_106
                     -5.0958278050e+02 stress_107
                     -5.2432036788e+02 stress_108
                     -5.3809596943e+02 stress_109
                     -5.5113247091e+02 stress_110
                     -5.6354068340e+02 stress_111
                     -5.7536043868e+02 stress_112
                     -5.8658911125e+02 stress_113
                     -5.9719673057e+02 stress_114
                     -6.0713636625e+02 stress_115
                     -6.1635247406e+02 stress_116
                     -6.2478466570e+02 stress_117
                     -6.3237430332e+02 stress_118
                     -6.3906432390e+02 stress_119
                     -6.4480067097e+02 stress_120
                     -6.4953820667e+02 stress_121
                     -6.5323705592e+02 stress_122
                     -6.5586554920e+02 stress_123
                     -6.5740228556e+02 stress_124
                     -6.5781499956e+02 stress_125
                     -5.6048001356e+02 stress_126
                     -3.3086020765e+02 stress_127
                     -6.8245098786e+01 stress_128
                      1.2403298437e+02 stress_129
                      2.3559474032e+02 stress_130
                      2.9688121666e+02 stress_131
                      3.3017291155e+02 stress_132
                      3.4609258262e+02 stress_133
                      3.4699430146e+02 stress_134
                     -2.0294245577e+01 stress_135
                     -3.8563134499e+01 stress_136
                      1.3162404381e+02 stress_137
                      9.7246387024e+01 stress_138
                     -6.2202752957e+01 stress_139
                     -3.0078951286e+02 stress_140
                     -4.7409770776e+02 stress_141
                     -5.6305151870e+02 stress_142
                     -6.0733180222e+02 stress_143
                     -6.2995746452e+02 stress_144
                     -6.3960448520e+02 stress_145
                     -6.2018481188e+02 stress_146
                     -3.9805171320e+02 stress_147
                     -9.6428206958e+01 stress_148
                      1.1588886044e+02 stress_149
                      2.2248076745e+02 stress_150
                      2.6725760838e+02 stress_151
                      2.7309535120e+02 stress_152
                      7.1112396800e+01 stress_153
                     -2.3026205605e+02 stress_154
                     -4.3124905949e+02 stress_155
                     -5.2217844340e+02 stress_156
                     -5.5310326759e+02 stress_157
                     -4.3694114920e+02 stress_158
                     -8.3632649026e+01 stress_159
                      6.2637135196e+01 stress_160
                     -9.2872858224e+01 stress_161
                     -3.9557092259e+02 stress_162
                     -5.2469102551e+02 stress_163
                     -5.3798439245e+02 stress_164
                     -4.9825456837e+02 stress_165
                     -4.2062317023e+02 stress_166
                     -3.0991904211e+02 stress_167
                     -1.7806929419e+02 stress_168
                     -4.3718576997e+01 stress_169
                      7.5418186305e+01 stress_170
                      1.7031745821e+02 stress_171
                      2.4126479740e+02 stress_172
                      2.9322316964e+02 stress_173
                      3.3174399293e+02 stress_174
                      3.6128514288e+02 stress_175
                      3.8496427590e+02 stress_176
                      4.0483714301e+02 stress_177
                      4.2222671224e+02 stress_178
                      4.3797214747e+02 stress_179
                      4.5260292775e+02 stress_180
                      4.6644936682e+02 stress_181
                      4.7971090816e+02 stress_182
                      4.9250286293e+02 stress_183
                      5.0488339913e+02 stress_184
                      5.1687353044e+02 stress_185
                      5.2846847750e+02 stress_186
                      5.3964648270e+02 stress_187
                      5.5037492755e+02 stress_188
                      5.6061343204e+02 stress_189
                      5.7031802090e+02 stress_190
                      5.7944283473e+02 stress_191
                      5.8794051972e+02 stress_192
                      5.9576696988e+02 stress_193
                      6.0287862765e+02 stress_194
                      6.0923413288e+02 stress_195
                      6.1479784536e+02 stress_196
                      6.1953581073e+02 stress_197
                      6.2342070508e+02 stress_198
                      6.2642921868e+02 stress_199
                      6.2854219384e+02 stress_200
                      6.2974754245e+02 stress_201
                      6.2980657784e+02 stress_202
                      2.9484745927e+02 stress_203
                      2.2103009187e-01 stress_204
                      1.0268978274e+02 stress_205
                      4.1644603189e+02 stress_206
                      4.2700223872e+02 stress_207
                      3.6540755466e+02 stress_208
                      2.5617744429e+02 stress_209
                      1.1279766955e+02 stress_210
                     -3.8074325549e+01 stress_211
                     -1.6880649114e+02 stress_212
                     -2.6707864249e+02 stress_213
                     -3.3585935773e+02 stress_214
                     -3.8365125922e+02 stress_215
                     -4.1806546454e+02 stress_216
                     -4.4429525960e+02 stress_217
                     -4.6554294696e+02 stress_218
                     -4.8370383580e+02 stress_219
                     -4.9987980809e+02 stress_220
                     -5.1470258119e+02 stress_221
                     -5.2852247292e+02 stress_222
                     -5.4152074565e+02 stress_223
                     -5.5377485501e+02 stress_224
                     -5.6529959271e+02 stress_225
                     -5.7607081019e+02 stress_226
                     -5.8604149566e+02 stress_227
                     -5.9515390118e+02 stress_228
                     -6.0334249649e+02 stress_229
                     -6.1054456339e+02 stress_230
                     -6.1669997025e+02 stress_231
                     -6.2175293591e+02 stress_232
                     -6.2565942493e+02 stress_233
                     -6.2838274115e+02 stress_234
                     -6.2989601359e+02 stress_235
                     -6.2371468761e+02 stress_236
                     -2.8674601354e+02 stress_237
                     -3.3940749161e+01 stress_238
                     -2.3521715174e+02 stress_239
                     -4.3422928503e+02 stress_240
                     -1.2953436847e+02 stress_241
                      2.1291786395e+01 stress_242
                     -2.7601744593e+02 stress_243
                     -3.7534184175e+02 stress_244
                     -4.6432149855e+02 stress_245
                     -2.9038449407e+02 stress_246
                     -1.2954234557e-01 stress_247
                      2.1752982793e+02 stress_248
                      3.2622041909e+02 stress_249
                      3.7408102626e+02 stress_250
                      3.8907518244e+02 stress_251
                      2.8910910997e+02 stress_252
                      1.0850067371e+00 stress_253
                     -2.7173349866e+02 stress_254
                     -4.1969981875e+02 stress_255
                     -4.8221632506e+02 stress_256
                     -4.9590051234e+02 stress_257
                     -2.3823351243e+02 stress_258
                      7.9193365422e+01 stress_259
                      1.7518152288e+02 stress_260
                     -2.4666483499e+01 stress_261
                     -3.2980172446e+02 stress_262
                     -4.6583790442e+02 stress_263
                     -4.8724093449e+02 stress_264
                     -4.4724123483e+02 stress_265
                     -3.5841678029e+02 stress_266
                     -2.2819063181e+02 stress_267
                     -7.5466488873e+01 stress_268
                      7.2621311138e+01 stress_269
                      1.9492409600e+02 stress_270
                      2.8565919652e+02 stress_271
                      3.4996513345e+02 stress_272
                      3.9572581152e+02 stress_273
                      4.2950287905e+02 stress_274
                      4.5576005937e+02 stress_275
                      4.7729613395e+02 stress_276
                      4.9581226348e+02 stress_277
                      5.1232401083e+02 stress_278
                      5.2742899017e+02 stress_279
                      5.4146898505e+02 stress_280
                      5.5462768563e+02 stress_281
                      5.6699036577e+02 stress_282
                      5.7858033006e+02 stress_283
                      5.8938346817e+02 stress_284
                      5.9936147237e+02 stress_285
                      6.0846442897e+02 stress_286
                      6.1663615371e+02 stress_287
                      6.2381840242e+02 stress_288
                      6.2995745152e+02 stress_289
                      6.3500386485e+02 stress_290
                      6.3891481320e+02 stress_291
                      6.4165767102e+02 stress_292
                      6.4320778684e+02 stress_293
                      6.4323066932e+02 stress_294
                      2.9756096724e+02 stress_295
                      9.5313719718e+00 stress_296
                      1.3170849715e+02 stress_297
                      4.2962650163e+02 stress_298
                      4.3809820850e+02 stress_299
                      3.9670275017e+02 stress_300
                      3.2282277892e+02 stress_301
                      2.2065235064e+02 stress_302
                      1.0025785686e+02 stress_303
                     -2.3109690730e+01 stress_304
                     -1.3434179472e+02 stress_305
                     -2.2495996707e+02 stress_306
                     -2.9418584356e+02 stress_307
                     -3.4568884926e+02 stress_308
                     -3.8420194064e+02 stress_309
                     -4.1377480750e+02 stress_310
                     -4.3738272705e+02 stress_311
                     -4.5706185437e+02 stress_312
                     -4.7415833992e+02 stress_313
                     -4.8955378943e+02 stress_314
                     -5.0382077310e+02 stress_315
                     -5.1732871061e+02 stress_316
                     -5.3031405017e+02 stress_317
                     -5.4292391985e+02 stress_318
                     -5.5524561824e+02 stress_319
                     -5.6732604006e+02 stress_320
                     -5.7918338361e+02 stress_321
                     -5.9081690781e+02 stress_322
                     -6.0221160394e+02 stress_323
                     -6.1334341790e+02 stress_324
                     -6.2418228039e+02 stress_325
                     -6.3469259562e+02 stress_326
                     -6.4483760066e+02 stress_327
                     -6.5457706496e+02 stress_328
                     -6.6387247316e+02 stress_329
                     -6.7268464503e+02 stress_330
                     -6.8097466671e+02 stress_331
                     -6.8870637614e+02 stress_332
                     -6.9584415692e+02 stress_333
                     -7.0235563179e+02 stress_334
                     -7.0821126119e+02 stress_335
                     -7.1338188500e+02 stress_336
                     -7.1784475386e+02 stress_337
                     -7.2157799565e+02 stress_338
                     -7.2456367416e+02 stress_339
                     -7.2678813418e+02 stress_340
                     -7.2824043390e+02 stress_341
                     -7.2891334497e+02 stress_342


Active response data for evaluation 50:
Active set vector = { 1 1 1 1 1 1 1 1 1 1 1 1 1 1 1 1 1 1 1 1 1 1 1 1 1 1 1 1 1 1 1 1 1 1 1 1 1 1 1 1 1 1 1 1 1 1 1 1 1 1 1 1 1 1 1 1 1 1 1 1 1 1 1 1 1 1 1 1 1 1 1 1 1 1 1 1 1 1 1 1 1 1 1 1 1 1 1 1 1 1 1 1 1 1 1 1 1 1 1 1 1 1 1 1 1 1 1 1 1 1 1 1 1 1 1 1 1 1 1 1 1 1 1 1 1 1 1 1 1 1 1 1 1 1 1 1 1 1 1 1 1 1 1 1 1 1 1 1 1 1 1 1 1 1 1 1 1 1 1 1 1 1 1 1 1 1 1 1 1 1 1 1 1 1 1 1 1 1 1 1 1 1 1 1 1 1 1 1 1 1 1 1 1 1 1 1 1 1 1 1 1 1 1 1 1 1 1 1 1 1 1 1 1 1 1 1 1 1 1 1 1 1 1 1 1 1 1 1 1 1 1 1 1 1 1 1 1 1 1 1 1 1 1 1 1 1 1 1 1 1 1 1 1 1 1 1 1 1 1 1 1 1 1 1 1 1 1 1 1 1 1 1 1 1 1 1 1 1 1 1 1 1 1 1 1 1 1 1 1 1 1 1 1 1 1 1 1 1 1 1 1 1 1 1 1 1 1 1 1 1 1 1 1 1 1 1 1 1 1 1 1 1 1 1 1 1 1 1 1 1 1 1 1 1 1 1 1 1 1 1 1 1 }
                      2.3058831024e+00 stress_1
                     -2.1337980665e+02 stress_2
                     -3.9188530011e+02 stress_3
                     -4.0544230217e+02 stress_4
                     -1.0948766646e+02 stress_5
                      1.8298517872e+02 stress_6
                      2.9192985949e+02 stress_7
                      2.9271209119e+02 stress_8
                      6.5342847030e+01 stress_9
                     -2.0240583086e+02 stress_10
                     -3.4796569656e+02 stress_11
                     -4.1037609190e+02 stress_12
                     -4.3610331369e+02 stress_13
                     -4.3809992624e+02 stress_14
                     -1.3728754042e+02 stress_15
                     -2.8386498258e+02 stress_16
                     -3.8883705132e+02 stress_17
                     -2.0715362107e+02 stress_18
                      6.4616874598e+01 stress_19
                      2.6124657811e+02 stress_20
                      3.6110238497e+02 stress_21
                      4.0981942898e+02 stress_22
                      4.3353530843e+02 stress_23
                      4.4188251833e+02 stress_24
                      1.4004726919e+02 stress_25
                      2.5558862590e+02 stress_26
                      3.5101922930e+02 stress_27
                      3.6980766053e+02 stress_28
                      2.5383205957e+02 stress_29
                      6.5792238779e+01 stress_30
                     -1.2965274692e+02 stress_31
                     -2.7439394226e+02 stress_32
                     -3.6393170255e+02 stress_33
                     -4.1824328941e+02 stress_34
                     -4.5349687094e+02 stress_35
                     -4.7846560810e+02 stress_36
                     -4.9738768347e+02 stress_37
                     -5.1222351350e+02 stress_38
                     -5.2383758957e+02 stress_39
                     -5.3256765769e+02 stress_40
                     -5.3852304906e+02 stress_41
                     -5.4171317321e+02 stress_42
                     -5.2698956507e+02 stress_43
                     -1.7511634268e+02 stress_44
                      4.6169486429e+01 stress_45
                     -1.4097438875e+02 stress_46
                     -3.6812741614e+02 stress_47
                     -9.7460636022e+01 stress_48
                     -1.9345573112e+02 stress_49
                     -3.1964571826e+02 stress_50
                     -4.3613111009e+02 stress_51
                     -2.7657897271e+02 stress_52
                      6.0882227405e+00 stress_53
                      2.1609047620e+02 stress_54
                      3.1859738615e+02 stress_55
                      3.6365332116e+02 stress_56
                      3.7874602427e+02 stress_57
                      2.9681830788e+02 stress_58
                      1.8396695390e+01 stress_59
                     -2.4603534265e+02 stress_60
                     -3.8476712039e+02 stress_61
                     -4.4274093744e+02 stress_62
                     -4.5741831139e+02 stress_63
                     -2.0911163006e+02 stress_64
                      9.7504710755e+01 stress_65
                      1.6519908336e+02 stress_66
                     -8.0216367649e+01 stress_67
                     -3.4859621781e+02 stress_68
                     -4.3691289473e+02 stress_69
                     -4.3825804310e+02 stress_70
                     -3.4786038956e+02 stress_71
                     -1.9116930374e+02 stress_72
                     -6.5944062803e+00 stress_73
                      1.5411586621e+02 stress_74
                      2.6705799866e+02 stress_75
                      3.3961300699e+02 stress_76
                      3.8677496619e+02 stress_77
                      4.1947223302e+02 stress_78
                      4.4395628288e+02 stress_79
                      4.6351967699e+02 stress_80
                      4.7983872338e+02 stress_81
                      4.9373615019e+02 stress_82
                      5.0558481174e+02 stress_83
                      5.1552407388e+02 stress_84
                      5.2357118990e+02 stress_85
                      5.2969202385e+02 stress_86
                      5.3383665807e+02 stress_87
                      5.3595774781e+02 stress_88
                      4.6591325316e+02 stress_89
                      7.9739186750e+01 stress_90
                     -8.8705430233e+01 stress_91
                      1.6568898001e+02 stress_92
                      3.8154950463e+02 stress_93
                      3.8596986301e+02 stress_94
                      3.2876799824e+02 stress_95
                      2.2789846599e+02 stress_96
                      9.4892929173e+01 stress_97
                     -4.7354788355e+01 stress_98
                     -1.7382384050e+02 stress_99
                     -2.7150120351e+02 stress_100
                     -3.4134989825e+02 stress_101
                     -3.9045614724e+02 stress_102
                     -4.2589109381e+02 stress_103
                     -4.5277149179e+02 stress_104
                     -4.7436742171e+02 stress_105
                     -4.9267605405e+02 stress_106
                     -5.0889067807e+02 stress_107
                     -5.2371573345e+02 stress_108
                     -5.3755921803e+02 stress_109
                     -5.5064815272e+02 stress_110
                     -5.6309670726e+02 stress_111
                     -5.7494736868e+02 stress_112
                     -5.8619959508e+02 stress_113
                     -5.9682504358e+02 stress_114
                     -6.0677805745e+02 stress_115
                     -6.1600409428e+02 stress_116
                     -6.2444355568e+02 stress_117
                     -6.3203843064e+02 stress_118
                     -6.3873215152e+02 stress_119
                     -6.4447105193e+02 stress_120
                     -6.4921029974e+02 stress_121
                     -6.5291025275e+02 stress_122
                     -6.5553941261e+02 stress_123
                     -6.5707649502e+02 stress_124
                     -6.5748929658e+02 stress_125
                     -5.6017517590e+02 stress_126
                     -3.3099024302e+02 stress_127
                     -6.9535077233e+01 stress_128
                      1.2196556978e+02 stress_129
                      2.3347458638e+02 stress_130
                      2.9497066302e+02 stress_131
                      3.2846226316e+02 stress_132
                      3.4449779566e+02 stress_133
                      3.4540642513e+02 stress_134
                     -2.1161556701e+01 stress_135
                     -3.9344012472e+01 stress_136
                      1.3059694582e+02 stress_137
                      9.6221469972e+01 stress_138
                     -6.3016837609e+01 stress_139
                     -3.0046654574e+02 stress_140
                     -4.7283261003e+02 stress_141
                     -5.6167379834e+02 stress_142
                     -6.0609389079e+02 stress_143
                     -6.2884439854e+02 stress_144
                     -6.3855264266e+02 stress_145
                     -6.1913323747e+02 stress_146
                     -3.9723356384e+02 stress_147
                     -9.6890523204e+01 stress_148
                      1.1434383883e+02 stress_149
                      2.2070214926e+02 stress_150
                      2.6551643574e+02 stress_151
                      2.7136659488e+02 stress_152
                      6.9567373286e+01 stress_153
                     -2.3039325044e+02 stress_154
                     -4.3011477503e+02 stress_155
                     -5.2072114403e+02 stress_156
                     -5.5161883962e+02 stress_157
                     -4.3549834231e+02 stress_158
                     -8.3440246404e+01 stress_159
                      6.1954042728e+01 stress_160
                     -9.3425877746e+01 stress_161
                     -3.9473832180e+02 stress_162
                     -5.2328195117e+02 stress_163
                     -5.3654831787e+02 stress_164
                     -4.9682087751e+02 stress_165
                     -4.1923132533e+02 stress_166
                     -3.0872756308e+02 stress_167
                     -1.7736815857e+02 stress_168
                     -4.3748159834e+01 stress_169
                      7.4678586499e+01 stress_170
                      1.6911781718e+02 stress_171
                      2.3989066649e+02 stress_172
                      2.9187263302e+02 stress_173
                      3.3051602411e+02 stress_174
                      3.6021229953e+02 stress_175
                      3.8404455450e+02 stress_176
                      4.0405397758e+02 stress_177
                      4.2155935601e+02 stress_178
                      4.3740035489e+02 stress_179
                      4.5210875605e+02 stress_180
                      4.6601762457e+02 stress_181
                      4.7932902412e+02 stress_182
                      4.9216056282e+02 stress_183
                      5.0457233667e+02 stress_184
                      5.1658694965e+02 stress_185
                      5.2820092027e+02 stress_186
                      5.3939354820e+02 stress_187
                      5.5013307719e+02 stress_188
                      5.6037983134e+02 stress_189
                      5.7009041360e+02 stress_190
                      5.7921944071e+02 stress_191
                      5.8771995197e+02 stress_192
                      5.9554816786e+02 stress_193
                      6.0266080097e+02 stress_194
                      6.0901671496e+02 stress_195
                      6.1458045419e+02 stress_196
                      6.1931821492e+02 stress_197
                      6.2320279422e+02 stress_198
                      6.2621097687e+02 stress_199
                      6.2832367582e+02 stress_200
                      6.2952885111e+02 stress_201
                      6.2958787771e+02 stress_202
                      2.9509270168e+02 stress_203
                      1.7729249034e+00 stress_204
                      1.0418318228e+02 stress_205
                      4.1635264118e+02 stress_206
                      4.2683345227e+02 stress_207
                      3.6524706084e+02 stress_208
                      2.5612879468e+02 stress_209
                      1.1315522850e+02 stress_210
                     -3.7034682248e+01 stress_211
                     -1.6717139393e+02 stress_212
                     -2.6520565028e+02 stress_213
                     -3.3405781611e+02 stress_214
                     -3.8206721346e+02 stress_215
                     -4.1672851441e+02 stress_216
                     -4.4318234665e+02 stress_217
                     -4.6461551785e+02 stress_218
                     -4.8292371887e+02 stress_219
                     -4.9921440302e+02 stress_220
                     -5.1412567310e+02 stress_221
                     -5.2801352611e+02 stress_222
                     -5.4106385155e+02 stress_223
                     -5.5335773528e+02 stress_224
                     -5.6491277874e+02 stress_225
                     -5.7570699613e+02 stress_226
                     -5.8569504286e+02 stress_227
                     -5.9482046253e+02 stress_228
                     -6.0301872309e+02 stress_229
                     -6.1022788504e+02 stress_230
                     -6.1638841850e+02 stress_231
                     -6.2144500274e+02 stress_232
                     -6.2535395069e+02 stress_233
                     -6.2807881600e+02 stress_234
                     -6.2959289286e+02 stress_235
                     -6.2341157638e+02 stress_236
                     -2.8692683991e+02 stress_237
                     -3.5234746993e+01 stress_238
                     -2.3615058981e+02 stress_239
                     -4.3392629968e+02 stress_240
                     -1.2971080096e+02 stress_241
                      2.0445642450e+01 stress_242
                     -2.7612191231e+02 stress_243
                     -3.7485595311e+02 stress_244
                     -4.6334462396e+02 stress_245
                     -2.8952872422e+02 stress_246
                     -3.9548046965e-01 stress_247
                      2.1613433072e+02 stress_248
                      3.2462571236e+02 stress_249
                      3.7258125574e+02 stress_250
                      3.8763427944e+02 stress_251
                      2.8769362997e+02 stress_252
                      4.3868344810e-01 stress_253
                     -2.7079833476e+02 stress_254
                     -4.1808026618e+02 stress_255
                     -4.8050827892e+02 stress_256
                     -4.9419775334e+02 stress_257
                     -2.3685039826e+02 stress_258
                      7.8938089842e+01 stress_259
                      1.7434406371e+02 stress_260
                     -2.5288984544e+01 stress_261
                     -3.2894931897e+02 stress_262
                     -4.6438230207e+02 stress_263
                     -4.8574565814e+02 stress_264
                     -4.4574830414e+02 stress_265
                     -3.5697629233e+02 stress_266
                     -2.2702212928e+02 stress_267
                     -7.4948396262e+01 stress_268
                      7.2270329761e+01 stress_269
                      1.9387330799e+02 stress_270
                      2.8427271300e+02 stress_271
                      3.4853784106e+02 stress_272
                      3.9441102215e+02 stress_273
                      4.2835233271e+02 stress_274
                      4.5477421048e+02 stress_275
                      4.7645533914e+02 stress_276
                      4.9509191656e+02 stress_277
                      5.1170074961e+02 stress_278
                      5.2688274422e+02 stress_279
                      5.4098327292e+02 stress_280
                      5.5418926752e+02 stress_281
                      5.6658872286e+02 stress_282
                      5.7820715152e+02 stress_283
                      5.8903221041e+02 stress_284
                      5.9902699329e+02 stress_285
                      6.0814269920e+02 stress_286
                      6.1632402373e+02 stress_287
                      6.2351341637e+02 stress_288
                      6.2965770006e+02 stress_289
                      6.3470786187e+02 stress_290
                      6.3862139349e+02 stress_291
                      6.4136590384e+02 stress_292
                      6.4291689759e+02 stress_293
                      6.4293979274e+02 stress_294
                      2.9776345840e+02 stress_295
                      1.1028211823e+01 stress_296
                      1.3311083235e+02 stress_297
                      4.2943918537e+02 stress_298
                      4.3785161808e+02 stress_299
                      3.9645893138e+02 stress_300
                      3.2261918575e+02 stress_301
                      2.2062208958e+02 stress_302
                      1.0062588358e+02 stress_303
                     -2.2170028302e+01 stress_304
                     -1.3286621036e+02 stress_305
                     -2.2316680805e+02 stress_306
                     -2.9232252041e+02 stress_307
                     -3.4392707458e+02 stress_308
                     -3.8262424632e+02 stress_309
                     -4.1240232561e+02 stress_310
                     -4.3620447768e+02 stress_311
                     -4.5605386975e+02 stress_312
                     -4.7329371127e+02 stress_313
                     -4.8880721790e+02 stress_314
                     -5.0317020481e+02 stress_315
                     -5.1675561995e+02 stress_316
                     -5.2980317056e+02 stress_317
                     -5.4246278503e+02 stress_318
                     -5.5482408954e+02 stress_319
                     -5.6693588205e+02 stress_320
                     -5.7881790334e+02 stress_321
                     -5.9047066272e+02 stress_322
                     -6.0188016458e+02 stress_323
                     -6.1302318033e+02 stress_324
                     -6.2387031632e+02 stress_325
                     -6.3438653181e+02 stress_326
                     -6.4453552421e+02 stress_327
                     -6.5427744552e+02 stress_328
                     -6.6357410147e+02 stress_329
                     -6.7238658169e+02 stress_330
                     -6.8067620055e+02 stress_331
                     -6.8840698949e+02 stress_332
                     -6.9554349662e+02 stress_333
                     -7.0205348434e+02 stress_334
                     -7.0790753131e+02 stress_335
                     -7.1307657779e+02 stress_336
                     -7.1753795740e+02 stress_337
                     -7.2126986703e+02 stress_338
                     -7.2425442583e+02 stress_339
                     -7.2647802131e+02 stress_340
                     -7.2792974296e+02 stress_341
                     -7.2860238259e+02 stress_342


Active response data for evaluation 51:
Active set vector = { 1 1 1 1 1 1 1 1 1 1 1 1 1 1 1 1 1 1 1 1 1 1 1 1 1 1 1 1 1 1 1 1 1 1 1 1 1 1 1 1 1 1 1 1 1 1 1 1 1 1 1 1 1 1 1 1 1 1 1 1 1 1 1 1 1 1 1 1 1 1 1 1 1 1 1 1 1 1 1 1 1 1 1 1 1 1 1 1 1 1 1 1 1 1 1 1 1 1 1 1 1 1 1 1 1 1 1 1 1 1 1 1 1 1 1 1 1 1 1 1 1 1 1 1 1 1 1 1 1 1 1 1 1 1 1 1 1 1 1 1 1 1 1 1 1 1 1 1 1 1 1 1 1 1 1 1 1 1 1 1 1 1 1 1 1 1 1 1 1 1 1 1 1 1 1 1 1 1 1 1 1 1 1 1 1 1 1 1 1 1 1 1 1 1 1 1 1 1 1 1 1 1 1 1 1 1 1 1 1 1 1 1 1 1 1 1 1 1 1 1 1 1 1 1 1 1 1 1 1 1 1 1 1 1 1 1 1 1 1 1 1 1 1 1 1 1 1 1 1 1 1 1 1 1 1 1 1 1 1 1 1 1 1 1 1 1 1 1 1 1 1 1 1 1 1 1 1 1 1 1 1 1 1 1 1 1 1 1 1 1 1 1 1 1 1 1 1 1 1 1 1 1 1 1 1 1 1 1 1 1 1 1 1 1 1 1 1 1 1 1 1 1 1 1 1 1 1 1 1 1 1 1 1 1 1 1 1 1 1 1 1 1 }
                      2.3058831024e+00 stress_1
                     -2.1410252215e+02 stress_2
                     -3.9347628591e+02 stress_3
                     -4.0698421391e+02 stress_4
                     -1.1050847267e+02 stress_5
                      1.8367867891e+02 stress_6
                      2.9316120374e+02 stress_7
                      2.9394599855e+02 stress_8
                      6.6244799479e+01 stress_9
                     -2.0298148825e+02 stress_10
                     -3.4916523526e+02 stress_11
                     -4.1151686489e+02 stress_12
                     -4.3713239672e+02 stress_13
                     -4.3911825068e+02 stress_14
                     -1.3780934558e+02 stress_15
                     -2.8466556764e+02 stress_16
                     -3.9002048692e+02 stress_17
                     -2.0817881740e+02 stress_18
                      6.4791410052e+01 stress_19
                      2.6249885697e+02 stress_20
                      3.6249467237e+02 stress_21
                      4.1106104512e+02 stress_22
                      4.3464473987e+02 stress_23
                      4.4293775029e+02 stress_24
                      1.4061139059e+02 stress_25
                      2.5632272367e+02 stress_26
                      3.5213247203e+02 stress_27
                      3.7098133741e+02 stress_28
                      2.5495526648e+02 stress_29
                      6.6396524432e+01 stress_30
                     -1.3013295272e+02 stress_31
                     -2.7563371995e+02 stress_32
                     -3.6531409494e+02 stress_33
                     -4.1947601673e+02 stress_34
                     -4.5452501058e+02 stress_35
                     -4.7931569406e+02 stress_36
                     -4.9810092990e+02 stress_37
                     -5.1283661216e+02 stress_38
                     -5.2437957547e+02 stress_39
                     -5.3306110188e+02 stress_40
                     -5.3898588651e+02 stress_41
                     -5.4216044856e+02 stress_42
                     -5.2743670552e+02 stress_43
                     -1.7489292554e+02 stress_44
                      4.7486040393e+01 stress_45
                     -1.3995563751e+02 stress_46
                     -3.6849232456e+02 stress_47
                     -9.7395515068e+01 stress_48
                     -1.9350029970e+02 stress_49
                     -3.2036901446e+02 stress_50
                     -4.3764931620e+02 stress_51
                     -2.7798601057e+02 stress_52
                      5.8668618427e+00 stress_53
                      2.1713614358e+02 stress_54
                      3.1991293747e+02 stress_55
                      3.6490662874e+02 stress_56
                      3.7994737801e+02 stress_57
                      2.9800268534e+02 stress_58
                      1.8861362504e+01 stress_59
                     -2.4706524353e+02 stress_60
                     -3.8632199063e+02 stress_61
                     -4.4429012863e+02 stress_62
                     -4.5893508150e+02 stress_63
                     -2.1030386071e+02 stress_64
                      9.7946972538e+01 stress_65
                      1.6605104896e+02 stress_66
                     -7.9778588213e+01 stress_67
                     -3.4959951254e+02 stress_68
                     -4.3819616212e+02 stress_69
                     -4.3954264942e+02 stress_70
                     -3.4912039151e+02 stress_71
                     -1.9212467893e+02 stress_72
                     -6.6794133925e+00 stress_73
                      1.5499886377e+02 stress_74
                      2.6841568547e+02 stress_75
                      3.4099858748e+02 stress_76
                      3.8799993702e+02 stress_77
                      4.2050245966e+02 stress_78
                      4.4481375687e+02 stress_79
                      4.6423851675e+02 stress_80
                      4.8045053655e+02 stress_81
                      4.9426668153e+02 stress_82
                      5.0605420362e+02 stress_83
                      5.1594799370e+02 stress_84
                      5.2396200086e+02 stress_85
                      5.3005973747e+02 stress_86
                      5.3418969686e+02 stress_87
                      5.3630356500e+02 stress_88
                      4.6624965232e+02 stress_89
                      7.9041435083e+01 stress_90
                     -9.0249812079e+01 stress_91
                      1.6473338864e+02 stress_92
                      3.8204513091e+02 stress_93
                      3.8649229590e+02 stress_94
                      3.2928316039e+02 stress_95
                      2.2831475785e+02 stress_96
                      9.4937931746e+01 stress_97
                     -4.7977747017e+01 stress_98
                     -1.7510604359e+02 stress_99
                     -2.7313691354e+02 stress_100
                     -3.4302061725e+02 stress_101
                     -3.9198052443e+02 stress_102
                     -4.2720749162e+02 stress_103
                     -4.5388143691e+02 stress_104
                     -4.7529660502e+02 stress_105
                     -4.9345527871e+02 stress_106
                     -5.0954839110e+02 stress_107
                     -5.2427584987e+02 stress_108
                     -5.3804104940e+02 stress_109
                     -5.5106703059e+02 stress_110
                     -5.6346474342e+02 stress_111
                     -5.7527414810e+02 stress_112
                     -5.8649273751e+02 stress_113
                     -5.9709065199e+02 stress_114
                     -6.0702106557e+02 stress_115
                     -6.1622853102e+02 stress_116
                     -6.2465275061e+02 stress_117
                     -6.3223516749e+02 stress_118
                     -6.3891879226e+02 stress_119
                     -6.4464963474e+02 stress_120
                     -6.4938261139e+02 stress_121
                     -6.5307789366e+02 stress_122
                     -6.5570384842e+02 stress_123
                     -6.5723909926e+02 stress_124
                     -6.5765141413e+02 stress_125
                     -5.6031642681e+02 stress_126
                     -3.3069677620e+02 stress_127
                     -6.8083465457e+01 stress_128
                      1.2418923840e+02 stress_129
                      2.3574293345e+02 stress_130
                      2.9702097806e+02 stress_131
                      3.3030574859e+02 stress_132
                      3.4622123517e+02 stress_133
                      3.4712269667e+02 stress_134
                     -2.0167137762e+01 stress_135
                     -3.8436142949e+01 stress_136
                      1.3175099325e+02 stress_137
                      9.7373331191e+01 stress_138
                     -6.2076227926e+01 stress_139
                     -3.0066390836e+02 stress_140
                     -4.7396795082e+02 stress_141
                     -5.6291261330e+02 stress_142
                     -6.0718321419e+02 stress_143
                     -6.2980137281e+02 stress_144
                     -6.3944446922e+02 stress_145
                     -6.2002479582e+02 stress_146
                     -3.9789169257e+02 stress_147
                     -9.6269117367e+01 stress_148
                      1.1604364175e+02 stress_149
                      2.2262924089e+02 stress_150
                      2.6740135202e+02 stress_151
                      2.7323833036e+02 stress_152
                      7.1254623523e+01 stress_153
                     -2.3012388405e+02 stress_154
                     -4.3110918974e+02 stress_155
                     -5.2203189261e+02 stress_156
                     -5.5295253047e+02 stress_157
                     -4.3679039208e+02 stress_158
                     -8.3481634155e+01 stress_159
                      6.2787368419e+01 stress_160
                     -9.2724647908e+01 stress_161
                     -3.9543989396e+02 stress_162
                     -5.2455952125e+02 stress_163
                     -5.3785169061e+02 stress_164
                     -4.9812186365e+02 stress_165
                     -4.2049040220e+02 stress_166
                     -3.0978589729e+02 stress_167
                     -1.7793501079e+02 stress_168
                     -4.3582241829e+01 stress_169
                      7.5556771118e+01 stress_170
                      1.7045725199e+02 stress_171
                      2.4140388327e+02 stress_172
                      2.9335943008e+02 stress_173
                      3.3187553519e+02 stress_174
                      3.6141042590e+02 stress_175
                      3.8508208932e+02 stress_176
                      4.0494654580e+02 stress_177
                      4.2232697388e+02 stress_178
                      4.3806270524e+02 stress_179
                      4.5268335644e+02 stress_180
                      4.6651935823e+02 stress_181
                      4.7977025873e+02 stress_182
                      4.9255146419e+02 stress_183
                      5.0492123200e+02 stress_184
                      5.1690066012e+02 stress_185
                      5.2848505004e+02 stress_186
                      5.3965272167e+02 stress_187
                      5.5037113055e+02 stress_188
                      5.6059996809e+02 stress_189
                      5.7029532658e+02 stress_190
                      5.7941141053e+02 stress_191
                      5.8790092737e+02 stress_192
                      5.9571982609e+02 stress_193
                      6.0282460112e+02 stress_194
                      6.0917394028e+02 stress_195
                      6.1473224421e+02 stress_196
                      6.1946559651e+02 stress_197
                      6.2334670373e+02 stress_198
                      6.2635228182e+02 stress_199
                      6.2846319391e+02 stress_200
                      6.2966736516e+02 stress_201
                      6.2972634287e+02 stress_202
                      2.9476742349e+02 stress_203
                      1.4332747021e-01 stress_204
                      1.0261395719e+02 stress_205
                      4.1641095649e+02 stress_206
                      4.2696847758e+02 stress_207
                      3.6537377792e+02 stress_208
                      2.5614337149e+02 stress_209
                      1.1276208583e+02 stress_210
                     -3.8113538241e+01 stress_211
                     -1.6885044472e+02 stress_212
                     -2.6712595746e+02 stress_213
                     -3.3590703874e+02 stress_214
                     -3.8369618604e+02 stress_215
                     -4.1810509576e+02 stress_216
                     -4.4432771647e+02 stress_217
                     -4.6556689183e+02 stress_218
                     -4.8371833890e+02 stress_219
                     -4.9988424978e+02 stress_220
                     -5.1469658679e+02 stress_221
                     -5.2850587166e+02 stress_222
                     -5.4149354357e+02 stress_223
                     -5.5373721687e+02 stress_224
                     -5.6525182771e+02 stress_225
                     -5.7601336091e+02 stress_226
                     -5.8597492802e+02 stress_227
                     -5.9507889308e+02 stress_228
                     -6.0325983011e+02 stress_229
                     -6.1045511194e+02 stress_230
                     -6.1660468760e+02 stress_231
                     -6.2165284657e+02 stress_232
                     -6.2555560826e+02 stress_233
                     -6.2827632064e+02 stress_234
                     -6.2978814437e+02 stress_235
                     -6.2360681839e+02 stress_236
                     -2.8663830337e+02 stress_237
                     -3.3834650499e+01 stress_238
                     -2.3511137708e+02 stress_239
                     -4.3412268377e+02 stress_240
                     -1.2942788997e+02 stress_241
                      2.1397532936e+01 stress_242
                     -2.7591205626e+02 stress_243
                     -3.7523583215e+02 stress_244
                     -4.6421312299e+02 stress_245
                     -2.9027610741e+02 stress_246
                     -2.1804627926e-02 stress_247
                      2.1763332916e+02 stress_248
                      3.2631672102e+02 stress_249
                      3.7417099630e+02 stress_250
                      3.8916242331e+02 stress_251
                      2.8919632912e+02 stress_252
                      1.1719933601e+00 stress_253
                     -2.7164423661e+02 stress_254
                     -4.1960416276e+02 stress_255
                     -4.8211473431e+02 stress_256
                     -4.9579714342e+02 stress_257
                     -2.3813014632e+02 stress_258
                      7.9295083279e+01 stress_259
                      1.7528114093e+02 stress_260
                     -2.4567043095e+01 stress_261
                     -3.2970118010e+02 stress_262
                     -4.6573206080e+02 stress_263
                     -4.8713340979e+02 stress_264
                     -4.4713370946e+02 stress_265
                     -3.5830924621e+02 stress_266
                     -2.2808310497e+02 stress_267
                     -7.5359230679e+01 stress_268
                      7.2727408050e+01 stress_269
                      1.9502742615e+02 stress_270
                      2.8575786753e+02 stress_271
                      3.5005742200e+02 stress_272
                      3.9581033866e+02 stress_273
                      4.2957859039e+02 stress_274
                      4.5582615927e+02 stress_275
                      4.7735203283e+02 stress_276
                      4.9585754282e+02 stress_277
                      5.1235840392e+02 stress_278
                      5.2745237074e+02 stress_279
                      5.4148136024e+02 stress_280
                      5.5462919098e+02 stress_281
                      5.6698126070e+02 stress_282
                      5.7856099347e+02 stress_283
                      5.8935439243e+02 stress_284
                      5.9932325827e+02 stress_285
                      6.0841777751e+02 stress_286
                      6.1658185853e+02 stress_287
                      6.2375734196e+02 stress_288
                      6.2989057754e+02 stress_289
                      6.3493219284e+02 stress_290
                      6.3883941179e+02 stress_291
                      6.4157964873e+02 stress_292
                      6.4312828150e+02 stress_293
                      6.4315114208e+02 stress_294
                      2.9748164751e+02 stress_295
                      9.4542832207e+00 stress_296
                      1.3163405642e+02 stress_297
                      4.2958714422e+02 stress_298
                      4.3805967163e+02 stress_299
                      3.9666420913e+02 stress_300
                      3.2278415782e+02 stress_301
                      2.2061327939e+02 stress_302
                      1.0021743314e+02 stress_303
                     -2.3152674761e+01 stress_304
                     -1.3438799229e+02 stress_305
                     -2.2500879423e+02 stress_306
                     -2.9423565167e+02 stress_307
                     -3.4573756956e+02 stress_308
                     -3.8424759237e+02 stress_309
                     -4.1381571014e+02 stress_310
                     -4.3741752476e+02 stress_311
                     -4.5708946859e+02 stress_312
                     -4.7417791247e+02 stress_313
                     -4.8956463317e+02 stress_314
                     -5.0382233627e+02 stress_315
                     -5.1732055241e+02 stress_316
                     -5.3029582358e+02 stress_317
                     -5.4289536065e+02 stress_318
                     -5.5520653734e+02 stress_319
                     -5.6727631788e+02 stress_320
                     -5.7912296684e+02 stress_321
                     -5.9074580607e+02 stress_322
                     -6.0212988807e+02 stress_323
                     -6.1325121768e+02 stress_324
                     -6.2407978220e+02 stress_325
                     -6.3458004180e+02 stress_326
                     -6.4471528616e+02 stress_327
                     -6.5444533729e+02 stress_328
                     -6.6373172816e+02 stress_329
                     -6.7253532542e+02 stress_330
                     -6.8081726033e+02 stress_331
                     -6.8854141196e+02 stress_332
                     -6.9567220349e+02 stress_333
                     -7.0217729331e+02 stress_334
                     -7.0802717400e+02 stress_335
                     -7.1319271667e+02 stress_336
                     -7.1765119643e+02 stress_337
                     -7.2138076437e+02 stress_338
                     -7.2436350323e+02 stress_339
                     -7.2658577229e+02 stress_340
                     -7.2803664122e+02 stress_341
                     -7.2870888924e+02 stress_342


Active response data for evaluation 52:
Active set vector = { 1 1 1 1 1 1 1 1 1 1 1 1 1 1 1 1 1 1 1 1 1 1 1 1 1 1 1 1 1 1 1 1 1 1 1 1 1 1 1 1 1 1 1 1 1 1 1 1 1 1 1 1 1 1 1 1 1 1 1 1 1 1 1 1 1 1 1 1 1 1 1 1 1 1 1 1 1 1 1 1 1 1 1 1 1 1 1 1 1 1 1 1 1 1 1 1 1 1 1 1 1 1 1 1 1 1 1 1 1 1 1 1 1 1 1 1 1 1 1 1 1 1 1 1 1 1 1 1 1 1 1 1 1 1 1 1 1 1 1 1 1 1 1 1 1 1 1 1 1 1 1 1 1 1 1 1 1 1 1 1 1 1 1 1 1 1 1 1 1 1 1 1 1 1 1 1 1 1 1 1 1 1 1 1 1 1 1 1 1 1 1 1 1 1 1 1 1 1 1 1 1 1 1 1 1 1 1 1 1 1 1 1 1 1 1 1 1 1 1 1 1 1 1 1 1 1 1 1 1 1 1 1 1 1 1 1 1 1 1 1 1 1 1 1 1 1 1 1 1 1 1 1 1 1 1 1 1 1 1 1 1 1 1 1 1 1 1 1 1 1 1 1 1 1 1 1 1 1 1 1 1 1 1 1 1 1 1 1 1 1 1 1 1 1 1 1 1 1 1 1 1 1 1 1 1 1 1 1 1 1 1 1 1 1 1 1 1 1 1 1 1 1 1 1 1 1 1 1 1 1 1 1 1 1 1 1 1 1 1 1 1 1 }
                      2.3058831024e+00 stress_1
                     -2.1386093939e+02 stress_2
                     -3.9294652889e+02 stress_3
                     -4.0647174454e+02 stress_4
                     -1.1002153568e+02 stress_5
                      1.8401479164e+02 stress_6
                      2.9339634876e+02 stress_7
                      2.9418034099e+02 stress_8
                      6.6476487622e+01 stress_9
                     -2.0279470565e+02 stress_10
                     -3.4904855965e+02 stress_11
                     -4.1144230239e+02 stress_12
                     -4.3707603964e+02 stress_13
                     -4.3906328722e+02 stress_14
                     -1.3775834598e+02 stress_15
                     -2.8458894499e+02 stress_16
                     -3.8991141360e+02 stress_17
                     -2.0807136586e+02 stress_18
                      6.4879368297e+01 stress_19
                      2.6255262403e+02 stress_20
                      3.6252554805e+02 stress_21
                      4.1108086479e+02 stress_22
                      4.3465970196e+02 stress_23
                      4.4295114209e+02 stress_24
                      1.4062509746e+02 stress_25
                      2.5631506230e+02 stress_26
                      3.5206950052e+02 stress_27
                      3.7090713297e+02 stress_28
                      2.5488134970e+02 stress_29
                      6.6326522514e+01 stress_30
                     -1.3019116683e+02 stress_31
                     -2.7567746235e+02 stress_32
                     -3.6534730836e+02 stress_33
                     -4.1950312111e+02 stress_34
                     -4.5454877073e+02 stress_35
                     -4.7933760011e+02 stress_36
                     -4.9812177140e+02 stress_37
                     -5.1285682011e+02 stress_38
                     -5.2439939673e+02 stress_39
                     -5.3308068665e+02 stress_40
                     -5.3900533304e+02 stress_41
                     -5.4217982794e+02 stress_42
                     -5.2745608500e+02 stress_43
                     -1.7491208747e+02 stress_44
                      4.7468778524e+01 stress_45
                     -1.3996367307e+02 stress_46
                     -3.6846620854e+02 stress_47
                     -9.7370897911e+01 stress_48
                     -1.9343829239e+02 stress_49
                     -3.2007673183e+02 stress_50
                     -4.3709789074e+02 stress_51
                     -2.7743803900e+02 stress_52
                      6.3449846122e+00 stress_53
                      2.1745740423e+02 stress_54
                      3.2011838814e+02 stress_55
                      3.6505647612e+02 stress_56
                      3.8007882276e+02 stress_57
                      2.9813409420e+02 stress_58
                      1.8986373283e+01 stress_59
                     -2.4697442886e+02 stress_60
                     -3.8626876649e+02 stress_61
                     -4.4425702784e+02 stress_62
                     -4.5890737259e+02 stress_63
                     -2.1027709984e+02 stress_64
                      9.7966135104e+01 stress_65
                      1.6606723009e+02 stress_66
                     -7.9758776494e+01 stress_67
                     -3.4957748301e+02 stress_68
                     -4.3818214784e+02 stress_69
                     -4.3952882172e+02 stress_70
                     -3.4910660602e+02 stress_71
                     -1.9211151835e+02 stress_72
                     -6.6685004851e+00 stress_73
                      1.5500629014e+02 stress_74
                      2.6842003990e+02 stress_75
                      3.4100097626e+02 stress_76
                      3.8800123042e+02 stress_77
                      4.2050316568e+02 stress_78
                      4.4481414581e+02 stress_79
                      4.6423873046e+02 stress_80
                      4.8045065070e+02 stress_81
                      4.9426673759e+02 stress_82
                      5.0605422501e+02 stress_83
                      5.1594799405e+02 stress_84
                      5.2396198837e+02 stress_85
                      5.3005971722e+02 stress_86
                      5.3418967219e+02 stress_87
                      5.3630353830e+02 stress_88
                      4.6624962148e+02 stress_89
                      7.9038746943e+01 stress_90
                     -9.0257373571e+01 stress_91
                      1.6471183601e+02 stress_92
                      3.8199778486e+02 stress_93
                      3.8644471864e+02 stress_94
                      3.2923559222e+02 stress_95
                      2.2826733141e+02 stress_96
                      9.4891133189e+01 stress_97
                     -4.8023142131e+01 stress_98
                     -1.7514953849e+02 stress_99
                     -2.7317863452e+02 stress_100
                     -3.4306104141e+02 stress_101
                     -3.9202012336e+02 stress_102
                     -4.2724659978e+02 stress_103
                     -4.5392026110e+02 stress_104
                     -4.7533526631e+02 stress_105
                     -4.9349384673e+02 stress_106
                     -5.0958690590e+02 stress_107
                     -5.2431433461e+02 stress_108
                     -5.3807951761e+02 stress_109
                     -5.5110549020e+02 stress_110
                     -5.6350319910e+02 stress_111
                     -5.7531260254e+02 stress_112
                     -5.8653119225e+02 stress_113
                     -5.9712910787e+02 stress_114
                     -6.0705952300e+02 stress_115
                     -6.1626699013e+02 stress_116
                     -6.2469121138e+02 stress_117
                     -6.3227362983e+02 stress_118
                     -6.3895725599e+02 stress_119
                     -6.4468809967e+02 stress_120
                     -6.4942107731e+02 stress_121
                     -6.5311636035e+02 stress_122
                     -6.5574231564e+02 stress_123
                     -6.5727756680e+02 stress_124
                     -6.5768988175e+02 stress_125
                     -5.6035487560e+02 stress_126
                     -3.3073433761e+02 stress_127
                     -6.8116068204e+01 stress_128
                      1.2416496445e+02 stress_129
                      2.3572576602e+02 stress_130
                      2.9700830557e+02 stress_131
                      3.3029557312e+02 stress_132
                      3.4621223117e+02 stress_133
                      3.4711375812e+02 stress_134
                     -2.0176606886e+01 stress_135
                     -3.8445772656e+01 stress_136
                      1.3174164425e+02 stress_137
                      9.7363984338e+01 stress_138
                     -6.2085721897e+01 stress_139
                     -3.0067786223e+02 stress_140
                     -4.7399374644e+02 stress_141
                     -5.6294889423e+02 stress_142
                     -6.0722562199e+02 stress_143
                     -6.2984688352e+02 stress_144
                     -6.3949123880e+02 stress_145
                     -6.2007156524e+02 stress_146
                     -3.9793798962e+02 stress_147
                     -9.6309891725e+01 stress_148
                      1.1601354474e+02 stress_149
                      2.2260730291e+02 stress_150
                      2.6738335158e+02 stress_151
                      2.7322085932e+02 stress_152
                      7.1237622766e+01 stress_153
                     -2.3014053326e+02 stress_154
                     -4.3113204212e+02 stress_155
                     -5.2206150100e+02 stress_156
                     -5.5298517268e+02 stress_157
                     -4.3682299642e+02 stress_158
                     -8.3510959805e+01 stress_159
                      6.2762551147e+01 stress_160
                     -9.2747596824e+01 stress_161
                     -3.9544870760e+02 stress_162
                     -5.2456989854e+02 stress_163
                     -5.3786310792e+02 stress_164
                     -4.9813328126e+02 stress_165
                     -4.2050181849e+02 stress_166
                     -3.0979726490e+02 stress_167
                     -1.7794611404e+02 stress_168
                     -4.3592621459e+01 stress_169
                      7.5547642037e+01 stress_170
                      1.7044967438e+02 stress_171
                      2.4139784204e+02 stress_172
                      2.9335471183e+02 stress_173
                      3.3187186979e+02 stress_174
                      3.6140756612e+02 stress_175
                      3.8507983630e+02 stress_176
                      4.0494474865e+02 stress_177
                      4.2232552094e+02 stress_178
                      4.3806151444e+02 stress_179
                      4.5268236738e+02 stress_180
                      4.6651852615e+02 stress_181
                      4.7976955013e+02 stress_182
                      4.9255085375e+02 stress_183
                      5.0492070036e+02 stress_184
                      5.1690019230e+02 stress_185
                      5.2848463434e+02 stress_186
                      5.3965234884e+02 stress_187
                      5.5037079320e+02 stress_188
                      5.6059966025e+02 stress_189
                      5.7029504339e+02 stress_190
                      5.7941114799e+02 stress_191
                      5.8790068213e+02 stress_192
                      5.9571959534e+02 stress_193
                      6.0282438248e+02 stress_194
                      6.0917373167e+02 stress_195
                      6.1473204383e+02 stress_196
                      6.1946540277e+02 stress_197
                      6.2334651520e+02 stress_198
                      6.2635209717e+02 stress_199
                      6.2846301193e+02 stress_200
                      6.2966718466e+02 stress_201
                      6.2972616245e+02 stress_202
                      2.9476548353e+02 stress_203
                      1.3092275179e-01 stress_204
                      1.0259969811e+02 stress_205
                      4.1635659012e+02 stress_206
                      4.2691276996e+02 stress_207
                      3.6531807014e+02 stress_208
                      2.5608763576e+02 stress_209
                      1.1270610693e+02 stress_210
                     -3.8170336573e+01 stress_211
                     -1.6890873577e+02 stress_212
                     -2.6718602394e+02 stress_213
                     -3.3596871911e+02 stress_214
                     -3.8375913214e+02 stress_215
                     -4.1816896793e+02 stress_216
                     -4.4439224919e+02 stress_217
                     -4.6563189463e+02 stress_218
                     -4.8378367918e+02 stress_219
                     -4.9994983568e+02 stress_220
                     -5.1476235422e+02 stress_221
                     -5.2857177531e+02 stress_222
                     -5.4155955091e+02 stress_223
                     -5.5380330415e+02 stress_224
                     -5.6531797731e+02 stress_225
                     -5.7607955953e+02 stress_226
                     -5.8604116543e+02 stress_227
                     -5.9514516132e+02 stress_228
                     -6.0332612283e+02 stress_229
                     -6.1052142402e+02 stress_230
                     -6.1667101478e+02 stress_231
                     -6.2171918525e+02 stress_232
                     -6.2562195534e+02 stress_233
                     -6.2834267332e+02 stress_234
                     -6.2985450008e+02 stress_235
                     -6.2367317410e+02 stress_236
                     -2.8670290595e+02 stress_237
                     -3.3891305651e+01 stress_238
                     -2.3516785092e+02 stress_239
                     -4.3418009296e+02 stress_240
                     -1.2948334316e+02 stress_241
                      2.1346910454e+01 stress_242
                     -2.7596293901e+02 stress_243
                     -3.7528784359e+02 stress_244
                     -4.6426736469e+02 stress_245
                     -2.9033005701e+02 stress_246
                     -6.9877605227e-02 stress_247
                      2.1759917858e+02 stress_248
                      3.2629364328e+02 stress_249
                      3.7415349780e+02 stress_250
                      3.8914670380e+02 stress_251
                      2.8918059369e+02 stress_252
                      1.1543643300e+00 stress_253
                     -2.7167140535e+02 stress_254
                     -4.1964217437e+02 stress_255
                     -4.8215874213e+02 stress_256
                     -4.9584256112e+02 stress_257
                     -2.3817486251e+02 stress_258
                      7.9258341327e+01 stress_259
                      1.7524971910e+02 stress_260
                     -2.4598660528e+01 stress_261
                     -3.2973868690e+02 stress_262
                     -4.6577754453e+02 stress_263
                     -4.8718057419e+02 stress_264
                     -4.4718087165e+02 stress_265
                     -3.5835632268e+02 stress_266
                     -2.2812948213e+02 stress_267
                     -7.5403041579e+01 stress_268
                      7.2688969526e+01 stress_269
                      1.9499631072e+02 stress_270
                      2.8573411471e+02 stress_271
                      3.5003979910e+02 stress_272
                      3.9579732668e+02 stress_273
                      4.2956889280e+02 stress_274
                      4.5581881177e+02 stress_275
                      4.7734635646e+02 stress_276
                      4.9585306801e+02 stress_277
                      5.1235480564e+02 stress_278
                      5.2744942186e+02 stress_279
                      5.4147889981e+02 stress_280
                      5.5462710313e+02 stress_281
                      5.6697946064e+02 stress_282
                      5.7855941811e+02 stress_283
                      5.8935299406e+02 stress_284
                      5.9932200018e+02 stress_285
                      6.0841663101e+02 stress_286
                      6.1658080076e+02 stress_287
                      6.2375635440e+02 stress_288
                      6.2988964487e+02 stress_289
                      6.3493130210e+02 stress_290
                      6.3883855170e+02 stress_291
                      6.4157880925e+02 stress_292
                      6.4312745335e+02 stress_293
                      6.4315031410e+02 stress_294
                      2.9747897883e+02 stress_295
                      9.4415975138e+00 stress_296
                      1.3161876372e+02 stress_297
                      4.2953742591e+02 stress_298
                      4.3800910389e+02 stress_299
                      3.9661364099e+02 stress_300
                      3.2273357399e+02 stress_301
                      2.2056257138e+02 stress_302
                      1.0016625277e+02 stress_303
                     -2.3204960342e+01 stress_304
                     -1.3444205590e+02 stress_305
                     -2.2506500460e+02 stress_306
                     -2.9429397509e+02 stress_307
                     -3.4579771527e+02 stress_308
                     -3.8430919295e+02 stress_309
                     -4.1387842628e+02 stress_310
                     -4.3748108156e+02 stress_311
                     -4.5715365654e+02 stress_312
                     -4.7424257606e+02 stress_313
                     -4.8962965808e+02 stress_314
                     -5.0388763843e+02 stress_315
                     -5.1738606960e+02 stress_316
                     -5.3036150940e+02 stress_317
                     -5.4296118011e+02 stress_318
                     -5.5527246381e+02 stress_319
                     -5.6734233085e+02 stress_320
                     -5.7918905035e+02 stress_321
                     -5.9081194758e+02 stress_322
                     -6.0219607764e+02 stress_323
                     -6.1331744733e+02 stress_324
                     -6.2414604549e+02 stress_325
                     -6.3464633346e+02 stress_326
                     -6.4478160187e+02 stress_327
                     -6.5451167347e+02 stress_328
                     -6.6379808180e+02 stress_329
                     -6.7260169400e+02 stress_330
                     -6.8088364169e+02 stress_331
                     -6.8860780424e+02 stress_332
                     -6.9573860512e+02 stress_333
                     -7.0224370287e+02 stress_334
                     -7.0809359026e+02 stress_335
                     -7.1325913855e+02 stress_336
                     -7.1771762293e+02 stress_337
                     -7.2144719458e+02 stress_338
                     -7.2442993633e+02 stress_339
                     -7.2665220747e+02 stress_340
                     -7.2810307775e+02 stress_341
                     -7.2877532639e+02 stress_342


Active response data for evaluation 53:
Active set vector = { 1 1 1 1 1 1 1 1 1 1 1 1 1 1 1 1 1 1 1 1 1 1 1 1 1 1 1 1 1 1 1 1 1 1 1 1 1 1 1 1 1 1 1 1 1 1 1 1 1 1 1 1 1 1 1 1 1 1 1 1 1 1 1 1 1 1 1 1 1 1 1 1 1 1 1 1 1 1 1 1 1 1 1 1 1 1 1 1 1 1 1 1 1 1 1 1 1 1 1 1 1 1 1 1 1 1 1 1 1 1 1 1 1 1 1 1 1 1 1 1 1 1 1 1 1 1 1 1 1 1 1 1 1 1 1 1 1 1 1 1 1 1 1 1 1 1 1 1 1 1 1 1 1 1 1 1 1 1 1 1 1 1 1 1 1 1 1 1 1 1 1 1 1 1 1 1 1 1 1 1 1 1 1 1 1 1 1 1 1 1 1 1 1 1 1 1 1 1 1 1 1 1 1 1 1 1 1 1 1 1 1 1 1 1 1 1 1 1 1 1 1 1 1 1 1 1 1 1 1 1 1 1 1 1 1 1 1 1 1 1 1 1 1 1 1 1 1 1 1 1 1 1 1 1 1 1 1 1 1 1 1 1 1 1 1 1 1 1 1 1 1 1 1 1 1 1 1 1 1 1 1 1 1 1 1 1 1 1 1 1 1 1 1 1 1 1 1 1 1 1 1 1 1 1 1 1 1 1 1 1 1 1 1 1 1 1 1 1 1 1 1 1 1 1 1 1 1 1 1 1 1 1 1 1 1 1 1 1 1 1 1 1 }
                      2.3058831024e+00 stress_1
                     -2.1386013046e+02 stress_2
                     -3.9294165549e+02 stress_3
                     -4.0646639227e+02 stress_4
                     -1.1001571408e+02 stress_5
                      1.8402382526e+02 stress_6
                      2.9340773296e+02 stress_7
                      2.9419174444e+02 stress_8
                      6.6487879163e+01 stress_9
                     -2.0278342545e+02 stress_10
                     -3.4903741611e+02 stress_11
                     -4.1143123131e+02 stress_12
                     -4.3706499799e+02 stress_13
                     -4.3905224777e+02 stress_14
                     -1.3774675854e+02 stress_15
                     -2.8457706544e+02 stress_16
                     -3.8989836122e+02 stress_17
                     -2.0805818760e+02 stress_18
                      6.4894399638e+01 stress_19
                      2.6257141619e+02 stress_20
                      3.6254715105e+02 stress_21
                      4.1110393519e+02 stress_22
                      4.3468345013e+02 stress_23
                      4.4297511508e+02 stress_24
                      1.4064887046e+02 stress_25
                      2.5633903239e+02 stress_26
                      3.5209447537e+02 stress_27
                      3.7093245407e+02 stress_28
                      2.5490665299e+02 stress_29
                      6.6351517368e+01 stress_30
                     -1.3016729413e+02 stress_31
                     -2.7565520379e+02 stress_32
                     -3.6532639527e+02 stress_33
                     -4.1948308551e+02 stress_34
                     -4.5452926635e+02 stress_35
                     -4.7931841692e+02 stress_36
                     -4.9810278687e+02 stress_37
                     -5.1283796149e+02 stress_38
                     -5.2438061904e+02 stress_39
                     -5.3306196053e+02 stress_40
                     -5.3898663797e+02 stress_41
                     -5.4216114824e+02 stress_42
                     -5.2743740519e+02 stress_43
                     -1.7489168247e+02 stress_44
                      4.7494572677e+01 stress_45
                     -1.3993770542e+02 stress_46
                     -3.6843853151e+02 stress_47
                     -9.7342312367e+01 stress_48
                     -1.9340968025e+02 stress_49
                     -3.2004780389e+02 stress_50
                     -4.3706808753e+02 stress_51
                     -2.7740810251e+02 stress_52
                      6.3776652224e+00 stress_53
                      2.1749631142e+02 stress_54
                      3.2016192281e+02 stress_55
                      3.6510224138e+02 stress_56
                      3.8012532772e+02 stress_57
                      2.9818058959e+02 stress_58
                      1.9032043208e+01 stress_59
                     -2.4693225988e+02 stress_60
                     -3.8623000724e+02 stress_61
                     -4.4421998093e+02 stress_62
                     -4.5887077233e+02 stress_63
                     -2.1024018011e+02 stress_64
                      9.8006317918e+01 stress_65
                      1.6610886565e+02 stress_66
                     -7.9717500278e+01 stress_67
                     -3.4953912928e+02 stress_68
                     -4.3814569173e+02 stress_69
                     -4.3949239799e+02 stress_70
                     -3.4907016567e+02 stress_71
                     -1.9207474907e+02 stress_72
                     -6.6302222505e+00 stress_73
                      1.5504747751e+02 stress_74
                      2.6846436276e+02 stress_75
                      3.4104772446e+02 stress_76
                      3.8804959693e+02 stress_77
                      4.2055256380e+02 stress_78
                      4.4486420243e+02 stress_79
                      4.6428921569e+02 stress_80
                      4.8050142175e+02 stress_81
                      4.9431770355e+02 stress_82
                      5.0610532615e+02 stress_83
                      5.1599918972e+02 stress_84
                      5.2401324973e+02 stress_85
                      5.3011102288e+02 stress_86
                      5.3424100534e+02 stress_87
                      5.3635488480e+02 stress_88
                      4.6630096376e+02 stress_89
                      7.9088892458e+01 stress_90
                     -9.0209101151e+01 stress_91
                      1.6476096041e+02 stress_92
                      3.8205139321e+02 stress_93
                      3.8649847440e+02 stress_94
                      3.2928934352e+02 stress_95
                      2.2832099146e+02 stress_96
                      9.4944285210e+01 stress_97
                     -4.7971384606e+01 stress_98
                     -1.7510006954e+02 stress_99
                     -2.7313173526e+02 stress_100
                     -3.4301639142e+02 stress_101
                     -3.9197718384e+02 stress_102
                     -4.2720487699e+02 stress_103
                     -4.5387938387e+02 stress_104
                     -4.7529497630e+02 stress_105
                     -4.9345396897e+02 stress_106
                     -5.0954732211e+02 stress_107
                     -5.2427496413e+02 stress_108
                     -5.3804030459e+02 stress_109
                     -5.5106639534e+02 stress_110
                     -5.6346419425e+02 stress_111
                     -5.7527366719e+02 stress_112
                     -5.8649231118e+02 stress_113
                     -5.9709026963e+02 stress_114
                     -6.0702071880e+02 stress_115
                     -6.1622821315e+02 stress_116
                     -6.2465245622e+02 stress_117
                     -6.3223489215e+02 stress_118
                     -6.3891853223e+02 stress_119
                     -6.4464938686e+02 stress_120
                     -6.4938237293e+02 stress_121
                     -6.5307766219e+02 stress_122
                     -6.5570362173e+02 stress_123
                     -6.5723887530e+02 stress_124
                     -6.5765119089e+02 stress_125
                     -5.6031614351e+02 stress_126
                     -3.3069405689e+02 stress_127
                     -6.8068059262e+01 stress_128
                      1.2422508813e+02 stress_129
                      2.3579577040e+02 stress_130
                      2.9708437689e+02 stress_131
                      3.3037495146e+02 stress_132
                      3.4629314403e+02 stress_133
                      3.4719475639e+02 stress_134
                     -2.0096800438e+01 stress_135
                     -3.8366153373e+01 stress_136
                      1.3182187185e+02 stress_137
                      9.7444210029e+01 stress_138
                     -6.2005845873e+01 stress_139
                     -3.0060154736e+02 stress_140
                     -4.7392407120e+02 stress_141
                     -5.6288410732e+02 stress_142
                     -6.0716340581e+02 stress_143
                     -6.2978589265e+02 stress_144
                     -6.3943072961e+02 stress_145
                     -6.2001105585e+02 stress_146
                     -3.9787708184e+02 stress_147
                     -9.6244832426e+01 stress_148
                      1.1608613505e+02 stress_149
                      2.2268543409e+02 stress_150
                      2.6746410230e+02 stress_151
                      2.7330195955e+02 stress_152
                      7.1318485572e+01 stress_153
                     -2.3006312497e+02 stress_154
                     -4.3106089964e+02 stress_155
                     -5.2199445517e+02 stress_156
                     -5.5291965954e+02 stress_157
                     -4.3675743550e+02 stress_158
                     -8.3442247600e+01 stress_159
                      6.2835236827e+01 stress_160
                     -9.2675054335e+01 stress_161
                     -3.9537969063e+02 stress_162
                     -5.2450479228e+02 stress_163
                     -5.3779849870e+02 stress_164
                     -4.9806866997e+02 stress_165
                     -4.2043715493e+02 stress_166
                     -3.0973225304e+02 stress_167
                     -1.7787991568e+02 stress_168
                     -4.3523900978e+01 stress_169
                      7.5620060282e+01 stress_170
                      1.7052617324e+02 stress_171
                      2.4147804116e+02 stress_172
                      2.9343788542e+02 stress_173
                      3.3195728304e+02 stress_174
                      3.6149461665e+02 stress_175
                      3.8516807354e+02 stress_176
                      4.0503384867e+02 stress_177
                      4.2241525411e+02 stress_178
                      4.3815171793e+02 stress_179
                      4.5277292491e+02 stress_180
                      4.6660935381e+02 stress_181
                      4.7986058659e+02 stress_182
                      4.9264205357e+02 stress_183
                      5.0501202945e+02 stress_184
                      5.1699162477e+02 stress_185
                      5.2857615024e+02 stress_186
                      5.3974393263e+02 stress_187
                      5.5046243265e+02 stress_188
                      5.6069134560e+02 stress_189
                      5.7038676678e+02 stress_190
                      5.7950290300e+02 stress_191
                      5.8799246349e+02 stress_192
                      5.9581139864e+02 stress_193
                      6.0291620401e+02 stress_194
                      6.0926556827e+02 stress_195
                      6.1482389274e+02 stress_196
                      6.1955726156e+02 stress_197
                      6.2343838173e+02 stress_198
                      6.2644396946e+02 stress_199
                      6.2855488815e+02 stress_200
                      6.2975906310e+02 stress_201
                      6.2981804099e+02 stress_202
                      2.9485661698e+02 stress_203
                      2.1785965635e-01 stress_204
                      1.0268671497e+02 stress_205
                      4.1644890857e+02 stress_206
                      4.2700550160e+02 stress_207
                      3.6541079302e+02 stress_208
                      2.5618017743e+02 stress_209
                      1.1279764820e+02 stress_210
                     -3.8081462907e+01 stress_211
                     -1.6882405238e+02 stress_212
                     -2.6710583421e+02 stress_213
                     -3.3589231257e+02 stress_214
                     -3.8368552245e+02 stress_215
                     -4.1809731062e+02 stress_216
                     -4.4432193212e+02 stress_217
                     -4.6556250132e+02 stress_218
                     -4.8371493137e+02 stress_219
                     -4.9988154687e+02 stress_220
                     -5.1469439788e+02 stress_221
                     -5.2850406412e+02 stress_222
                     -5.4149202347e+02 stress_223
                     -5.5373591648e+02 stress_224
                     -5.6525069730e+02 stress_225
                     -5.7601236333e+02 stress_226
                     -5.8597403497e+02 stress_227
                     -5.9507808267e+02 stress_228
                     -6.0325908505e+02 stress_229
                     -6.1045441835e+02 stress_230
                     -6.1660403406e+02 stress_231
                     -6.2165222347e+02 stress_232
                     -6.2555500731e+02 stress_233
                     -6.2827573447e+02 stress_234
                     -6.2978756618e+02 stress_235
                     -6.2360624019e+02 stress_236
                     -2.8663473763e+02 stress_237
                     -3.3817904927e+01 stress_238
                     -2.3509470516e+02 stress_239
                     -4.3410868362e+02 stress_240
                     -1.2941053923e+02 stress_241
                      2.1422981212e+01 stress_242
                     -2.7588774059e+02 stress_243
                     -3.7521383582e+02 stress_244
                     -4.6419503698e+02 stress_245
                     -2.9025749936e+02 stress_246
                      6.8534843827e-03 stress_247
                      2.1768526105e+02 stress_248
                      3.2638691431e+02 stress_249
                      3.7425032079e+02 stress_250
                      3.8924464903e+02 stress_251
                      2.8927850905e+02 stress_252
                      1.2505316913e+00 stress_253
                     -2.7158218221e+02 stress_254
                     -4.1955992663e+02 stress_255
                     -4.8208011043e+02 stress_256
                     -4.9576475780e+02 stress_257
                     -2.3809649497e+02 stress_258
                      7.9342415585e+01 stress_259
                      1.7533741667e+02 stress_260
                     -2.4511281159e+01 stress_261
                     -3.2965611784e+02 stress_262
                     -4.6570013915e+02 stress_263
                     -4.8710417109e+02 stress_264
                     -4.4710446632e+02 stress_265
                     -3.5827984332e+02 stress_266
                     -2.2805245269e+02 stress_267
                     -7.5324114969e+01 stress_268
                      7.2771693887e+01 stress_269
                      1.9508403872e+02 stress_270
                      2.8582674086e+02 stress_271
                      3.5013641682e+02 stress_272
                      3.9589689452e+02 stress_273
                      4.2967055035e+02 stress_274
                      4.5592193272e+02 stress_275
                      4.7745050695e+02 stress_276
                      4.9595795189e+02 stress_277
                      5.1246022020e+02 stress_278
                      5.2755522676e+02 stress_279
                      5.4158499645e+02 stress_280
                      5.5473342105e+02 stress_281
                      5.6708594863e+02 stress_282
                      5.7866603829e+02 stress_283
                      5.8945971795e+02 stress_284
                      5.9942880598e+02 stress_285
                      6.0852350177e+02 stress_286
                      6.1668772305e+02 stress_287
                      6.2386331737e+02 stress_288
                      6.2999663957e+02 stress_289
                      6.3503832100e+02 stress_290
                      6.3894558829e+02 stress_291
                      6.4168585771e+02 stress_292
                      6.4323450834e+02 stress_293
                      6.4325736918e+02 stress_294
                      2.9758477277e+02 stress_295
                      9.5408920285e+00 stress_296
                      1.3171811507e+02 stress_297
                      4.2963903141e+02 stress_298
                      4.3811084949e+02 stress_299
                      3.9671538316e+02 stress_300
                      3.2283524451e+02 stress_301
                      2.2066380840e+02 stress_302
                      1.0026608301e+02 stress_303
                     -2.3108084645e+01 stress_304
                     -1.3434957137e+02 stress_305
                     -2.2497750869e+02 stress_306
                     -2.9421115787e+02 stress_307
                     -3.4571877745e+02 stress_308
                     -3.8423325301e+02 stress_309
                     -4.1380472251e+02 stress_310
                     -4.3740902350e+02 stress_311
                     -4.5708280883e+02 stress_312
                     -4.7417262406e+02 stress_313
                     -4.8956037562e+02 stress_314
                     -5.0381886232e+02 stress_315
                     -5.1731768114e+02 stress_316
                     -5.3029342134e+02 stress_317
                     -5.4289332758e+02 stress_318
                     -5.5520479800e+02 stress_319
                     -5.6727481462e+02 stress_320
                     -5.7912165510e+02 stress_321
                     -5.9074465105e+02 stress_322
                     -6.0212886231e+02 stress_323
                     -6.1325029929e+02 stress_324
                     -6.2407895359e+02 stress_325
                     -6.3457928866e+02 stress_326
                     -6.4471459679e+02 stress_327
                     -6.5444470203e+02 stress_328
                     -6.6373113894e+02 stress_329
                     -6.7253477548e+02 stress_330
                     -6.8081674393e+02 stress_331
                     -6.8854092419e+02 stress_332
                     -6.9567174013e+02 stress_333
                     -7.0217685067e+02 stress_334
                     -7.0802674885e+02 stress_335
                     -7.1319230613e+02 stress_336
                     -7.1765079791e+02 stress_337
                     -7.2138037550e+02 stress_338
                     -7.2436312184e+02 stress_339
                     -7.2658539633e+02 stress_340
                     -7.2803626874e+02 stress_341
                     -7.2870851836e+02 stress_342

>>>>> Total response returned to iterator:

Active set vector = { 2 2 2 2 2 2 2 2 2 2 2 2 2 2 2 2 2 2 2 2 2 2 2 2 2 2 2 2 2 2 2 2 2 2 2 2 2 2 2 2 2 2 2 2 2 2 2 2 2 2 2 2 2 2 2 2 2 2 2 2 2 2 2 2 2 2 2 2 2 2 2 2 2 2 2 2 2 2 2 2 2 2 2 2 2 2 2 2 2 2 2 2 2 2 2 2 2 2 2 2 2 2 2 2 2 2 2 2 2 2 2 2 2 2 2 2 2 2 2 2 2 2 2 2 2 2 2 2 2 2 2 2 2 2 2 2 2 2 2 2 2 2 2 2 2 2 2 2 2 2 2 2 2 2 2 2 2 2 2 2 2 2 2 2 2 2 2 2 2 2 2 2 2 2 2 2 2 2 2 2 2 2 2 2 2 2 2 2 2 2 2 2 2 2 2 2 2 2 2 2 2 2 2 2 2 2 2 2 2 2 2 2 2 2 2 2 2 2 2 2 2 2 2 2 2 2 2 2 2 2 2 2 2 2 2 2 2 2 2 2 2 2 2 2 2 2 2 2 2 2 2 2 2 2 2 2 2 2 2 2 2 2 2 2 2 2 2 2 2 2 2 2 2 2 2 2 2 2 2 2 2 2 2 2 2 2 2 2 2 2 2 2 2 2 2 2 2 2 2 2 2 2 2 2 2 2 2 2 2 2 2 2 2 2 2 2 2 2 2 2 2 2 2 2 2 2 2 2 2 2 2 2 2 2 2 2 2 2 2 2 2 2 } Deriv vars vector = { 1 2 3 4 5 6 7 }
 [  0.0000000000e+00  1.1653236988e-05  0.0000000000e+00  0.0000000000e+00 
    0.0000000000e+00  0.0000000000e+00  0.0000000000e+00 ] stress_1 gradient
 [ -9.4988288261e-02 -8.6031300722e-04 -2.6393647478e+01  5.3420085763e+02 
   -2.4239169000e+04 -4.1490437257e+01  0.0000000000e+00 ] stress_2 gradient
 [ -5.6204140230e-01 -6.8314495783e-04 -2.9716119934e+02  1.1748448405e+03 
   -5.3463042000e+04 -2.4995920157e+02  0.0000000000e+00 ] stress_3 gradient
 [ -6.1651488416e-01 -6.2542641941e-04 -3.5991712879e+02  1.1389604228e+03 
   -5.1782164000e+04 -2.7452069105e+02  0.0000000000e+00 ] stress_4 gradient
 [ -5.5515928522e-01  7.3029757807e-04 -3.4187378300e+02  5.8802644992e+02 
   -4.9208541000e+04 -2.6406511933e+02  2.1382482181e+01 ] stress_5 gradient
 [ -1.3505436722e-01  1.2419058223e-03 -1.6072352927e+02 -1.1492771173e+03 
   -3.3986611000e+04 -1.9251279763e+02  1.6771834831e+02 ] stress_6 gradient
 [  1.7253853919e-01  1.0820189440e-03  6.5223637028e+01 -1.6340216910e+03 
   -2.3787751000e+04 -1.4015082257e+02  2.7480768132e+02 ] stress_7 gradient
 [  1.7505811323e-01  1.0801455381e-03  6.7605711636e+01 -1.6359703987e+03 
   -2.3706657000e+04 -1.3972203385e+02  2.7568466866e+02 ] stress_8 gradient
 [  1.4476108824e-01 -2.7605320376e-07  5.7071247489e+01 -1.2640669135e+03 
   -2.3462647500e+04 -1.5070856500e+02  2.6850261567e+02 ] stress_9 gradient
 [ -1.3858813949e-01 -7.0390362912e-04 -8.3362613552e+01  4.2699902236e+02 
   -1.9172353000e+04 -2.5342285013e+02  2.0135673641e+02 ] stress_10 gradient
 [ -4.8656717055e-01 -6.3677040494e-04 -4.2194713404e+02  1.1960968397e+03 
   -1.2407470000e+04 -3.7950314539e+02  1.1893644405e+02 ] stress_11 gradient
 [ -6.7115081146e-01 -5.2471000701e-04 -8.0101083952e+02  1.1761266588e+03 
   -8.3265070000e+03 -4.4635930743e+02  7.5231918463e+01 ] stress_12 gradient
 [ -7.4609514760e-01 -4.8078397084e-04 -1.0655854321e+03  1.0715676132e+03 
   -6.5588810000e+03 -4.7350019697e+02  5.7489203705e+01 ] stress_13 gradient
 [ -7.5170836562e-01 -4.7783534016e-04 -1.0902181700e+03  1.0611081163e+03 
   -6.4234820000e+03 -4.7553284013e+02  5.6160540895e+01 ] stress_14 gradient
 [ -6.8730137642e-01  8.9534928525e-04 -1.0723195744e+03  5.1368347895e+02 
   -5.9929440000e+03 -4.5801610304e+02  8.4414398296e+01 ] stress_15 gradient
 [ -7.0714968686e-01  1.9931754893e-04 -1.0857078769e+03  7.9471810163e+02 
   -8.6018580000e+03 -4.8192209973e+02  7.8888202850e+01 ] stress_16 gradient
 [ -7.8684440101e-01 -1.4831375807e-04 -1.1664206498e+03  1.1823404203e+03 
   -1.2034061000e+04 -5.7790512009e+02  5.6700518609e+01 ] stress_17 gradient
 [ -7.6974875843e-01  7.3095056640e-04 -1.1622502805e+03  1.0082755568e+03 
   -1.1861082000e+04 -5.7236523144e+02  6.4129659043e+01 ] stress_18 gradient
 [ -5.1798200485e-01  1.5261359803e-03 -1.0855033141e+03 -3.0257964810e+02 
   -9.7527399000e+03 -4.9080684810e+02  1.7349760272e+02 ] stress_19 gradient
 [ -6.7091300337e-03  1.3402287022e-03 -8.2573094918e+02 -1.4595961513e+03 
   -6.0109120000e+03 -3.2528753107e+02  3.9545744289e+02 ] stress_20 gradient
 [  3.7562160188e-01  9.6040265998e-04 -4.3742540277e+02 -1.5871677249e+03 
   -3.4805870000e+03 -2.0158147380e+02  5.6134844309e+02 ] stress_21 gradient
 [  5.7527923291e-01  7.4389248073e-04 -5.0307850871e+01 -1.4058994482e+03 
   -2.2490740000e+03 -1.3700055906e+02  6.4795197456e+02 ] stress_22 gradient
 [  6.6751138309e-01  6.4974405650e-04  2.3538939707e+02 -1.2528385814e+03 
   -1.7051590000e+03 -1.0717153357e+02  6.8795288830e+02 ] stress_23 gradient
 [  6.9810798166e-01  6.2089325223e-04  3.5752505642e+02 -1.1905986694e+03 
   -1.5288390000e+03 -9.7277080089e+01  7.0122141125e+02 ] stress_24 gradient
 [  6.3819542557e-01 -7.6787328884e-04  3.3999333505e+02 -6.4540408495e+02 
   -1.6190190000e+03 -1.2737076465e+02  6.7623251321e+02 ] stress_25 gradient
 [  6.4999211212e-01 -2.1053488879e-04  3.4642058964e+02 -8.1058867483e+02 
    5.2613500000e+02 -1.2309826465e+02  6.8513865151e+02 ] stress_26 gradient
 [  7.1013125810e-01  1.3413944893e-04  3.8933835832e+02 -1.1702751305e+03 
    6.0996180000e+03 -1.0131569533e+02  7.3054283635e+02 ] stress_27 gradient
 [  7.3085788267e-01  1.8136681336e-04  4.0841538539e+02 -1.2248323849e+03 
    7.2375470000e+03 -9.3808815382e+01  7.4618980232e+02 ] stress_28 gradient
 [  7.2647198659e-01 -3.9480565815e-04  4.0733649685e+02 -1.1690682835e+03 
    7.2045490000e+03 -9.5979430031e+01  7.4427986938e+02 ] stress_29 gradient
 [  6.5052729380e-01 -1.1713736930e-03  3.8681792343e+02 -5.9710932281e+02 
    6.7398037000e+03 -1.3355440057e+02  7.1121331768e+02 ] stress_30 gradient
 [  3.7411635702e-01 -1.5232512081e-03  2.8970243690e+02  5.9295324374e+02 
    5.2944900000e+03 -2.7026050078e+02  5.9090999946e+02 ] stress_31 gradient
 [ -2.3682398349e-02 -1.3365969631e-03  6.7933898923e+01  1.4173660801e+03 
    3.4639350000e+03 -4.6690013334e+02  4.1786365929e+02 ] stress_32 gradient
 [ -3.5541173410e-01 -1.0216853190e-03 -2.6782690684e+02  1.5607135035e+03 
    2.0914710000e+03 -6.3080718429e+02  2.7362195379e+02 ] stress_33 gradient
 [ -5.7182202367e-01 -7.9460745275e-04 -6.7901819159e+02  1.3851485920e+03 
    1.2721540000e+03 -7.3770328779e+02  1.7955084818e+02 ] stress_34 gradient
 [ -7.0285560967e-01 -6.6862037687e-04 -1.1293985158e+03  1.1524901378e+03 
    8.1156300000e+02 -8.0241550625e+02  1.2260225745e+02 ] stress_35 gradient
 [ -7.8209146945e-01 -6.1065162986e-04 -1.5896392379e+03  9.5155398976e+02 
    5.4986600000e+02 -8.4154350233e+02  8.8168831574e+01 ] stress_36 gradient
 [ -8.3110034152e-01 -5.9225566349e-04 -2.0351189218e+03  7.9765672800e+02 
    3.9623000000e+02 -8.6574288077e+02  6.6872428193e+01 ] stress_37 gradient
 [ -8.6216271306e-01 -5.9490071852e-04 -2.4444793127e+03  6.8523837910e+02 
    3.0297200001e+02 -8.8108028382e+02  5.3374891164e+01 ] stress_38 gradient
 [ -8.8213173904e-01 -6.0706395906e-04 -2.7992076049e+03  6.0550516270e+02 
    2.4507900000e+02 -8.9094037266e+02  4.4698084574e+01 ] stress_39 gradient
 [ -8.9485451522e-01 -6.2152183120e-04 -3.0835412455e+03  5.5111938242e+02 
    2.0918200000e+02 -8.9722243507e+02  3.9169665696e+01 ] stress_40 gradient
 [ -9.0251647084e-01 -6.3374920316e-04 -3.2852868815e+03  5.1684377156e+02 
    1.8798300000e+02 -9.0100511064e+02  3.5840861909e+01 ] stress_41 gradient
 [ -9.0630826139e-01 -6.4102582087e-04 -3.3957325532e+03  4.9942082290e+02 
    1.7761800001e+02 -9.0287721448e+02  3.4193294616e+01 ] stress_42 gradient
 [ -9.0630217214e-01 -5.6663063470e-04 -3.3957312492e+03  4.9927095823e+02 
    1.7763300000e+02 -9.0287464996e+02  3.4198376756e+01 ] stress_43 gradient
 [ -8.0682700230e-01  9.8411056840e-04 -3.3674962754e+03 -2.4572076946e+02 
    2.4786400000e+02 -8.5569455574e+02  1.1821414445e+02 ] stress_44 gradient
 [ -4.9597238864e-01  1.3869533298e-03 -3.2514449910e+03 -1.4603902583e+03 
    3.4519670000e+02 -7.0831700203e+02  3.8066049714e+02 ] stress_45 gradient
 [ -5.0977338528e-01  4.7175958219e-04 -3.2605485151e+03 -1.1400094532e+03 
   -6.2820900000e+02 -7.3435965904e+02  3.7004355063e+02 ] stress_46 gradient
 [ -6.4576231034e-01 -3.6752256156e-04 -3.3936738844e+03  3.5530684864e+02 
   -4.5436190000e+03 -9.9094149206e+02  2.6544224433e+02 ] stress_47 gradient
 [ -5.8360349146e-01  8.5823376422e-04 -3.3772544353e+03 -1.2047835071e+02 
   -4.3206503000e+03 -9.5345715186e+02  3.1751318461e+02 ] stress_48 gradient
 [ -5.8677329033e-01  3.8007710993e-04 -3.3792336438e+03 -4.0185094239e+01 
   -8.0700790000e+03 -9.5879823847e+02  3.1505031449e+02 ] stress_49 gradient
 [ -6.2434153322e-01 -1.7284668270e-04 -3.4061793414e+03  4.5719434396e+02 
   -3.1221238000e+04 -1.0222071649e+03  2.8581306239e+02 ] stress_50 gradient
 [ -7.2837257430e-01 -5.2305663915e-04 -3.5182942040e+03  1.0492465535e+03 
   -5.7478175000e+04 -1.1979561702e+03  2.0477606587e+02 ] stress_51 gradient
 [ -7.1792909782e-01  2.5957167929e-04 -3.5156261066e+03  9.2960726365e+02 
   -5.7118652000e+04 -1.1907067687e+03  2.1349892938e+02 ] stress_52 gradient
 [ -5.0282862292e-01  1.1947028369e-03 -3.4483598232e+03 -3.0814454530e+02 
   -4.9842739800e+04 -1.0414348767e+03  3.9310319406e+02 ] stress_53 gradient
 [ -1.4486563126e-02  1.1300244769e-03 -3.1996847701e+03 -1.5354918537e+03 
   -3.3496181000e+04 -7.0273956871e+02  8.0062908485e+02 ] stress_54 gradient
 [  3.4861894783e-01  8.0836675220e-04 -2.8426522120e+03 -1.7013901219e+03 
   -2.1424440000e+04 -4.5103495088e+02  1.1034901965e+03 ] stress_55 gradient
 [  5.2369428119e-01  6.3046293491e-04 -2.5384621538e+03 -1.5676935711e+03 
   -1.5627561000e+04 -3.2970723485e+02  1.2494776182e+03 ] stress_56 gradient
 [  5.8175784449e-01  5.7209302535e-04 -2.3980971034e+03 -1.4885729370e+03 
   -1.3708856000e+04 -2.8947392814e+02  1.2978888437e+03 ] stress_57 gradient
 [  5.8071472779e-01  1.6039149003e-04 -2.3984035564e+03 -1.4696720725e+03 
   -1.3707023000e+04 -2.9037458961e+02  1.2970271028e+03 ] stress_58 gradient
 [  4.9069870627e-01 -1.0413720908e-03 -2.4280987680e+03 -6.6380280104e+02 
   -1.3218758200e+04 -3.6810193042e+02  1.2226722352e+03 ] stress_59 gradient
 [  1.0877445682e-01 -1.4996373996e-03 -2.6112588755e+03  1.0292920320e+03 
   -1.0441852000e+04 -6.9774848858e+02  9.0732550467e+02 ] stress_60 gradient
 [ -2.6336422566e-01 -1.3413163591e-03 -2.9319982666e+03  1.6479917245e+03 
   -7.3087400000e+03 -1.0187968585e+03  6.0020079247e+02 ] stress_61 gradient
 [ -4.5030084836e-01 -1.2014867494e-03 -3.2094034606e+03  1.6605602370e+03 
   -5.6107440000e+03 -1.1800229542e+03  4.4596632293e+02 ] stress_62 gradient
 [ -4.9906721991e-01 -1.1626245187e-03 -3.3065073411e+03  1.6295873208e+03 
   -5.1535490000e+03 -1.2220775871e+03  4.0573544221e+02 ] stress_63 gradient
 [ -4.6765470564e-01  2.0960869755e-05 -3.2966465085e+03  1.2702552574e+03 
   -5.0087510000e+03 -1.1964354064e+03  4.3176268563e+02 ] stress_64 gradient
 [ -1.4669271802e-01  8.3427954866e-04 -3.1584440602e+03 -5.3344563983e+02 
   -3.7382977000e+03 -9.3453428527e+02  6.9760047952e+02 ] stress_65 gradient
 [ -3.7511737279e-03  8.4713978513e-04 -3.0715317643e+03 -9.8326105932e+02 
   -3.2128260000e+03 -8.1793652935e+02  8.1595174655e+02 ] stress_66 gradient
 [ -4.0910843296e-02 -3.0896236510e-04 -3.0863745668e+03 -5.2733074899e+02 
   -3.6367153000e+03 -8.4913675550e+02  7.8521596099e+02 ] stress_67 gradient
 [ -3.4322893679e-01 -9.7159351847e-04 -3.2740094101e+03  1.0674174909e+03 
   -4.3532070000e+03 -1.1028763759e+03  5.3525100257e+02 ] stress_68 gradient
 [ -5.3959994486e-01 -9.6444723563e-04 -3.4989733186e+03  1.3841360297e+03 
   -3.8728970000e+03 -1.2676292074e+03  3.7294736019e+02 ] stress_69 gradient
 [ -5.4295103966e-01 -9.6349168239e-04 -3.5040860853e+03  1.3857716954e+03 
   -3.8597200000e+03 -1.2704404406e+03  3.7017790979e+02 ] stress_70 gradient
 [ -5.4128836916e-01 -5.1038524927e-04 -3.5036170600e+03  1.3584841709e+03 
   -3.8528260000e+03 -1.2690694451e+03  3.7155485296e+02 ] stress_71 gradient
 [ -5.0838206830e-01  2.0663727469e-04 -3.4937957838e+03  1.0209713013e+03 
   -3.7374370000e+03 -1.2419377879e+03  3.9880498708e+02 ] stress_72 gradient
 [ -3.5739185874e-01  7.9350032900e-04 -3.4402872723e+03  5.8174215919e+01 
   -3.2700080800e+03 -1.1174753699e+03  5.2381208928e+02 ] stress_73 gradient
 [ -6.6191815701e-02  9.3547564798e-04 -3.2960744629e+03 -1.0093292027e+03 
   -2.4535330000e+03 -8.7752738977e+02  7.6481204548e+02 ] stress_74 gradient
 [  2.4778205607e-01  7.8135382632e-04 -3.0443743750e+03 -1.5282393049e+03 
   -1.6421290000e+03 -6.1891547812e+02  1.0245600660e+03 ] stress_75 gradient
 [  4.9071621886e-01  5.8578955787e-04 -2.7026540358e+03 -1.5527380899e+03 
   -1.0555560000e+03 -4.1887836176e+02  1.2254768794e+03 ] stress_76 gradient
 [  6.5284574366e-01  4.4816118741e-04 -2.2975709468e+03 -1.3700006946e+03 
   -6.8578800000e+02 -2.8540505149e+02  1.3595377816e+03 ] stress_77 gradient
 [  7.5620812410e-01  3.7330773190e-04 -1.8526181013e+03 -1.1509142399e+03 
   -4.6116700000e+02 -2.0032280453e+02  1.4449952898e+03 ] stress_78 gradient
 [  8.2219161765e-01  3.4355322534e-04 -1.3870198848e+03 -9.5725395178e+02 
   -3.2357200000e+02 -1.4601281566e+02  1.4995447913e+03 ] stress_79 gradient
 [  8.6514216726e-01  3.4238794364e-04 -9.1725912323e+02 -8.0210796983e+02 
   -2.3712800000e+02 -1.1066287900e+02  1.5350505494e+03 ] stress_80 gradient
 [  8.9378407329e-01  3.5808270838e-04 -4.5812206671e+02 -6.8245453317e+02 
   -1.8121300000e+02 -8.7090270670e+01  1.5587273015e+03 ] stress_81 gradient
 [  9.1331681223e-01  3.8273697230e-04 -2.3154808442e+01 -5.9164228662e+02 
   -1.4406200000e+02 -7.1014797088e+01  1.5748735881e+03 ] stress_82 gradient
 [  9.2686397231e-01  4.1098143388e-04  3.7524890863e+02 -5.2336461379e+02 
   -1.1885800000e+02 -5.9865777584e+01  1.5860717730e+03 ] stress_83 gradient
 [  9.3633681379e-01  4.3907746833e-04  7.2603286778e+02 -4.7259958600e+02 
   -1.0155400000e+02 -5.2069619123e+01  1.5939024027e+03 ] stress_84 gradient
 [  9.4292062316e-01  4.6435414571e-04  1.0194853334e+03 -4.3564519574e+02 
   -8.9706000006e+01 -4.6651288999e+01  1.5993444251e+03 ] stress_85 gradient
 [  9.4735981653e-01  4.8490576699e-04  1.2476172273e+03 -4.0986921898e+02 
   -8.1807000004e+01 -4.2997865525e+01  1.6030140502e+03 ] stress_86 gradient
 [  9.5011512525e-01  4.9940639342e-04  1.4042573243e+03 -3.9349425527e+02 
   -7.6944000000e+01 -4.0730311807e+01  1.6052914856e+03 ] stress_87 gradient
 [  9.5145251200e-01  5.0699679525e-04  1.4850466018e+03 -3.8543650783e+02 
   -7.4595999990e+01 -3.9630130231e+01  1.6063968517e+03 ] stress_88 gradient
 [  9.5081397023e-01  1.5444818948e-04  1.4848831602e+03 -3.7497126105e+02 
   -7.5421999998e+01 -4.0266132635e+01  1.6058689441e+03 ] stress_89 gradient
 [  7.6953363989e-01 -1.3816807106e-03  1.4300371529e+03  7.7421766683e+02 
   -1.6180420000e+02 -2.2086629756e+02  1.4560128362e+03 ] stress_90 gradient
 [  4.8570282896e-01 -1.5790662156e-03  1.3155106136e+03  1.7151037572e+03 
   -2.2555850000e+02 -5.0352294674e+02  1.2214722459e+03 ] stress_91 gradient
 [  5.1741508705e-01 -3.6413895909e-04  1.3375792308e+03  1.0764983330e+03 
    1.2336280000e+03 -4.7271134883e+02  1.2676151520e+03 ] stress_92 gradient
 [  6.8434193600e-01  3.4668550741e-04  1.5253027933e+03 -5.0529698572e+02 
    4.1291230000e+03 -3.1055484320e+02  1.5104615525e+03 ] stress_93 gradient
 [  6.8983042262e-01  3.5642979535e-04  1.5342442668e+03 -5.3473770121e+02 
    4.1626380000e+03 -3.0522370695e+02  1.5184452818e+03 ] stress_94 gradient
 [  6.8933887401e-01  6.8453401728e-05  1.5341203815e+03 -5.2667211299e+02 
    4.1607770000e+03 -3.0571199266e+02  1.5180012295e+03 ] stress_95 gradient
 [  6.7926882781e-01 -4.1843240417e-04  1.5315322661e+03 -4.1708626737e+02 
    4.1271000000e+03 -3.1571569494e+02  1.5089076872e+03 ] stress_96 gradient
 [  6.2320077683e-01 -9.6234981953e-04  1.5159764930e+03 -6.0560148759e+00 
    3.9557340000e+03 -3.7140575773e+02  1.4582829978e+03 ] stress_97 gradient
 [  4.6926310761e-01 -1.3275169282e-03  1.4655145898e+03  7.3195374008e+02 
    3.5173582000e+03 -5.2426765247e+02  1.3193241484e+03 ] stress_98 gradient
 [  2.1654654470e-01 -1.3841926916e-03  1.3561498496e+03  1.4575914126e+03 
    2.8382340000e+03 -7.7513100326e+02  1.0912755830e+03 ] stress_99 gradient
 [ -6.7309378383e-02 -1.2221420725e-03  1.1766622666e+03  1.8426700136e+03 
    2.1116740000e+03 -1.0568021052e+03  8.3521910426e+02 ] stress_100 gradient
 [ -3.1584329300e-01 -1.0000333560e-03  9.3074609931e+02  1.8748176018e+03 
    1.5013100000e+03 -1.3033463842e+03  6.1109373112e+02 ] stress_101 gradient
 [ -5.0488315098e-01 -8.1010618454e-04  6.2894811349e+02  1.7070777833e+03 
    1.0532560000e+03 -1.4908291209e+03  4.4065834201e+02 ] stress_102 gradient
 [ -6.3937726366e-01 -6.7707774060e-04  2.8211457296e+02  1.4723320674e+03 
    7.4416000000e+02 -1.6241942082e+03  3.1942000473e+02 ] stress_103 gradient
 [ -7.3285052934e-01 -5.9574696027e-04 -1.0071959150e+02  1.2403965335e+03 
    5.3507100000e+02 -1.7168720677e+03  2.3516823502e+02 ] stress_104 gradient
 [ -7.9777113250e-01 -5.5388409634e-04 -5.1209344400e+02  1.0377821905e+03 
    3.9329300000e+02 -1.7812355106e+03  1.7665688527e+02 ] stress_105 gradient
 [ -8.4334900747e-01 -5.4029338825e-04 -9.4570187649e+02  8.6991945513e+02 
    2.9587100000e+02 -1.8264198908e+03  1.3558046298e+02 ] stress_106 gradient
 [ -8.7585256673e-01 -5.4649260807e-04 -1.3958670316e+03  7.3402019972e+02 
    2.2772600000e+02 -1.8586421318e+03  1.0628826020e+02 ] stress_107 gradient
 [ -8.9943688234e-01 -5.6640963649e-04 -1.8572631468e+03  6.2493597532e+02 
    1.7913800000e+02 -1.8820213749e+03  8.5034419766e+01 ] stress_108 gradient
 [ -9.1684739801e-01 -5.9573498300e-04 -2.3247687618e+03  5.3747721612e+02 
    1.4383600000e+02 -1.8992801207e+03  6.9344890851e+01 ] stress_109 gradient
 [ -9.2991267807e-01 -6.3136825439e-04 -2.7934202068e+03  4.6717193836e+02 
    1.1772500001e+02 -1.9122314889e+03  5.7571153264e+01 ] stress_110 gradient
 [ -9.3986560990e-01 -6.7102017594e-04 -3.2583572673e+03  4.1040909878e+02 
    9.8095999999e+01 -1.9220977326e+03  4.8602123444e+01 ] stress_111 gradient
 [ -9.4754958721e-01 -7.1294307780e-04 -3.7147914516e+03  3.6435812927e+02 
    8.3122000001e+01 -1.9297143743e+03  4.1677703358e+01 ] stress_112 gradient
 [ -9.5355194969e-01 -7.5576659920e-04 -4.1581207480e+03  3.2681946146e+02 
    7.1551999997e+01 -1.9356640742e+03  3.6269032469e+01 ] stress_113 gradient
 [ -9.5828726826e-01 -7.9838185769e-04 -4.5839044132e+03  2.9609648279e+02 
    6.2514000001e+01 -1.9403581822e+03  3.2001620366e+01 ] stress_114 gradient
 [ -9.6205210460e-01 -8.3986655339e-04 -4.9878707961e+03  2.7088196189e+02 
    5.5393000002e+01 -1.9440900802e+03  2.8609289789e+01 ] stress_115 gradient
 [ -9.6506187409e-01 -8.7944287162e-04 -5.3659968857e+03  2.5016463762e+02 
    4.9744000000e+01 -1.9470736495e+03  2.5897013499e+01 ] stress_116 gradient
 [ -9.6747424242e-01 -9.1644134900e-04 -5.7144839685e+03  2.3316318957e+02 
    4.5249000004e+01 -1.9494643005e+03  2.3723444388e+01 ] stress_117 gradient
 [ -9.6940656406e-01 -9.5029506168e-04 -6.0299141152e+03  2.1926791603e+02 
    4.1670999997e+01 -1.9513800012e+03  2.1981857443e+01 ] stress_118 gradient
 [ -9.7094600911e-01 -9.8051445792e-04 -6.3091632437e+03  2.0800780265e+02 
    3.8834999998e+01 -1.9529058941e+03  2.0594749989e+01 ] stress_119 gradient
 [ -9.7215733313e-01 -1.0066771496e-03 -6.5494050311e+03  1.9902132805e+02 
    3.6613999998e+01 -1.9541066051e+03  1.9503359737e+01 ] stress_120 gradient
 [ -9.7308922828e-01 -1.0284425681e-03 -6.7483199974e+03  1.9202781435e+02 
    3.4912000001e+01 -1.9550303473e+03  1.8663535578e+01 ] stress_121 gradient
 [ -9.7377709515e-01 -1.0455278579e-03 -6.9039159807e+03  1.8681923047e+02 
    3.3659000007e+01 -1.9557125111e+03  1.8043514112e+01 ] stress_122 gradient
 [ -9.7424598914e-01 -1.0577149519e-03 -7.0146320265e+03  1.8324514457e+02 
    3.2807000002e+01 -1.9561766903e+03  1.7621060957e+01 ] stress_123 gradient
 [ -9.7451280300e-01 -1.0648570907e-03 -7.0794157622e+03  1.8120274780e+02 
    3.2323000005e+01 -1.9564413494e+03  1.7380612058e+01 ] stress_124 gradient
 [ -9.7458358234e-01 -1.0667772938e-03 -7.0968214249e+03  1.8066003197e+02 
    3.2193999994e+01 -1.9565116174e+03  1.7316767634e+01 ] stress_125 gradient
 [ -9.7304889520e-01 -5.7843895402e-04 -7.0964180371e+03  1.5746460792e+02 
    3.3253999993e+01 -1.9550021375e+03  1.9561169118e+01 ] stress_126 gradient
 [ -9.1538445051e-01  4.4813445334e-04 -7.0801799387e+03 -3.2577187689e+02 
    5.5079999998e+01 -1.8982932912e+03  1.0386979531e+02 ] stress_127 gradient
 [ -6.2753345200e-01  1.1075881345e-03 -6.9777310393e+03 -1.6132024410e+03 
    1.1095320000e+02 -1.6153032536e+03  5.2459555882e+02 ] stress_128 gradient
 [ -1.7610865053e-01  1.0331598921e-03 -6.7299988878e+03 -2.4715038047e+03 
    1.4293500000e+02 -1.1717113260e+03  1.1841101397e+03 ] stress_129 gradient
 [  1.9220506700e-01  7.4413268300e-04 -6.3819112806e+03 -2.5212528001e+03 
    1.3762600000e+02 -8.0993726044e+02  1.7219955982e+03 ] stress_130 gradient
 [  4.1840988064e-01  5.3034882225e-04 -6.0225296840e+03 -2.2789470209e+03 
    1.2121600000e+02 -5.8780624133e+02  2.0522643905e+03 ] stress_131 gradient
 [  5.4172712246e-01  4.1327495367e-04 -5.7274658404e+03 -2.0490693763e+03 
    1.0757900000e+02 -4.6672728431e+02  2.2322888309e+03 ] stress_132 gradient
 [  5.9895287933e-01  3.6133936196e-04 -5.5488793597e+03 -1.9156427377e+03 
    9.9970999997e+01 -4.1054416579e+02  2.3158237008e+03 ] stress_133 gradient
 [  6.0213777473e-01  3.5852859617e-04 -5.5378883458e+03 -1.9076757432e+03 
    9.9521999999e+01 -4.0741749592e+02  2.3204729089e+03 ] stress_134 gradient
 [  5.2236868882e-01 -1.3124851986e-03 -5.5651211529e+03 -1.1069828172e+03 
   -9.1867000000e+01 -5.3279531627e+02  2.2049721207e+03 ] stress_135 gradient
 [  5.0984054380e-01 -1.3757383450e-03 -5.5697734142e+03 -1.0109736479e+03 
   -1.1419610000e+02 -5.5248441188e+02  2.1868339834e+03 ] stress_136 gradient
 [  5.3450295983e-01 -5.7280584946e-04 -5.5573696300e+03 -1.2844943578e+03 
   -8.9872000001e+01 -5.2561084851e+02  2.2227985638e+03 ] stress_137 gradient
 [  5.3437659373e-01 -7.4624664491e-04 -5.5574013620e+03 -1.2820695998e+03 
   -9.0472299999e+01 -5.2580862474e+02  2.2226154478e+03 ] stress_138 gradient
 [  5.1122080410e-01 -1.4982792131e-03 -5.5634881278e+03 -1.0477442468e+03 
   -1.4638860000e+02 -5.6203414180e+02  2.1890749545e+03 ] stress_139 gradient
 [  2.7532076045e-01 -2.1565962670e-03 -5.6422666821e+03  2.1483295634e+02 
   -4.1967300000e+02 -9.3095364304e+02  1.8474946773e+03 ] stress_140 gradient
 [ -1.6472721146e-01 -2.0124913298e-03 -5.8909287555e+03  1.2562784731e+03 
   -5.7648000000e+02 -1.6187502328e+03  1.2106560793e+03 ] stress_141 gradient
 [ -4.8884649208e-01 -1.7115471975e-03 -6.2619512205e+03  1.3720409449e+03 
   -5.1517700000e+02 -2.1251045699e+03  7.4180899489e+02 ] stress_142 gradient
 [ -6.5934015674e-01 -1.5407624741e-03 -6.6421864024e+03  1.2068213551e+03 
   -4.2165100000e+02 -2.3913849266e+03  4.9525072410e+02 ] stress_143 gradient
 [ -7.4061266293e-01 -1.4670604532e-03 -6.9410424392e+03  1.0603258061e+03 
   -3.5880600000e+02 -2.5183012573e+03  3.7773346853e+02 ] stress_144 gradient
 [ -7.7256347552e-01 -1.4418913690e-03 -7.0991865468e+03  9.8818883185e+02 
   -3.3019200000e+02 -2.5681930811e+03  3.3153646935e+02 ] stress_145 gradient
 [ -7.7255223551e-01 -1.3437762972e-03 -7.0991835040e+03  9.8789070405e+02 
   -3.3017700000e+02 -2.5681771810e+03  3.3155266868e+02 ] stress_146 gradient
 [ -7.5002223297e-01 -2.7348445956e-04 -7.0924863099e+03  7.2845414275e+02 
   -3.1431300000e+02 -2.5358123524e+03  3.6424990740e+02 ] stress_147 gradient
 [ -5.1518775985e-01  7.0599995362e-04 -7.0062623379e+03 -6.9343286762e+02 
   -2.0905730000e+02 -2.1985644372e+03  7.0496847542e+02 ] stress_148 gradient
 [ -8.9020322393e-02  7.9117482940e-04 -6.7646585081e+03 -1.8914017421e+03 
   -8.4072000000e+01 -1.5868121413e+03  1.3230273473e+03 ] stress_149 gradient
 [  2.2463428941e-01  6.0341129770e-04 -6.4636903362e+03 -2.1434999731e+03 
   -2.2476999999e+01 -1.1367388875e+03  1.7777473442e+03 ] stress_150 gradient
 [  3.7294735219e-01  4.8633854094e-04 -6.2489258800e+03 -2.0963593457e+03 
   -1.3879999983e+00 -9.2396377150e+02  1.9927210480e+03 ] stress_151 gradient
 [  3.9273701814e-01  4.7003167228e-04 -6.2146479133e+03 -2.0816732872e+03 
    1.0210000028e+00 -8.9557498370e+02  2.0214033936e+03 ] stress_152 gradient
 [  3.7897936429e-01 -5.1879334450e-04 -6.2193759402e+03 -1.8774524762e+03 
   -8.5099600000e+01 -9.1562562615e+02  2.0014449597e+03 ] stress_153 gradient
 [  1.7876166423e-01 -1.5773311850e-03 -6.3056449021e+03 -3.0724395577e+02 
   -6.8903500000e+02 -1.2073561831e+03  1.7110537440e+03 ] stress_154 gradient
 [ -1.8452438531e-01 -1.7509332440e-03 -6.5582269662e+03  1.0937188893e+03 
   -1.1003290000e+03 -1.7364747900e+03  1.1843556707e+03 ] stress_155 gradient
 [ -4.2211382449e-01 -1.6600869060e-03 -6.8481423988e+03  1.4455481326e+03 
   -1.0991800000e+03 -2.0824047023e+03  8.4000330680e+02 ] stress_156 gradient
 [ -5.1101650871e-01 -1.6104920862e-03 -7.0079248347e+03  1.4716315683e+03 
   -1.0481290000e+03 -2.2118265746e+03  7.1117097707e+02 ] stress_157 gradient
 [ -5.0827556101e-01 -1.0298062075e-03 -7.0070745906e+03  1.4253636815e+03 
   -1.0441730000e+03 -2.2078551500e+03  7.1514807175e+02 ] stress_158 gradient
 [ -3.2745007355e-01  3.3618637385e-04 -6.9388170251e+03  3.6450253319e+01 
   -8.6137030000e+02 -1.9459289990e+03  9.7745025039e+02 ] stress_159 gradient
 [ -9.9378322408e-02  5.4662638451e-04 -6.8209241970e+03 -9.3423116848e+02 
   -6.6832080000e+02 -1.6156758792e+03  1.3081817718e+03 ] stress_160 gradient
 [ -1.0763944920e-01 -2.2010514254e-04 -6.8243802048e+03 -7.8965660089e+02 
   -8.7856210000e+02 -1.6276807836e+03  1.2961990946e+03 ] stress_161 gradient
 [ -3.1108211149e-01 -1.2780658406e-03 -6.9424482109e+03  7.4836537865e+02 
   -2.8683480000e+03 -1.9232466402e+03  1.0011774429e+03 ] stress_162 gradient
 [ -5.3682224341e-01 -1.4075005998e-03 -7.1730026051e+03  1.3836020443e+03 
   -3.3511790000e+03 -2.2510935680e+03  6.7392966708e+02 ] stress_163 gradient
 [ -5.6551703206e-01 -1.4082107960e-03 -7.2151640216e+03  1.4125521268e+03 
   -3.3284140000e+03 -2.2927604447e+03  6.3233836016e+02 ] stress_164 gradient
 [ -5.6539808437e-01 -1.2077044152e-03 -7.2151296815e+03  1.4099019079e+03 
   -3.3280470000e+03 -2.2925875956e+03  6.3251115303e+02 ] stress_165 gradient
 [ -5.6239505889e-01 -8.2234977888e-04 -7.2142485747e+03  1.3633847064e+03 
   -3.3196890000e+03 -2.2882330308e+03  6.3686813791e+02 ] stress_166 gradient
 [ -5.4238035263e-01 -3.0933933560e-04 -7.2081442912e+03  1.1407003432e+03 
   -3.2679670000e+03 -2.2592077277e+03  6.6590623353e+02 ] stress_167 gradient
 [ -4.7419279107e-01  1.9876669584e-04 -7.1853354921e+03  5.9593958213e+02 
   -3.1016370000e+03 -2.1603370513e+03  7.6482252740e+02 ] stress_168 gradient
 [ -3.2922090351e-01  5.4149047288e-04 -7.1278658122e+03 -2.1527183792e+02 
   -2.7642503000e+03 -1.9501748280e+03  9.7508375042e+02 ] stress_169 gradient
 [ -1.1662228512e-01  6.5075254217e-04 -7.0188857250e+03 -1.0021417969e+03 
   -2.2885754000e+03 -1.6420574127e+03  1.2833494673e+03 ] stress_170 gradient
 [  1.1804502175e-01  5.8667971625e-04 -6.8507218204e+03 -1.5094824328e+03 
   -1.7808150000e+03 -1.3020487341e+03  1.6235255801e+03 ] stress_171 gradient
 [  3.3088426150e-01  4.5237329314e-04 -6.6254440693e+03 -1.6977806579e+03 
   -1.3333510000e+03 -9.9374041552e+02  1.9319888017e+03 ] stress_172 gradient
 [  5.0200503149e-01  3.1885297277e-04 -6.3500988481e+03 -1.6644949657e+03 
   -9.8245800000e+02 -7.4590925747e+02  2.1799459324e+03 ] stress_173 gradient
 [  6.3086778936e-01  2.1531472697e-04 -6.0326265506e+03 -1.5200562383e+03 
   -7.2392600000e+02 -5.5930564021e+02  2.3666457679e+03 ] stress_174 gradient
 [  7.2508029859e-01  1.4661435102e-04 -5.6799551885e+03 -1.3385073170e+03 
   -5.3852400000e+02 -4.2289133174e+02  2.5031305347e+03 ] stress_175 gradient
 [  7.9336928215e-01  1.0828068661e-04 -5.2978447748e+03 -1.1584334311e+03 
   -4.0643300000e+02 -3.2402014241e+02  2.6020538165e+03 ] stress_176 gradient
 [  8.4302040629e-01  9.3831051991e-05 -4.8911429183e+03 -9.9615451401e+02 
   -3.1187200000e+02 -2.5213750979e+02  2.6739744011e+03 ] stress_177 gradient
 [  8.7945818776e-01  9.7395627393e-05 -4.4640460693e+03 -8.5642767620e+02 
   -2.4344400000e+02 -1.9938572680e+02  2.7267537286e+03 ] stress_178 gradient
 [  9.0652572833e-01  1.1432283749e-04 -4.0204190135e+03 -7.3879435958e+02 
   -1.9326000000e+02 -1.6020079825e+02  2.7659592869e+03 ] stress_179 gradient
 [  9.2690190462e-01  1.4109121493e-04 -3.5638931107e+03 -6.4078639603e+02 
   -1.5592300000e+02 -1.3070310949e+02  2.7954722453e+03 ] stress_180 gradient
 [  9.4244871728e-01  1.7506323468e-04 -3.0979497541e+03 -5.5943290630e+02 
   -1.2774100000e+02 -1.0819683098e+02  2.8179902688e+03 ] stress_181 gradient
 [  9.5446514059e-01  2.1424283761e-04 -2.6260338236e+03 -4.9190793777e+02 
   -1.0617500000e+02 -9.0802165324e+01  2.8353947034e+03 ] stress_182 gradient
 [  9.6386739917e-01  2.5709405327e-04 -2.1515089129e+03 -4.3574294420e+02 
   -8.9453999999e+01 -7.7191201046e+01  2.8490126237e+03 ] stress_183 gradient
 [  9.7130785018e-01  3.0240257908e-04 -1.6777199241e+03 -3.8887924667e+02 
   -7.6334000005e+01 -6.6420192648e+01  2.8597889907e+03 ] stress_184 gradient
 [  9.7725730822e-01  3.4918622883e-04 -1.2079439486e+03 -3.4963201050e+02 
   -6.5926000002e+01 -5.7808514983e+01  2.8684057645e+03 ] stress_185 gradient
 [  9.8205917202e-01  3.9662716254e-04 -7.4541504383e+02 -3.1664053126e+02 
   -5.7585000002e+01 -5.0857111327e+01  2.8753606774e+03 ] stress_186 gradient
 [  9.8596705115e-01  4.4402923332e-04 -2.9329945649e+02 -2.8880994613e+02 
   -5.0842999997e+01 -4.5200280293e+01  2.8810202792e+03 ] stress_187 gradient
 [  9.8917047621e-01  4.9078988874e-04  1.4533697910e+02 -2.6525974043e+02 
   -4.5350000005e+01 -4.0563104726e+01  2.8856599582e+03 ] stress_188 gradient
 [  9.9181227173e-01  5.3637495291e-04  5.6750319445e+02 -2.4528335372e+02 
   -4.0845000001e+01 -3.6738883832e+01  2.8894861768e+03 ] stress_189 gradient
 [  9.9400147673e-01  5.8031049003e-04  9.7034765499e+02 -2.2831066634e+02 
   -3.7132000000e+01 -3.3570155748e+01  2.8926567989e+03 ] stress_190 gradient
 [  9.9582185659e-01  6.2217133248e-04  1.3511583601e+03 -2.1388151871e+02 
   -3.4058999995e+01 -3.0934849023e+01  2.8952931607e+03 ] stress_191 gradient
 [  9.9733816686e-01  6.6156885087e-04  1.7073241560e+03 -2.0162551433e+02 
   -3.1509000007e+01 -2.8739614938e+01  2.8974895994e+03 ] stress_192 gradient
 [  9.9860119493e-01  6.9816288079e-04  2.0364933962e+03 -1.9123973198e+02 
   -2.9394000001e+01 -2.6911620937e+01  2.8993185357e+03 ] stress_193 gradient
 [  9.9965051001e-01  7.3164206391e-04  2.3364370152e+03 -1.8248075138e+02 
   -2.7642999999e+01 -2.5392395844e+01  2.9008384141e+03 ] stress_194 gradient
 [  1.0005171040e+00  7.6172602104e-04  2.6050937360e+03 -1.7515239720e+02 
   -2.6201000003e+01 -2.4138342726e+01  2.9020937035e+03 ] stress_195 gradient
 [  1.0012255957e+00  7.8817793590e-04  2.8407069959e+03 -1.6909433927e+02 
   -2.5024000001e+01 -2.3112532405e+01  2.9031199788e+03 ] stress_196 gradient
 [  1.0017948859e+00  8.1078257150e-04  3.0416402054e+03 -1.6418093595e+02 
   -2.4081000004e+01 -2.2288293809e+01  2.9039442389e+03 ] stress_197 gradient
 [  1.0022398376e+00  8.2936759671e-04  3.2065801806e+03 -1.6031123574e+02 
   -2.3347000001e+01 -2.1644597827e+01  2.9045887182e+03 ] stress_198 gradient
 [  1.0025716689e+00  8.4378973921e-04  3.3344210825e+03 -1.5740842118e+02 
   -2.2797999998e+01 -2.1164005694e+01  2.9050692983e+03 ] stress_199 gradient
 [  1.0027983243e+00  8.5393357253e-04  3.4242618088e+03 -1.5541698396e+02 
   -2.2424999997e+01 -2.0835746387e+01  2.9053974142e+03 ] stress_200 gradient
 [  1.0029253255e+00  8.5972546428e-04  3.4755311832e+03 -1.5429798707e+02 
   -2.2215000001e+01 -2.0652126345e+01  2.9055816419e+03 ] stress_201 gradient
 [  1.0029315021e+00  8.6000922943e-04  3.4780427940e+03 -1.5424350195e+02 
   -2.2204999993e+01 -2.0642894050e+01  2.9055905356e+03 ] stress_202 gradient
 [  9.4381115943e-01 -6.9554359962e-04  3.4611148503e+03  3.6130551678e+02 
   -4.1228999999e+01 -1.2064811669e+02  2.8199923156e+03 ] stress_203 gradient
 [  6.1072671399e-01 -1.4119199260e-03  3.3372472610e+03  1.8113535132e+03 
   -9.2872498001e+01 -6.8387919449e+02  2.3378958031e+03 ] stress_204 gradient
 [  6.1233187574e-01 -8.9780012667e-04  3.3385123391e+03  1.7463293013e+03 
    9.7744999999e+01 -6.8122165846e+02  2.3420812288e+03 ] stress_205 gradient
 [  7.1875081903e-01  4.4085808831e-04  3.4598690427e+03 -1.5343338753e+01 
    4.4519430000e+03 -5.0505463543e+02  2.6195751404e+03 ] stress_206 gradient
 [  7.2704509622e-01  4.7496165582e-04  3.4726779099e+03 -9.8868359099e+01 
    4.6128360000e+03 -4.9132519006e+02  2.6412018831e+03 ] stress_207 gradient
 [  7.2646502434e-01  1.6502734835e-04  3.4725322904e+03 -8.9649285647e+01 
    4.6109410000e+03 -4.9230535182e+02  2.6403166373e+03 ] stress_208 gradient
 [  7.1446752353e-01 -3.5913862806e-04  3.4694416790e+03  3.4661210687e+01 
    4.5742250000e+03 -5.1257074767e+02  2.6220107576e+03 ] stress_209 gradient
 [  6.4822428750e-01 -9.3001078102e-04  3.4508706255e+03  4.8595829400e+02 
    4.3804100000e+03 -6.2445177643e+02  2.5209485287e+03 ] stress_210 gradient
 [  4.7154264084e-01 -1.2826908385e-03  3.3914058277e+03  1.2430293626e+03 
    3.8807131000e+03 -9.2277798605e+02  2.2514677275e+03 ] stress_211 gradient
 [  1.9392352287e-01 -1.2999708422e-03  3.2652405066e+03  1.9020462370e+03 
    3.1163790000e+03 -1.3913711680e+03  1.8281780863e+03 ] stress_212 gradient
 [ -1.0388935146e-01 -1.1069333218e-03  3.0626654913e+03  2.1614424822e+03 
    2.3142130000e+03 -1.8938689712e+03  1.3742553506e+03 ] stress_213 gradient
 [ -3.5468373057e-01 -8.7409939450e-04  2.7902065795e+03  2.0750063839e+03 
    1.6508130000e+03 -2.3169075068e+03  9.9210740544e+02 ] stress_214 gradient
 [ -5.4012645754e-01 -6.8662660205e-04  2.4604626856e+03  1.8246777126e+03 
    1.1676510000e+03 -2.6296437356e+03  7.0959741849e+02 ] stress_215 gradient
 [ -6.6959467008e-01 -5.6111502862e-04  2.0855115363e+03  1.5402724641e+03 
    8.3463000000e+02 -2.8479505338e+03  5.1238929909e+02 ] stress_216 gradient
 [ -7.5847738418e-01 -4.8813290698e-04  1.6753626265e+03  1.2806115340e+03 
    6.0851100000e+02 -2.9978080866e+03  3.7701434527e+02 ] stress_217 gradient
 [ -8.1974397969e-01 -4.5383679357e-04  1.2382545439e+03  1.0631386352e+03 
    4.5413700000e+02 -3.1010979539e+03  2.8370683167e+02 ] stress_218 gradient
 [ -8.6255641901e-01 -4.4660707417e-04  7.8133742443e+02  8.8761221579e+02 
    3.4716900000e+02 -3.1732719167e+03  2.1850738149e+02 ] stress_219 gradient
 [ -8.9300098279e-01 -4.5793650506e-04  3.1116371200e+02  7.4800365707e+02 
    2.7166800000e+02 -3.2245947459e+03  1.7214457739e+02 ] stress_220 gradient
 [ -9.1505331759e-01 -4.8182523479e-04 -1.6609189084e+02  6.3736925930e+02 
    2.1734300001e+02 -3.2617690862e+03  1.3856272813e+02 ] stress_221 gradient
 [ -9.3131359816e-01 -5.1403305908e-04 -6.4446506920e+02  5.4954541977e+02 
    1.7752400000e+02 -3.2891792509e+03  1.1380125600e+02 ] stress_222 gradient
 [ -9.4350200456e-01 -5.5150021642e-04 -1.1181723372e+03  4.7953396572e+02 
    1.4783500000e+02 -3.3097252059e+03  9.5240951447e+01 ] stress_223 gradient
 [ -9.5277296234e-01 -5.9195036959e-04 -1.5815819140e+03  4.2344156337e+02 
    1.2536000000e+02 -3.3253529133e+03  8.1123392951e+01 ] stress_224 gradient
 [ -9.5991464730e-01 -6.3363711214e-04 -2.0292750147e+03  3.7828196329e+02 
    1.0812099999e+02 -3.3373913103e+03  7.0248559438e+01 ] stress_225 gradient
 [ -9.6547338945e-01 -6.7517648885e-04 -2.4560467192e+03  3.4178298366e+02 
    9.4754000008e+01 -3.3467615747e+03  6.1783614697e+01 ] stress_226 gradient
 [ -9.6983370632e-01 -7.1544268741e-04 -2.8569511799e+03  3.1221696018e+02 
    8.4303000006e+01 -3.3541115057e+03  5.5143794624e+01 ] stress_227 gradient
 [ -9.7327059624e-01 -7.5350875850e-04 -3.2274150744e+03  2.8826449437e+02 
    7.6091000005e+01 -3.3599047695e+03  4.9910457681e+01 ] stress_228 gradient
 [ -9.7598177427e-01 -7.8858748760e-04 -3.5631180671e+03  2.6892594723e+02 
    6.9628999995e+01 -3.3644747545e+03  4.5782169246e+01 ] stress_229 gradient
 [ -9.7811194194e-01 -8.2002755407e-04 -3.8602566628e+03  2.5343258811e+02 
    6.4563999990e+01 -3.3680656035e+03  4.2538491356e+01 ] stress_230 gradient
 [ -9.7976668986e-01 -8.4728169297e-04 -4.1154377093e+03  2.4120198566e+02 
    6.0636000001e+01 -3.3708547818e+03  4.0018701240e+01 ] stress_231 gradient
 [ -9.8102255924e-01 -8.6989128118e-04 -4.3256714422e+03  2.3179855921e+02 
    5.7659000004e+01 -3.3729715414e+03  3.8106227233e+01 ] stress_232 gradient
 [ -9.8193548824e-01 -8.8750503616e-04 -4.4886322959e+03  2.2489436373e+02 
    5.5498000006e+01 -3.3745107698e+03  3.6716261074e+01 ] stress_233 gradient
 [ -9.8254391115e-01 -8.9984864318e-04 -4.6024428653e+03  2.2025960303e+02 
    5.4059000001e+01 -3.3755360672e+03  3.5789722843e+01 ] stress_234 gradient
 [ -9.8287251233e-01 -9.0672960687e-04 -4.6657538877e+03  2.1774510199e+02 
    5.3281999999e+01 -3.3760900048e+03  3.5289449373e+01 ] stress_235 gradient
 [ -9.8287216313e-01 -8.7549178939e-04 -4.6657534530e+03  2.1773454751e+02 
    5.3283000011e+01 -3.3760894919e+03  3.5290084642e+01 ] stress_236 gradient
 [ -9.2189248255e-01  6.8590407483e-04 -4.6480074319e+03 -3.2003140971e+02 
    7.8202999998e+01 -3.2733889526e+03  1.3809993546e+02 ] stress_237 gradient
 [ -6.6334744559e-01  1.3637639611e-03 -4.5544984845e+03 -1.5556728059e+03 
    1.3217100000e+02 -2.8380808024e+03  5.7387821300e+02 ] stress_238 gradient
 [ -6.7616232875e-01  3.7631811877e-04 -4.5665900344e+03 -1.1549790812e+03 
    7.1953999998e+01 -2.8596668265e+03  5.5241181193e+02 ] stress_239 gradient
 [ -7.6345081638e-01 -4.2688299595e-04 -4.6864557679e+03  2.1706486657e+02 
   -1.2113900000e+02 -3.0066798072e+03  4.0621443421e+02 ] stress_240 gradient
 [ -6.9449046585e-01  9.5289675599e-04 -4.6677164912e+03 -3.1564894436e+02 
   -9.0305000001e+01 -2.8905406398e+03  5.2243447272e+02 ] stress_241 gradient
 [ -5.3291392996e-01  1.3403210484e-03 -4.6153241077e+03 -1.0591402237e+03 
   -4.2971400000e+01 -2.6184934851e+03  7.9467446473e+02 ] stress_242 gradient
 [ -5.7640869036e-01 -6.1220346893e-05 -4.6505885923e+03 -2.3517229914e+02 
   -1.5978500000e+02 -2.6917570636e+03  7.2159508801e+02 ] stress_243 gradient
 [ -6.3578000170e-01 -4.2538694971e-04 -4.7132175937e+03  4.1979936828e+02 
   -2.4187100000e+02 -2.7917504895e+03  6.2185167533e+02 ] stress_244 gradient
 [ -7.1956616728e-01 -6.8066333939e-04 -4.8386942431e+03  9.6264792296e+02 
   -2.9393600000e+02 -2.9328460833e+03  4.8110902542e+02 ] stress_245 gradient
 [ -7.0818595043e-01  1.7194712444e-04 -4.8356301474e+03  8.2803748141e+02 
   -2.8577700000e+02 -2.9136793303e+03  5.0028236348e+02 ] stress_246 gradient
 [ -5.0158564067e-01  1.1595562707e-03 -4.7680606076e+03 -4.1776162729e+02 
   -1.9522644940e+02 -2.5658204739e+03  8.4826839038e+02 ] stress_247 gradient
 [ -3.8453715705e-02  1.1863699761e-03 -4.5285581267e+03 -1.6678934847e+03 
   -6.7896000002e+01 -1.7864250850e+03  1.6279670556e+03 ] stress_248 gradient
 [  3.1770682140e-01  9.1116321619e-04 -4.1892007361e+03 -1.8807653104e+03 
   -7.1289999994e+00 -1.1873256978e+03  2.2273127774e+03 ] stress_249 gradient
 [  4.9372985141e-01  7.4576255117e-04 -3.9056143192e+03 -1.7679245489e+03 
    1.2077000002e+01 -8.9131274180e+02  2.5234511666e+03 ] stress_250 gradient
 [  5.4934905054e-01  6.9287489327e-04 -3.7850509160e+03 -1.6993692789e+03 
    1.6518000001e+01 -7.9778961459e+02  2.6170146932e+03 ] stress_251 gradient
 [  5.4786892656e-01  1.9111317333e-04 -3.7855273309e+03 -1.6711068166e+03 
    1.3249999995e+01 -8.0028233368e+02  2.6145222196e+03 ] stress_252 gradient
 [  4.6123920399e-01 -1.0633982027e-03 -3.8167604368e+03 -8.1647431499e+02 
   -8.1854950000e+01 -9.4618588002e+02  2.4686441180e+03 ] stress_253 gradient
 [  1.1698110557e-01 -1.6436887676e-03 -3.9922031659e+03  9.3791660578e+02 
   -2.5792100000e+02 -1.5257877109e+03  1.8891339469e+03 ] stress_254 gradient
 [ -2.2894264032e-01 -1.5898211976e-03 -4.2922063367e+03  1.6913961452e+03 
   -3.0868900000e+02 -2.1079632794e+03  1.3070395601e+03 ] stress_255 gradient
 [ -4.0830775129e-01 -1.4903108503e-03 -4.5453004599e+03  1.7833403121e+03 
   -2.9746000000e+02 -2.4097525734e+03  1.0052885791e+03 ] stress_256 gradient
 [ -4.4940136372e-01 -1.4643023469e-03 -4.6199015596e+03  1.7755514090e+03 
   -2.9126400000e+02 -2.4788880859e+03  9.3616190273e+02 ] stress_257 gradient
 [ -4.2144970351e-01 -2.2700084787e-04 -4.6103780427e+03  1.4202962651e+03 
   -2.6963600000e+02 -2.4318141631e+03  9.8323557161e+02 ] stress_258 gradient
 [ -1.3865967834e-01  7.2132455520e-04 -4.4818665085e+03 -3.9858063633e+02 
   -1.3881850000e+02 -1.9557144089e+03  1.4593412588e+03 ] stress_259 gradient
 [  4.0939351456e-02  7.9017111443e-04 -4.3656737776e+03 -1.0430938390e+03 
   -8.1496000001e+01 -1.6534415992e+03  1.7616226568e+03 ] stress_260 gradient
 [  2.5171095293e-02 -1.8321068543e-04 -4.3719531958e+03 -8.0418491499e+02 
   -1.1370650000e+02 -1.6799951098e+03  1.7350713491e+03 ] stress_261 gradient
 [ -2.1326507249e-01 -1.1723424768e-03 -4.5041292561e+03  8.3277739761e+02 
   -3.0738400000e+02 -2.0814019727e+03  1.3336947658e+03 ] stress_262 gradient
 [ -4.6930028695e-01 -1.2665535669e-03 -4.7528986967e+03  1.4972688354e+03 
   -3.4975600000e+02 -2.5122756474e+03  9.0284559545e+02 ] stress_263 gradient
 [ -5.1900547226e-01 -1.2595868925e-03 -4.8237945402e+03  1.5395790828e+03 
   -3.4474500000e+02 -2.5959079115e+03  8.1921765881e+02 ] stress_264 gradient
 [ -5.1889453444e-01 -1.0576979715e-03 -4.8237610695e+03  1.5369711708e+03 
   -3.4460100000e+02 -2.5957207011e+03  8.1940442757e+02 ] stress_265 gradient
 [ -5.1522706061e-01 -6.1731882212e-04 -4.8226308881e+03  1.4786749516e+03 
   -3.4113000000e+02 -2.5895437843e+03  8.2558113734e+02 ] stress_266 gradient
 [ -4.8797433267e-01 -2.2444231214e-05 -4.8138163427e+03  1.1764069363e+03 
   -3.2157600000e+02 -2.5436464659e+03  8.7147701954e+02 ] stress_267 gradient
 [ -3.9396824898e-01  5.3127637294e-04 -4.7795368111e+03  4.5391878290e+02 
   -2.6958000000e+02 -2.3853526490e+03  1.0297664041e+03 ] stress_268 gradient
 [ -2.0574746263e-01  8.4320702761e-04 -4.6940467615e+03 -5.1045033821e+02 
   -1.8903700000e+02 -2.0684897904e+03  1.3466239604e+03 ] stress_269 gradient
 [  4.2300724170e-02  8.8644517460e-04 -4.5383072452e+03 -1.2847683182e+03 
   -1.0743200000e+02 -1.6510288933e+03  1.7640833670e+03 ] stress_270 gradient
 [  2.8517648255e-01  7.8245320780e-04 -4.3094968079e+03 -1.6522639295e+03 
   -4.6964000001e+01 -1.2423824766e+03  2.1727334183e+03 ] stress_271 gradient
 [  4.8313575878e-01  6.4912907198e-04 -4.0163021105e+03 -1.6901486929e+03 
   -1.0711000004e+01 -9.0938136484e+02  2.5057414858e+03 ] stress_272 gradient
 [  6.2946545063e-01  5.4171150647e-04 -3.6707747988e+03 -1.5561858891e+03 
    8.0389999994e+00 -6.6326792617e+02  2.7518614217e+03 ] stress_273 gradient
 [  7.3312723005e-01  4.7252572282e-04 -3.2838915422e+03 -1.3636213758e+03 
    1.6490000002e+01 -4.8893659072e+02  2.9261983086e+03 ] stress_274 gradient
 [  8.0572517563e-01  4.3723120082e-04 -2.8647881184e+03 -1.1697270986e+03 
    1.9500000002e+01 -3.6685541700e+02  3.0482837756e+03 ] stress_275 gradient
 [  8.5680186058e-01  4.2787301540e-04 -2.4212180064e+03 -9.9705355740e+02 
    1.9837999997e+01 -2.8096893475e+02  3.1341735836e+03 ] stress_276 gradient
 [  8.9318787253e-01  4.3723772009e-04 -1.9599809859e+03 -8.5129421929e+02 
    1.8967000000e+01 -2.1978704252e+02  3.1953575054e+03 ] stress_277 gradient
 [  9.1951658423e-01  4.5973612694e-04 -1.4873552146e+03 -7.3122617745e+02 
    1.7624999998e+01 -1.7551768510e+02  3.2396290076e+03 ] stress_278 gradient
 [  9.3888332021e-01  4.9122774114e-04 -1.0092884893e+03 -6.3334061913e+02 
    1.6172999995e+01 -1.4295436218e+02  3.2721934753e+03 ] stress_279 gradient
 [  9.5335781396e-01  5.2865229581e-04 -5.3150778675e+02 -5.5379252313e+02 
    1.4777000001e+01 -1.1861752515e+02  3.2965315414e+03 ] stress_280 gradient
 [  9.6433668601e-01  5.6970823576e-04 -5.9563601723e+01 -4.8911864222e+02 
    1.3507999995e+01 -1.0015858129e+02  3.3149914736e+03 ] stress_281 gradient
 [  9.7277468257e-01  6.1261898398e-04  4.0116918399e+02 -4.3643030862e+02 
    1.2389000005e+01 -8.5971624511e+01  3.3291792292e+03 ] stress_282 gradient
 [  9.7933356748e-01  6.5597223401e-04  8.4549695222e+02 -3.9340474797e+02 
    1.1419999998e+01 -7.4943650625e+01  3.3402074799e+03 ] stress_283 gradient
 [  9.8447933198e-01  6.9861948241e-04  1.2684821144e+03 -3.5820282336e+02 
    1.0588999999e+01 -6.6291966355e+01  3.3488595111e+03 ] stress_284 gradient
 [  9.8854369825e-01  7.3960042549e-04  1.6654065979e+03 -3.2938655693e+02 
    9.8839999964e+00 -5.9458530886e+01  3.3556930879e+03 ] stress_285 gradient
 [  9.9176674422e-01  7.7810839195e-04  2.0319083373e+03 -3.0583001188e+02 
    9.2909999921e+00 -5.4039174950e+01  3.3611125583e+03 ] stress_286 gradient
 [  9.9432326844e-01  8.1345542187e-04  2.3639547585e+03 -2.8665782285e+02 
    8.7969999981e+00 -4.9741542595e+01  3.3654107809e+03 ] stress_287 gradient
 [  9.9634145067e-01  8.4505134440e-04  2.6578553845e+03 -2.7119294636e+02 
    8.3919999952e+00 -4.6348162047e+01  3.3688043820e+03 ] stress_288 gradient
 [  9.9791620899e-01  8.7240539490e-04  2.9104183224e+03 -2.5890922676e+02 
    8.0649999973e+00 -4.3700545600e+01  3.3714518610e+03 ] stress_289 gradient
 [  9.9911705689e-01  8.9510736472e-04  3.1188702809e+03 -2.4940691743e+02 
    7.8089999988e+00 -4.1681237974e+01  3.3734710600e+03 ] stress_290 gradient
 [  9.9999425793e-01  9.1282492266e-04  3.2808991697e+03 -2.4238827985e+02 
    7.6189999959e+00 -4.0206635636e+01  3.3749461521e+03 ] stress_291 gradient
 [  1.0005833218e+00  9.2531109450e-04  3.3947684216e+03 -2.3763697504e+02 
    7.4890000064e+00 -3.9216215770e+01  3.3759365347e+03 ] stress_292 gradient
 [  1.0009071214e+00  9.3238864704e-04  3.4592031050e+03 -2.3501196898e+02 
    7.4169999948e+00 -3.8672023393e+01  3.3764809593e+03 ] stress_293 gradient
 [  1.0009118357e+00  9.3249325859e-04  3.4601546308e+03 -2.3497353244e+02 
    7.4160000054e+00 -3.8663816910e+01  3.3764889001e+03 ] stress_294 gradient
 [  9.3843090429e-01 -6.6939192496e-04  3.4419630574e+03  3.1326892669e+02 
   -1.3682999997e+01 -1.4389605606e+02  3.2712621726e+03 ] stress_295 gradient
 [  6.1633293173e-01 -1.3779201098e-03  3.3208114905e+03  1.7497026191e+03 
   -6.9296189999e+01 -6.8619882860e+02  2.7289789418e+03 ] stress_296 gradient
 [  6.1914923726e-01 -7.6701148171e-04  3.3230475456e+03  1.6446547640e+03 
    2.0065000000e+02 -6.8145605612e+02  2.7337213469e+03 ] stress_297 gradient
 [  7.3084799583e-01  4.7937090632e-04  3.4538612593e+03 -1.1995805953e+02 
    4.0099210000e+03 -4.9336860422e+02  2.9218003490e+03 ] stress_298 gradient
 [  7.3779019786e-01  5.0607838670e-04  3.4650231045e+03 -1.8559531164e+02 
    4.1176530000e+03 -4.8168000849e+02  2.9334889607e+03 ] stress_299 gradient
 [  7.3762089928e-01  2.9727130674e-04  3.4649805053e+03 -1.8251388287e+02 
    4.1171380000e+03 -4.8196467085e+02  2.9332037254e+03 ] stress_300 gradient
 [  7.3407119458e-01 -6.7855246024e-05  3.4640754909e+03 -1.3779938362e+02 
    4.1070500000e+03 -4.8794360632e+02  2.9272252192e+03 ] stress_301 gradient
 [  7.1259375907e-01 -5.3434159749e-04  3.4583841582e+03  5.4829457534e+01 
    4.0489420000e+03 -5.2411675577e+02  2.8910543356e+03 ] stress_302 gradient
 [  6.4288910153e-01 -9.8103276520e-04  3.4382260692e+03  4.9727669611e+02 
    3.8673210000e+03 -6.4149869239e+02  2.7736774742e+03 ] stress_303 gradient
 [  4.9646486482e-01 -1.2648883532e-03  3.3886341448e+03  1.1317629018e+03 
    3.4972029000e+03 -8.8802101905e+02  2.5271638310e+03 ] stress_304 gradient
 [  2.7878827121e-01 -1.3224666717e-03  3.2951055497e+03  1.7254052361e+03 
    2.9606850000e+03 -1.2543998446e+03  2.1607929229e+03 ] stress_305 gradient
 [  3.1430170907e-02 -1.2074356090e-03  3.1499885212e+03  2.0748887610e+03 
    2.3638820000e+03 -1.6706116124e+03  1.7445841365e+03 ] stress_306 gradient
 [ -2.0061523635e-01 -1.0200701571e-03  2.9536673212e+03  2.1479000774e+03 
    1.8141470000e+03 -2.0609529568e+03  1.3542409178e+03 ] stress_307 gradient
 [ -3.9305564518e-01 -8.3502794070e-04  2.7113034009e+03  2.0287600732e+03 
    1.3653660000e+03 -2.3846012429e+03  1.0305878055e+03 ] stress_308 gradient
 [ -5.4178823320e-01 -6.8559241327e-04  2.4292005645e+03  1.8168139829e+03 
    1.0232410000e+03 -2.6346999547e+03  7.8048283399e+02 ] stress_309 gradient
 [ -6.5274259746e-01 -5.7842338863e-04  2.1131549036e+03  1.5804970292e+03 
    7.7108200000e+02 -2.8212512556e+03  5.9392625144e+02 ] stress_310 gradient
 [ -7.3440540485e-01 -5.0887843865e-04  1.7679714278e+03  1.3556460734e+03 
    5.8747500000e+02 -2.9585421190e+03  4.5663088277e+02 ] stress_311 gradient
 [ -7.9446794416e-01 -4.6943594235e-04  1.3975792564e+03  1.1568063290e+03 
    4.5373100000e+02 -3.0595121163e+03  3.5565695618e+02 ] stress_312 gradient
 [ -8.3891889341e-01 -4.5303977484e-04  1.0053680639e+03  9.8733542072e+02 
    3.5561000000e+02 -3.1342347048e+03  2.8093166386e+02 ] stress_313 gradient
 [ -8.7214661495e-01 -4.5399345821e-04  5.9430979282e+02  8.4551887451e+02 
    2.8284500000e+02 -3.1900885382e+03  2.2507541629e+02 ] stress_314 gradient
 [ -8.9727650850e-01 -4.6796283990e-04  1.6714947981e+02  7.2781797143e+02 
    2.2821300000e+02 -3.2323298686e+03  1.8283264214e+02 ] stress_315 gradient
 [ -9.1651528295e-01 -4.9171244132e-04 -2.7348346467e+02  6.3037595690e+02 
    1.8666700000e+02 -3.2646680262e+03  1.5049305925e+02 ] stress_316 gradient
 [ -9.3142418678e-01 -5.2282780770e-04 -7.2504917529e+02  5.4963322545e+02 
    1.5467200000e+02 -3.2897275466e+03  1.2543237594e+02 ] stress_317 gradient
 [ -9.4311360215e-01 -5.5948596905e-04 -1.1850347372e+03  4.8253964471e+02 
    1.2972899999e+02 -3.3093754046e+03  1.0578353985e+02 ] stress_318 gradient
 [ -9.5238084964e-01 -6.0028528222e-04 -1.6509472311e+03  4.2657032601e+02 
    1.1006000001e+02 -3.3249523344e+03  9.0206135725e+01 ] stress_319 gradient
 [ -9.5980458249e-01 -6.4412545605e-04 -2.1203228616e+03  3.7967158407e+02 
    9.4382000009e+01 -3.3374302911e+03  7.7727568402e+01 ] stress_320 gradient
 [ -9.6580886560e-01 -6.9011865688e-04 -2.5906874008e+03  3.4019122632e+02 
    8.1760000000e+01 -3.3475222131e+03  6.7635067305e+01 ] stress_321 gradient
 [ -9.7070841928e-01 -7.3753391781e-04 -3.0596048732e+03  3.0680093470e+02 
    7.1505000005e+01 -3.3557569055e+03  5.9399771907e+01 ] stress_322 gradient
 [ -9.7473886910e-01 -7.8575120062e-04 -3.5246375644e+03  2.7843633089e+02 
    6.3103000002e+01 -3.3625313568e+03  5.2625275042e+01 ] stress_323 gradient
 [ -9.7807885484e-01 -8.3423643051e-04 -3.9833925326e+03  2.5424053381e+02 
    5.6165000001e+01 -3.3681456168e+03  4.7011094991e+01 ] stress_324 gradient
 [ -9.8086504631e-01 -8.8252183718e-04 -4.4335363882e+03  2.3352180820e+02 
    5.0399000008e+01 -3.3728284409e+03  4.2327900051e+01 ] stress_325 gradient
 [ -9.8320272859e-01 -9.3018467878e-04 -4.8727361757e+03  2.1572253518e+02 
    4.5576000002e+01 -3.3767572944e+03  3.8398768101e+01 ] stress_326 gradient
 [ -9.8517413928e-01 -9.7684926339e-04 -5.2987810866e+03  2.0038730414e+02 
    4.1521000003e+01 -3.3800706618e+03  3.5085210745e+01 ] stress_327 gradient
 [ -9.8684355378e-01 -1.0221641063e-03 -5.7094459677e+03  1.8714758701e+02 
    3.8097000004e+01 -3.3828767659e+03  3.2278914803e+01 ] stress_328 gradient
 [ -9.8826208686e-01 -1.0658165858e-03 -6.1026778008e+03  1.7569880542e+02 
    3.5193999997e+01 -3.3852612620e+03  2.9894436745e+01 ] stress_329 gradient
 [ -9.8947031169e-01 -1.1075151540e-03 -6.4764748611e+03  1.6579204502e+02 
    3.2728999997e+01 -3.3872918535e+03  2.7863802912e+01 ] stress_330 gradient
 [ -9.9050066062e-01 -1.1469885284e-03 -6.8289071463e+03  1.5722285592e+02 
    3.0630000003e+01 -3.3890239343e+03  2.6131744986e+01 ] stress_331 gradient
 [ -9.9137934577e-01 -1.1839934240e-03 -7.1582098348e+03  1.4982118762e+02 
    2.8843999996e+01 -3.3905000753e+03  2.4655064755e+01 ] stress_332 gradient
 [ -9.9212742855e-01 -1.2183015652e-03 -7.4626820037e+03  1.4344759645e+02 
    2.7325999997e+01 -3.3917582317e+03  2.3397551954e+01 ] stress_333 gradient
 [ -9.9276206360e-01 -1.2497097428e-03 -7.7407896489e+03  1.3798600544e+02 
    2.6040000000e+01 -3.3928245615e+03  2.2330937152e+01 ] stress_334 gradient
 [ -9.9329710996e-01 -1.2780368324e-03 -7.9911482985e+03  1.3334035661e+02 
    2.4957000005e+01 -3.3937236843e+03  2.1431397810e+01 ] stress_335 gradient
 [ -9.9374363305e-01 -1.3031099973e-03 -8.2124095589e+03  1.2943350999e+02 
    2.4056000007e+01 -3.3944740645e+03  2.0681146423e+01 ] stress_336 gradient
 [ -9.9411077766e-01 -1.3247933438e-03 -8.4035193187e+03  1.2620014792e+02 
    2.3314999999e+01 -3.3950910894e+03  2.0063983658e+01 ] stress_337 gradient
 [ -9.9440563698e-01 -1.3429600744e-03 -8.5634747593e+03  1.2358917742e+02 
    2.2720000004e+01 -3.3955865558e+03  1.9568474698e+01 ] stress_338 gradient
 [ -9.9463379830e-01 -1.3575066895e-03 -8.6914569339e+03  1.2155998209e+02 
    2.2260000003e+01 -3.3959707218e+03  1.9184772890e+01 ] stress_339 gradient
 [ -9.9479951754e-01 -1.3683544019e-03 -8.7868398958e+03  1.2008106533e+02 
    2.1925999999e+01 -3.3962487164e+03  1.8906207916e+01 ] stress_340 gradient
 [ -9.9490580658e-01 -1.3754410005e-03 -8.8491272347e+03  1.1913031724e+02 
    2.1712000000e+01 -3.3964277203e+03  1.8727697636e+01 ] stress_341 gradient
 [ -9.9495456422e-01 -1.3787257021e-03 -8.8779916325e+03  1.1869369113e+02 
    2.1614000002e+01 -3.3965097851e+03  1.8645748077e+01 ] stress_342 gradient



---------------------
Begin Evaluation   54
---------------------
Parameters for evaluation 54:
                      4.7321793896e+02 fy
                      1.8937010078e+05 E
                      2.5321981255e-02 b
                      8.5488523838e-01 cR1
                      1.0199082837e-03 cR2
                      1.3642106199e-02 a1
                      2.7555833303e-02 a3

blocking fork: workflow_driver1 paramsDakota.in results.out

Active response data for evaluation 54:
Active set vector = { 1 1 1 1 1 1 1 1 1 1 1 1 1 1 1 1 1 1 1 1 1 1 1 1 1 1 1 1 1 1 1 1 1 1 1 1 1 1 1 1 1 1 1 1 1 1 1 1 1 1 1 1 1 1 1 1 1 1 1 1 1 1 1 1 1 1 1 1 1 1 1 1 1 1 1 1 1 1 1 1 1 1 1 1 1 1 1 1 1 1 1 1 1 1 1 1 1 1 1 1 1 1 1 1 1 1 1 1 1 1 1 1 1 1 1 1 1 1 1 1 1 1 1 1 1 1 1 1 1 1 1 1 1 1 1 1 1 1 1 1 1 1 1 1 1 1 1 1 1 1 1 1 1 1 1 1 1 1 1 1 1 1 1 1 1 1 1 1 1 1 1 1 1 1 1 1 1 1 1 1 1 1 1 1 1 1 1 1 1 1 1 1 1 1 1 1 1 1 1 1 1 1 1 1 1 1 1 1 1 1 1 1 1 1 1 1 1 1 1 1 1 1 1 1 1 1 1 1 1 1 1 1 1 1 1 1 1 1 1 1 1 1 1 1 1 1 1 1 1 1 1 1 1 1 1 1 1 1 1 1 1 1 1 1 1 1 1 1 1 1 1 1 1 1 1 1 1 1 1 1 1 1 1 1 1 1 1 1 1 1 1 1 1 1 1 1 1 1 1 1 1 1 1 1 1 1 1 1 1 1 1 1 1 1 1 1 1 1 1 1 1 1 1 1 1 1 1 1 1 1 1 1 1 1 1 1 1 1 1 1 1 1 }
                      2.2067746651e+00 stress_1
                     -2.2667909719e+02 stress_2
                     -4.5634467911e+02 stress_3
                     -4.6680063957e+02 stress_4
                     -1.6956101460e+02 stress_5
                      1.8952290213e+02 stress_6
                      3.3096153018e+02 stress_7
                      3.3192568281e+02 stress_8
                      1.0594191764e+02 stress_9
                     -2.1393609714e+02 stress_10
                     -3.9439982049e+02 stress_11
                     -4.5658091140e+02 stress_12
                     -4.7847519131e+02 stress_13
                     -4.8010079807e+02 stress_14
                     -1.7865127104e+02 stress_15
                     -3.2800729304e+02 stress_16
                     -4.4631804779e+02 stress_17
                     -2.6889678271e+02 stress_18
                      3.6683830799e+01 stress_19
                      2.9130986514e+02 stress_20
                      4.0736120778e+02 stress_21
                      4.5378832691e+02 stress_22
                      4.7396756272e+02 stress_23
                      4.8080418553e+02 stress_24
                      1.7867099823e+02 stress_25
                      2.9423706708e+02 stress_26
                      4.0326012679e+02 stress_27
                      4.2460392705e+02 stress_28
                      3.1264300087e+02 stress_29
                      1.1752280671e+02 stress_30
                     -1.1752460740e+02 stress_31
                     -3.0506157734e+02 stress_32
                     -4.0903820394e+02 stress_33
                     -4.6112539763e+02 stress_34
                     -4.9061258724e+02 stress_35
                     -5.1056018381e+02 stress_36
                     -5.2586591251e+02 stress_37
                     -5.3826277751e+02 stress_38
                     -5.4828705949e+02 stress_39
                     -5.5601701142e+02 stress_40
                     -5.6138417972e+02 stress_41
                     -5.6428945033e+02 stress_42
                     -5.5019711534e+02 stress_43
                     -1.9360418421e+02 stress_44
                      6.7639418466e+01 stress_45
                     -1.1885294576e+02 stress_46
                     -3.9320311209e+02 stress_47
                     -1.2202802911e+02 stress_48
                     -2.1572626961e+02 stress_49
                     -3.5592630947e+02 stress_50
                     -4.9960840815e+02 stress_51
                     -3.4459886713e+02 stress_52
                     -3.2681221874e+01 stress_53
                      2.3734775747e+02 stress_54
                      3.5857344445e+02 stress_55
                      4.0328089952e+02 stress_56
                      4.1690012293e+02 stress_57
                      3.3820817564e+02 stress_58
                      5.0696144592e+01 stress_59
                     -2.7130281371e+02 stress_60
                     -4.3846129773e+02 stress_61
                     -4.9788326903e+02 stress_62
                     -5.1152367410e+02 stress_63
                     -2.6599145677e+02 stress_64
                      9.3638827971e+01 stress_65
                      1.8085730153e+02 stress_66
                     -6.5130267852e+01 stress_67
                     -3.8598213949e+02 stress_68
                     -4.8762885793e+02 stress_69
                     -4.8903382830e+02 stress_70
                     -4.0208982889e+02 stress_71
                     -2.4438300653e+02 stress_72
                     -3.6004490665e+01 stress_73
                      1.6678325836e+02 stress_74
                      3.0654525345e+02 stress_75
                      3.8367433659e+02 stress_76
                      4.2588219447e+02 stress_77
                      4.5220384275e+02 stress_78
                      4.7139515920e+02 stress_79
                      4.8707460116e+02 stress_80
                      5.0067723083e+02 stress_81
                      5.1271891033e+02 stress_82
                      5.2332002977e+02 stress_83
                      5.3243395159e+02 stress_84
                      5.3994681522e+02 stress_85
                      5.4573403772e+02 stress_86
                      5.4968561976e+02 stress_87
                      5.5171757957e+02 stress_88
                      4.8453022461e+02 stress_89
                      8.0833139175e+01 stress_90
                     -1.2134238572e+02 stress_91
                      1.3851234233e+02 stress_92
                      4.0910865666e+02 stress_93
                      4.1471303267e+02 stress_94
                      3.5985325046e+02 stress_95
                      2.6112569066e+02 stress_96
                      1.2271677842e+02 stress_97
                     -4.0346036809e+01 stress_98
                     -1.9640533473e+02 stress_99
                     -3.1460226758e+02 stress_100
                     -3.8974062606e+02 stress_101
                     -4.3496191877e+02 stress_102
                     -4.6368879166e+02 stress_103
                     -4.8409718057e+02 stress_104
                     -5.0039883388e+02 stress_105
                     -5.1466365060e+02 stress_106
                     -5.2789350375e+02 stress_107
                     -5.4056246788e+02 stress_108
                     -5.5287779275e+02 stress_109
                     -5.6490806185e+02 stress_110
                     -5.7664697289e+02 stress_111
                     -5.8804641934e+02 stress_112
                     -5.9903755802e+02 stress_113
                     -6.0954025465e+02 stress_114
                     -6.1946918049e+02 stress_115
                     -6.2873906553e+02 stress_116
                     -6.3726627045e+02 stress_117
                     -6.4497385474e+02 stress_118
                     -6.5179027247e+02 stress_119
                     -6.5764998533e+02 stress_120
                     -6.6249890896e+02 stress_121
                     -6.6629026274e+02 stress_122
                     -6.6898727511e+02 stress_123
                     -6.7056509848e+02 stress_124
                     -6.7098897313e+02 stress_125
                     -5.7748856542e+02 stress_126
                     -3.4618894754e+02 stress_127
                     -4.8366077141e+01 stress_128
                      1.7920044943e+02 stress_129
                      2.9503900645e+02 stress_130
                      3.4844531696e+02 stress_131
                      3.7438297682e+02 stress_132
                      3.8620949497e+02 stress_133
                      3.8687124582e+02 stress_134
                      1.6361537285e+01 stress_135
                     -3.9314057427e+00 stress_136
                      1.6622870815e+02 stress_137
                      1.3329992832e+02 stress_138
                     -2.4052444774e+01 stress_139
                     -2.9370883984e+02 stress_140
                     -5.0916935711e+02 stress_141
                     -6.0431973963e+02 stress_142
                     -6.4302167357e+02 stress_143
                     -6.6097176904e+02 stress_144
                     -6.6844604937e+02 stress_145
                     -6.4985809940e+02 stress_146
                     -4.3206275579e+02 stress_147
                     -9.8193571836e+01 stress_148
                      1.5864560476e+02 stress_149
                      2.7568124677e+02 stress_150
                      3.1856497803e+02 stress_151
                      3.2383081980e+02 stress_152
                      1.2671139137e+02 stress_153
                     -2.0986152887e+02 stress_154
                     -4.6378359886e+02 stress_155
                     -5.6927453157e+02 stress_156
                     -6.0104696767e+02 stress_157
                     -4.8915084715e+02 stress_158
                     -1.1078809958e+02 stress_159
                      6.9467865098e+01 stress_160
                     -8.2130216404e+01 stress_161
                     -4.2354072839e+02 stress_162
                     -5.7513641199e+02 stress_163
                     -5.8913283857e+02 stress_164
                     -5.5107940616e+02 stress_165
                     -4.7603412647e+02 stress_166
                     -3.6538147013e+02 stress_167
                     -2.2426176400e+02 stress_168
                     -6.7071684232e+01 stress_169
                      8.1474512572e+01 stress_170
                      1.9874057915e+02 stress_171
                      2.7907553627e+02 stress_172
                      3.3078281519e+02 stress_173
                      3.6464170627e+02 stress_174
                      3.8845341926e+02 stress_175
                      4.0682495446e+02 stress_176
                      4.2228506391e+02 stress_177
                      4.3619262630e+02 stress_178
                      4.4927111012e+02 stress_179
                      4.6190126243e+02 stress_180
                      4.7427516395e+02 stress_181
                      4.8647688257e+02 stress_182
                      4.9852935872e+02 stress_183
                      5.1041822282e+02 stress_184
                      5.2210773997e+02 stress_185
                      5.3354867734e+02 stress_186
                      5.4468422628e+02 stress_187
                      5.5545390582e+02 stress_188
                      5.6579498010e+02 stress_189
                      5.7564536948e+02 stress_190
                      5.8494442675e+02 stress_191
                      5.9363259669e+02 stress_192
                      6.0165571180e+02 stress_193
                      6.0896182513e+02 stress_194
                      6.1550257585e+02 stress_195
                      6.2123658001e+02 stress_196
                      6.2612509986e+02 stress_197
                      6.3013700336e+02 stress_198
                      6.3324596701e+02 stress_199
                      6.3543054020e+02 stress_200
                      6.3667710887e+02 stress_201
                      6.3673817005e+02 stress_202
                      3.0415823617e+02 stress_203
                     -3.0043107635e+01 stress_204
                      6.9114108987e+01 stress_205
                      4.2804048042e+02 stress_206
                      4.4168621605e+02 stress_207
                      3.8261060011e+02 stress_208
                      2.7562316434e+02 stress_209
                      1.2621166018e+02 stress_210
                     -4.5758573847e+01 stress_211
                     -2.0202558807e+02 stress_212
                     -3.1274408513e+02 stress_213
                     -3.7966047577e+02 stress_214
                     -4.1936391305e+02 stress_215
                     -4.4508343129e+02 stress_216
                     -4.6404232745e+02 stress_217
                     -4.7975006051e+02 stress_218
                     -4.9385875728e+02 stress_219
                     -5.0713271372e+02 stress_220
                     -5.1990780272e+02 stress_221
                     -5.3230537010e+02 stress_222
                     -5.4433679977e+02 stress_223
                     -5.5595509214e+02 stress_224
                     -5.6708364174e+02 stress_225
                     -5.7763066434e+02 stress_226
                     -5.8749851539e+02 stress_227
                     -5.9659109767e+02 stress_228
                     -6.0481355401e+02 stress_229
                     -6.1208057706e+02 stress_230
                     -6.1831461604e+02 stress_231
                     -6.2344650630e+02 stress_232
                     -6.2742218919e+02 stress_233
                     -6.3019770073e+02 stress_234
                     -6.3174132187e+02 stress_235
                     -6.2582558983e+02 stress_236
                     -2.9079913314e+02 stress_237
                     -6.1269321076e+00 stress_238
                     -2.0748064944e+02 stress_239
                     -4.4410474702e+02 stress_240
                     -1.3954172926e+02 stress_241
                      3.0483050911e+01 stress_242
                     -2.7536499881e+02 stress_243
                     -3.9333282704e+02 stress_244
                     -4.9941635859e+02 stress_245
                     -3.3046873805e+02 stress_246
                     -1.4551288406e+01 stress_247
                      2.5089501976e+02 stress_248
                      3.7021596241e+02 stress_249
                      4.1448230737e+02 stress_250
                      4.2718262107e+02 stress_251
                      3.3109914662e+02 stress_252
                      3.4319068346e+01 stress_253
                     -2.9208152939e+02 stress_254
                     -4.6885570692e+02 stress_255
                     -5.3402168393e+02 stress_256
                     -5.4712963629e+02 stress_257
                     -2.9322802169e+02 stress_258
                      7.1570393996e+01 stress_259
                      1.9208290845e+02 stress_260
                     -4.0004167593e+00 stress_261
                     -3.5129484621e+02 stress_262
                     -5.1106700956e+02 stress_263
                     -5.3360662313e+02 stress_264
                     -4.9529562570e+02 stress_265
                     -4.0933406239e+02 stress_266
                     -2.7808912870e+02 stress_267
                     -1.1101736686e+02 stress_268
                      6.6815603114e+01 stress_269
                      2.1913508155e+02 stress_270
                      3.2531756639e+02 stress_271
                      3.9118067570e+02 stress_272
                      4.3185423708e+02 stress_273
                      4.5898684871e+02 stress_274
                      4.7918726787e+02 stress_275
                      4.9583924215e+02 stress_276
                      5.1062588615e+02 stress_277
                      5.2437040935e+02 stress_278
                      5.3746057300e+02 stress_279
                      5.5005808174e+02 stress_280
                      5.6220412500e+02 stress_281
                      5.7387461775e+02 stress_282
                      5.8500974728e+02 stress_283
                      5.9553214891e+02 stress_284
                      6.0535516992e+02 stress_285
                      6.1439164017e+02 stress_286
                      6.2255651280e+02 stress_287
                      6.2976908134e+02 stress_288
                      6.3595815929e+02 stress_289
                      6.4106084052e+02 stress_290
                      6.4502409751e+02 stress_291
                      6.4780791289e+02 stress_292
                      6.4938267033e+02 stress_293
                      6.4940592447e+02 stress_294
                      3.0576819456e+02 stress_295
                     -2.1107294854e+01 stress_296
                      9.7700193337e+01 stress_297
                      4.4236669285e+02 stress_298
                      4.5327248027e+02 stress_299
                      4.1361789242e+02 stress_300
                      3.4215416602e+02 stress_301
                      2.4010772643e+02 stress_302
                      1.1226747053e+02 stress_303
                     -2.8829777222e+01 stress_304
                     -1.6190447051e+02 stress_305
                     -2.6766515279e+02 stress_306
                     -3.4099111063e+02 stress_307
                     -3.8871821556e+02 stress_308
                     -4.2019173321e+02 stress_309
                     -4.4236710230e+02 stress_310
                     -4.5945833417e+02 stress_311
                     -4.7382753495e+02 stress_312
                     -4.8676552757e+02 stress_313
                     -4.9897682010e+02 stress_314
                     -5.1084337592e+02 stress_315
                     -5.2256733062e+02 stress_316
                     -5.3424909226e+02 stress_317
                     -5.4592889606e+02 stress_318
                     -5.5761110571e+02 stress_319
                     -5.6927844098e+02 stress_320
                     -5.8089931897e+02 stress_321
                     -5.9243409063e+02 stress_322
                     -6.0383708424e+02 stress_323
                     -6.1505982121e+02 stress_324
                     -6.2605257884e+02 stress_325
                     -6.3676374785e+02 stress_326
                     -6.4714341043e+02 stress_327
                     -6.5714035410e+02 stress_328
                     -6.6670689198e+02 stress_329
                     -6.7579606189e+02 stress_330
                     -6.8436229381e+02 stress_331
                     -6.9236376204e+02 stress_332
                     -6.9975994033e+02 stress_333
                     -7.0651425993e+02 stress_334
                     -7.1259359774e+02 stress_335
                     -7.1796564406e+02 stress_336
                     -7.2260510615e+02 stress_337
                     -7.2648791441e+02 stress_338
                     -7.2959436342e+02 stress_339
                     -7.3190944524e+02 stress_340
                     -7.3342119793e+02 stress_341
                     -7.3412173183e+02 stress_342



------------------------------------------
Begin Dakota derivative estimation routine
------------------------------------------

>>>>> map at X performed previously and results retrieved

>>>>> Dakota finite difference gradient evaluation for x[1] + h:

---------------------
Begin Evaluation   55
---------------------
Parameters for evaluation 55:
                      4.7369115690e+02 fy
                      1.8937010078e+05 E
                      2.5321981255e-02 b
                      8.5488523838e-01 cR1
                      1.0199082837e-03 cR2
                      1.3642106199e-02 a1
                      2.7555833303e-02 a3

(Asynchronous job 55 added to queue)


>>>>> Dakota finite difference gradient evaluation for x[2] + h:

---------------------
Begin Evaluation   56
---------------------
Parameters for evaluation 56:
                      4.7321793896e+02 fy
                      1.8955947088e+05 E
                      2.5321981255e-02 b
                      8.5488523838e-01 cR1
                      1.0199082837e-03 cR2
                      1.3642106199e-02 a1
                      2.7555833303e-02 a3

(Asynchronous job 56 added to queue)


>>>>> Dakota finite difference gradient evaluation for x[3] + h:

---------------------
Begin Evaluation   57
---------------------
Parameters for evaluation 57:
                      4.7321793896e+02 fy
                      1.8937010078e+05 E
                      2.5347303236e-02 b
                      8.5488523838e-01 cR1
                      1.0199082837e-03 cR2
                      1.3642106199e-02 a1
                      2.7555833303e-02 a3

(Asynchronous job 57 added to queue)


>>>>> Dakota finite difference gradient evaluation for x[4] + h:

---------------------
Begin Evaluation   58
---------------------
Parameters for evaluation 58:
                      4.7321793896e+02 fy
                      1.8937010078e+05 E
                      2.5321981255e-02 b
                      8.5574012362e-01 cR1
                      1.0199082837e-03 cR2
                      1.3642106199e-02 a1
                      2.7555833303e-02 a3

(Asynchronous job 58 added to queue)


>>>>> Dakota finite difference gradient evaluation for x[5] + h:

---------------------
Begin Evaluation   59
---------------------
Parameters for evaluation 59:
                      4.7321793896e+02 fy
                      1.8937010078e+05 E
                      2.5321981255e-02 b
                      8.5488523838e-01 cR1
                      1.0299082837e-03 cR2
                      1.3642106199e-02 a1
                      2.7555833303e-02 a3

(Asynchronous job 59 added to queue)


>>>>> Dakota finite difference gradient evaluation for x[6] + h:

---------------------
Begin Evaluation   60
---------------------
Parameters for evaluation 60:
                      4.7321793896e+02 fy
                      1.8937010078e+05 E
                      2.5321981255e-02 b
                      8.5488523838e-01 cR1
                      1.0199082837e-03 cR2
                      1.3655748305e-02 a1
                      2.7555833303e-02 a3

(Asynchronous job 60 added to queue)


>>>>> Dakota finite difference gradient evaluation for x[7] + h:

---------------------
Begin Evaluation   61
---------------------
Parameters for evaluation 61:
                      4.7321793896e+02 fy
                      1.8937010078e+05 E
                      2.5321981255e-02 b
                      8.5488523838e-01 cR1
                      1.0199082837e-03 cR2
                      1.3642106199e-02 a1
                      2.7583389136e-02 a3

(Asynchronous job 61 added to queue)



Blocking synchronize of 7 asynchronous evaluations
First pass: initiating 7 local asynchronous jobs
Initiating evaluation 55
nonblocking fork: workflow_driver1 paramsDakota.in results.out
Initiating evaluation 56
nonblocking fork: workflow_driver1 paramsDakota.in results.out
Initiating evaluation 57
nonblocking fork: workflow_driver1 paramsDakota.in results.out
Initiating evaluation 58
nonblocking fork: workflow_driver1 paramsDakota.in results.out
Initiating evaluation 59
nonblocking fork: workflow_driver1 paramsDakota.in results.out
Initiating evaluation 60
nonblocking fork: workflow_driver1 paramsDakota.in results.out
Initiating evaluation 61
nonblocking fork: workflow_driver1 paramsDakota.in results.out
Waiting on completed jobs
Evaluation 55 has completed
Evaluation 56 has completed
Evaluation 57 has completed
Evaluation 58 has completed
Evaluation 59 has completed
Waiting on completed jobs
Evaluation 60 has completed
Waiting on completed jobs
Evaluation 61 has completed

Active response data for evaluation 55:
Active set vector = { 1 1 1 1 1 1 1 1 1 1 1 1 1 1 1 1 1 1 1 1 1 1 1 1 1 1 1 1 1 1 1 1 1 1 1 1 1 1 1 1 1 1 1 1 1 1 1 1 1 1 1 1 1 1 1 1 1 1 1 1 1 1 1 1 1 1 1 1 1 1 1 1 1 1 1 1 1 1 1 1 1 1 1 1 1 1 1 1 1 1 1 1 1 1 1 1 1 1 1 1 1 1 1 1 1 1 1 1 1 1 1 1 1 1 1 1 1 1 1 1 1 1 1 1 1 1 1 1 1 1 1 1 1 1 1 1 1 1 1 1 1 1 1 1 1 1 1 1 1 1 1 1 1 1 1 1 1 1 1 1 1 1 1 1 1 1 1 1 1 1 1 1 1 1 1 1 1 1 1 1 1 1 1 1 1 1 1 1 1 1 1 1 1 1 1 1 1 1 1 1 1 1 1 1 1 1 1 1 1 1 1 1 1 1 1 1 1 1 1 1 1 1 1 1 1 1 1 1 1 1 1 1 1 1 1 1 1 1 1 1 1 1 1 1 1 1 1 1 1 1 1 1 1 1 1 1 1 1 1 1 1 1 1 1 1 1 1 1 1 1 1 1 1 1 1 1 1 1 1 1 1 1 1 1 1 1 1 1 1 1 1 1 1 1 1 1 1 1 1 1 1 1 1 1 1 1 1 1 1 1 1 1 1 1 1 1 1 1 1 1 1 1 1 1 1 1 1 1 1 1 1 1 1 1 1 1 1 1 1 1 1 1 }
                      2.2067746651e+00 stress_1
                     -2.2668961345e+02 stress_2
                     -4.5668740253e+02 stress_3
                     -4.6717894277e+02 stress_4
                     -1.6993013670e+02 stress_5
                      1.8934398165e+02 stress_6
                      3.3100140215e+02 stress_7
                      3.3196743429e+02 stress_8
                      1.0598010448e+02 stress_9
                     -2.1400247142e+02 stress_10
                     -3.9467309039e+02 stress_11
                     -4.5695341563e+02 stress_12
                     -4.7888017728e+02 stress_13
                     -4.8050799380e+02 stress_14
                     -1.7904863044e+02 stress_15
                     -3.2840498647e+02 stress_16
                     -4.4673337566e+02 stress_17
                     -2.6931065996e+02 stress_18
                      3.6340658811e+01 stress_19
                      2.9126352478e+02 stress_20
                      4.0757502421e+02 stress_21
                      4.5411768421e+02 stress_22
                      4.7434160746e+02 stress_23
                      4.8119162153e+02 stress_24
                      1.7904910930e+02 stress_25
                      2.9461446223e+02 stress_26
                      4.0364163237e+02 stress_27
                      4.2499052553e+02 stress_28
                      3.1302935388e+02 stress_29
                      1.1789680229e+02 stress_30
                     -1.1725314259e+02 stress_31
                     -3.0503515403e+02 stress_32
                     -4.0923810250e+02 stress_33
                     -4.6145187208e+02 stress_34
                     -4.9100044073e+02 stress_35
                     -5.1097819940e+02 stress_36
                     -5.2629961366e+02 stress_37
                     -5.3870512850e+02 stress_38
                     -5.4873439863e+02 stress_39
                     -5.5646727933e+02 stress_40
                     -5.6183611299e+02 stress_41
                     -5.6474217943e+02 stress_42
                     -5.5064984439e+02 stress_43
                     -1.9403789543e+02 stress_44
                      6.7337969199e+01 stress_45
                     -1.1915671958e+02 stress_46
                     -3.9356459438e+02 stress_47
                     -1.2237899260e+02 stress_48
                     -2.1607634981e+02 stress_49
                     -3.5625107184e+02 stress_50
                     -4.9989291849e+02 stress_51
                     -3.4488269928e+02 stress_52
                     -3.2915764969e+01 stress_53
                      2.3735395239e+02 stress_54
                      3.5879853104e+02 stress_55
                      4.0359978393e+02 stress_56
                      4.1724667757e+02 stress_57
                      3.3855468590e+02 stress_58
                      5.1024761311e+01 stress_59
                     -2.7116390609e+02 stress_60
                     -4.3858633358e+02 stress_61
                     -4.9813399542e+02 stress_62
                     -5.1180416628e+02 stress_63
                     -2.6626816177e+02 stress_64
                      9.3485148987e+01 stress_65
                      1.8078977586e+02 stress_66
                     -6.5203090472e+01 stress_67
                     -3.8618193731e+02 stress_68
                     -4.8793983437e+02 stress_69
                     -4.8934662887e+02 stress_70
                     -4.0240255248e+02 stress_71
                     -2.4469144255e+02 stress_72
                     -3.6269120003e+01 stress_73
                      1.6667222337e+02 stress_74
                      3.0665164176e+02 stress_75
                      3.8394357405e+02 stress_76
                      4.2624197233e+02 stress_77
                      4.5261026446e+02 stress_78
                      4.7182604074e+02 stress_79
                      4.8751892475e+02 stress_80
                      5.0112932881e+02 stress_81
                      5.1317571776e+02 stress_82
                      5.2377979967e+02 stress_83
                      5.3289563514e+02 stress_84
                      5.4040974789e+02 stress_85
                      5.4619777341e+02 stress_86
                      5.5014983743e+02 stress_87
                      5.5218202654e+02 stress_88
                      4.8499464853e+02 stress_89
                      8.1251679505e+01 stress_90
                     -1.2106146301e+02 stress_91
                      1.3879950465e+02 stress_92
                      4.0947269106e+02 stress_93
                      4.1508011618e+02 stress_94
                      3.6022031744e+02 stress_95
                      2.6149185471e+02 stress_96
                      1.2307258595e+02 stress_97
                     -4.0042423435e+01 stress_98
                     -1.9623699147e+02 stress_99
                     -3.1462473494e+02 stress_100
                     -3.8993070882e+02 stress_101
                     -4.3526339095e+02 stress_102
                     -4.6405599381e+02 stress_103
                     -4.8450210355e+02 stress_104
                     -5.0082569009e+02 stress_105
                     -5.1510363724e+02 stress_106
                     -5.2834161935e+02 stress_107
                     -5.4101578650e+02 stress_108
                     -5.5333454712e+02 stress_109
                     -5.6536715061e+02 stress_110
                     -5.7710768887e+02 stress_111
                     -5.8850829570e+02 stress_112
                     -5.9950027869e+02 stress_113
                     -6.1000360049e+02 stress_114
                     -6.1993299609e+02 stress_115
                     -6.2920323837e+02 stress_116
                     -6.3773071730e+02 stress_117
                     -6.4543851283e+02 stress_118
                     -6.5225509340e+02 stress_119
                     -6.5811493088e+02 stress_120
                     -6.6296394823e+02 stress_121
                     -6.6675536995e+02 stress_122
                     -6.6945242802e+02 stress_123
                     -6.7103027718e+02 stress_124
                     -6.7145415863e+02 stress_125
                     -5.7795367699e+02 stress_126
                     -3.4664460312e+02 stress_127
                     -4.8711322836e+01 stress_128
                      1.7913193777e+02 stress_129
                      2.9520773185e+02 stress_130
                      3.4873808294e+02 stress_131
                      3.7473260773e+02 stress_132
                      3.8658258889e+02 stress_133
                      3.8724558866e+02 stress_134
                      1.6720672383e+01 stress_135
                     -3.5757847829e+00 stress_136
                      1.6658784913e+02 stress_137
                      1.3365906632e+02 stress_138
                     -2.3696122093e+01 stress_139
                     -2.9343759343e+02 stress_140
                     -5.0919463909e+02 stress_141
                     -6.0457814722e+02 stress_142
                     -6.4337919226e+02 stress_143
                     -6.6136777721e+02 stress_144
                     -6.6885542890e+02 stress_145
                     -6.5026747879e+02 stress_146
                     -4.3246951780e+02 stress_147
                     -9.8522036902e+01 stress_148
                      1.5857520671e+02 stress_149
                      2.7582584149e+02 stress_150
                      3.1880232111e+02 stress_151
                      3.2407977036e+02 stress_152
                      1.2695901691e+02 stress_153
                     -2.0967684625e+02 stress_154
                     -4.6382216959e+02 stress_155
                     -5.6948306911e+02 stress_156
                     -6.0131470940e+02 stress_157
                     -4.8941843656e+02 stress_158
                     -1.1100744536e+02 stress_159
                      6.9362907066e+01 stress_160
                     -8.2235949221e+01 stress_161
                     -4.2371894304e+02 stress_162
                     -5.7544124165e+02 stress_163
                     -5.8945367604e+02 stress_164
                     -5.5140024104e+02 stress_165
                     -4.7635478200e+02 stress_166
                     -3.6569970015e+02 stress_167
                     -2.2456504571e+02 stress_168
                     -6.7321750671e+01 stress_169
                      8.1340128742e+01 stress_170
                      1.9876447689e+02 stress_171
                      2.7924811760e+02 stress_172
                      3.3106475506e+02 stress_173
                      3.6499459924e+02 stress_174
                      3.8885023741e+02 stress_175
                      4.0724882662e+02 stress_176
                      4.2272584356e+02 stress_177
                      4.3664421634e+02 stress_178
                      4.4972978908e+02 stress_179
                      4.6236470886e+02 stress_180
                      4.7474189481e+02 stress_181
                      4.8694592722e+02 stress_182
                      4.9900006731e+02 stress_183
                      5.1089015068e+02 stress_184
                      5.2258057664e+02 stress_185
                      5.3402220194e+02 stress_186
                      5.4515827890e+02 stress_187
                      5.5592836874e+02 stress_188
                      5.6626976531e+02 stress_189
                      5.7612041023e+02 stress_190
                      5.8541967167e+02 stress_191
                      5.9410800567e+02 stress_192
                      6.0213125309e+02 stress_193
                      6.0943747327e+02 stress_194
                      6.1597831006e+02 stress_195
                      6.2171238308e+02 stress_196
                      6.2660095727e+02 stress_197
                      6.3061290260e+02 stress_198
                      6.3372189708e+02 stress_199
                      6.3590649115e+02 stress_200
                      6.3715307144e+02 stress_201
                      6.3721413319e+02 stress_202
                      3.0462442854e+02 stress_203
                     -2.9713401092e+01 stress_204
                      6.9443989106e+01 stress_205
                      4.2841639899e+02 stress_206
                      4.4206694883e+02 stress_207
                      3.8299131024e+02 stress_208
                      2.7600261800e+02 stress_209
                      1.2657676284e+02 stress_210
                     -4.5462815786e+01 stress_211
                     -2.0189349893e+02 stress_212
                     -3.1281607274e+02 stress_213
                     -3.7989297349e+02 stress_214
                     -4.1969547736e+02 stress_215
                     -4.4547107210e+02 stress_216
                     -4.6446146392e+02 stress_217
                     -4.8018732749e+02 stress_218
                     -4.9430683622e+02 stress_219
                     -5.0758748327e+02 stress_220
                     -5.2036686121e+02 stress_221
                     -5.3276726807e+02 stress_222
                     -5.4480063280e+02 stress_223
                     -5.5642027801e+02 stress_224
                     -5.6754979477e+02 stress_225
                     -5.7809752210e+02 stress_226
                     -5.8796589477e+02 stress_227
                     -5.9705886786e+02 stress_228
                     -6.0528161922e+02 stress_229
                     -6.1254886553e+02 stress_230
                     -6.1878307255e+02 stress_231
                     -6.2391508713e+02 stress_232
                     -6.2789085859e+02 stress_233
                     -6.3066642830e+02 stress_234
                     -6.3221008058e+02 stress_235
                     -6.2629434853e+02 stress_236
                     -2.9125761111e+02 stress_237
                     -6.4865120527e+00 stress_238
                     -2.0784156951e+02 stress_239
                     -4.4449164957e+02 stress_240
                     -1.3991593154e+02 stress_241
                      3.0167571193e+01 stress_242
                     -2.7568805698e+02 stress_243
                     -3.9367515241e+02 stress_244
                     -4.9979495326e+02 stress_245
                     -3.3084632019e+02 stress_246
                     -1.4868178478e+01 stress_247
                      2.5084881181e+02 stress_248
                      3.7041027339e+02 stress_249
                      4.1478050294e+02 stress_250
                      4.2751004493e+02 stress_251
                      3.3142649745e+02 stress_252
                      3.4628710347e+01 stress_253
                     -2.9194019550e+02 stress_254
                     -4.6895640284e+02 stress_255
                     -5.3424517871e+02 stress_256
                     -5.4737927166e+02 stress_257
                     -2.9347425000e+02 stress_258
                      7.1429935569e+01 stress_259
                      1.9204994148e+02 stress_260
                     -4.0350379968e+00 stress_261
                     -3.5141512248e+02 stress_262
                     -5.1133254522e+02 stress_263
                     -5.3390058800e+02 stress_264
                     -4.9558958815e+02 stress_265
                     -4.0962778800e+02 stress_266
                     -2.7837910882e+02 stress_267
                     -1.1128300707e+02 stress_268
                      6.6632498088e+01 stress_269
                      2.1910565672e+02 stress_270
                      3.2545755372e+02 stress_271
                      3.9145042912e+02 stress_272
                      4.3220615348e+02 stress_273
                      4.5938727282e+02 stress_274
                      4.7961611701e+02 stress_275
                      4.9628507905e+02 stress_276
                      5.1108218270e+02 stress_277
                      5.2483335595e+02 stress_278
                      5.3792788118e+02 stress_279
                      5.5052833430e+02 stress_280
                      5.6267641779e+02 stress_281
                      5.7434835750e+02 stress_282
                      5.8548453430e+02 stress_283
                      5.9600770725e+02 stress_284
                      6.0583130447e+02 stress_285
                      6.1486820988e+02 stress_286
                      6.2303341337e+02 stress_287
                      6.3024623380e+02 stress_288
                      6.3643550240e+02 stress_289
                      6.4153832545e+02 stress_290
                      6.4550168403e+02 stress_291
                      6.4828556668e+02 stress_292
                      6.4986036075e+02 stress_293
                      6.4988361542e+02 stress_294
                      3.0623527910e+02 stress_295
                     -2.0772461124e+01 stress_296
                      9.8035317507e+01 stress_297
                      4.4274510383e+02 stress_298
                      4.5365456799e+02 stress_299
                      4.1399997559e+02 stress_300
                      3.4253600018e+02 stress_301
                      2.4048659229e+02 stress_302
                      1.1262943137e+02 stress_303
                     -2.8525118729e+01 stress_304
                     -1.6172119317e+02 stress_305
                     -2.6764722166e+02 stress_306
                     -3.4113009488e+02 stress_307
                     -3.8897438755e+02 stress_308
                     -4.2052505342e+02 stress_309
                     -4.4274871574e+02 stress_310
                     -4.5986992203e+02 stress_311
                     -4.7425794880e+02 stress_312
                     -4.8720800980e+02 stress_313
                     -4.9942722368e+02 stress_314
                     -5.1129910473e+02 stress_315
                     -5.2302672255e+02 stress_316
                     -5.3471105897e+02 stress_317
                     -5.4639270906e+02 stress_318
                     -5.5807626720e+02 stress_319
                     -5.6974460416e+02 stress_320
                     -5.8136623780e+02 stress_321
                     -5.9290158766e+02 stress_322
                     -6.0430502944e+02 stress_323
                     -6.1552811791e+02 stress_324
                     -6.2652115420e+02 stress_325
                     -6.3723254628e+02 stress_326
                     -6.4761238898e+02 stress_327
                     -6.5760947919e+02 stress_328
                     -6.6717613710e+02 stress_329
                     -6.7626540586e+02 stress_330
                     -6.8483171953e+02 stress_331
                     -6.9283325555e+02 stress_332
                     -7.0022949013e+02 stress_333
                     -7.0698385642e+02 stress_334
                     -7.1306323281e+02 stress_335
                     -7.1843531078e+02 stress_336
                     -7.2307479850e+02 stress_337
                     -7.2695762709e+02 stress_338
                     -7.3006409168e+02 stress_339
                     -7.3237918472e+02 stress_340
                     -7.3389094458e+02 stress_341
                     -7.3459148175e+02 stress_342


Active response data for evaluation 56:
Active set vector = { 1 1 1 1 1 1 1 1 1 1 1 1 1 1 1 1 1 1 1 1 1 1 1 1 1 1 1 1 1 1 1 1 1 1 1 1 1 1 1 1 1 1 1 1 1 1 1 1 1 1 1 1 1 1 1 1 1 1 1 1 1 1 1 1 1 1 1 1 1 1 1 1 1 1 1 1 1 1 1 1 1 1 1 1 1 1 1 1 1 1 1 1 1 1 1 1 1 1 1 1 1 1 1 1 1 1 1 1 1 1 1 1 1 1 1 1 1 1 1 1 1 1 1 1 1 1 1 1 1 1 1 1 1 1 1 1 1 1 1 1 1 1 1 1 1 1 1 1 1 1 1 1 1 1 1 1 1 1 1 1 1 1 1 1 1 1 1 1 1 1 1 1 1 1 1 1 1 1 1 1 1 1 1 1 1 1 1 1 1 1 1 1 1 1 1 1 1 1 1 1 1 1 1 1 1 1 1 1 1 1 1 1 1 1 1 1 1 1 1 1 1 1 1 1 1 1 1 1 1 1 1 1 1 1 1 1 1 1 1 1 1 1 1 1 1 1 1 1 1 1 1 1 1 1 1 1 1 1 1 1 1 1 1 1 1 1 1 1 1 1 1 1 1 1 1 1 1 1 1 1 1 1 1 1 1 1 1 1 1 1 1 1 1 1 1 1 1 1 1 1 1 1 1 1 1 1 1 1 1 1 1 1 1 1 1 1 1 1 1 1 1 1 1 1 1 1 1 1 1 1 1 1 1 1 1 1 1 1 1 1 1 1 }
                      2.2089814398e+00 stress_1
                     -2.2689520916e+02 stress_2
                     -4.5645791734e+02 stress_3
                     -4.6688883753e+02 stress_4
                     -1.6936118833e+02 stress_5
                      1.8989111466e+02 stress_6
                      3.3125217750e+02 stress_7
                      3.3221541437e+02 stress_8
                      1.0600924094e+02 stress_9
                     -2.1408383796e+02 stress_10
                     -3.9452090788e+02 stress_11
                     -4.5666494390e+02 stress_12
                     -4.7854864809e+02 stress_13
                     -4.8017367169e+02 stress_14
                     -1.7843256699e+02 stress_15
                     -3.2793762069e+02 stress_16
                     -4.4634907447e+02 stress_17
                     -2.6875184426e+02 stress_18
                      3.7063416513e+01 stress_19
                      2.9164681017e+02 stress_20
                      4.0755419532e+02 stress_21
                      4.5391240344e+02 stress_22
                      4.7406723069e+02 stress_23
                      4.8089733097e+02 stress_24
                      1.7847136989e+02 stress_25
                      2.9415373074e+02 stress_26
                      4.0328178602e+02 stress_27
                      4.2464186151e+02 stress_28
                      3.1256922082e+02 stress_29
                      1.1726630958e+02 stress_30
                     -1.1791332153e+02 stress_31
                     -3.0539246147e+02 stress_32
                     -4.0924683166e+02 stress_33
                     -4.6125972970e+02 stress_34
                     -4.9071515577e+02 stress_35
                     -5.1065260893e+02 stress_36
                     -5.2595799683e+02 stress_37
                     -5.3835863098e+02 stress_38
                     -5.4838796203e+02 stress_39
                     -5.5612272279e+02 stress_40
                     -5.6149359728e+02 stress_41
                     -5.6440097943e+02 stress_42
                     -5.5029455216e+02 stress_43
                     -1.9336411309e+02 stress_44
                      6.8008119006e+01 stress_45
                     -1.1866841171e+02 stress_46
                     -3.9323515710e+02 stress_47
                     -1.2179945444e+02 stress_48
                     -2.1559228912e+02 stress_49
                     -3.5595840146e+02 stress_50
                     -4.9982594535e+02 stress_51
                     -3.4466207298e+02 stress_52
                     -3.2481777794e+01 stress_53
                      2.3757693272e+02 stress_54
                      3.5870571981e+02 stress_55
                      4.0336450467e+02 stress_56
                      4.1696981092e+02 stress_57
                      3.3819921626e+02 stress_58
                      5.0417637532e+01 stress_59
                     -2.7171307117e+02 stress_60
                     -4.3877447526e+02 stress_61
                     -4.9813019231e+02 stress_62
                     -5.1175448884e+02 stress_63
                     -2.6598053934e+02 stress_64
                      9.3886030648e+01 stress_65
                      1.8110542847e+02 stress_66
                     -6.5122818443e+01 stress_67
                     -3.8616835148e+02 stress_68
                     -4.8780546751e+02 stress_69
                     -4.8921001835e+02 stress_70
                     -4.0217915219e+02 stress_71
                     -2.4431892509e+02 stress_72
                     -3.5775968740e+01 stress_73
                      1.6706067197e+02 stress_74
                      3.0674489865e+02 stress_75
                      3.8378838930e+02 stress_76
                      4.2594805577e+02 stress_77
                      4.5224947327e+02 stress_78
                      4.7143557411e+02 stress_79
                      4.8711728399e+02 stress_80
                      5.0072576001e+02 stress_81
                      5.1277478288e+02 stress_82
                      5.2338354804e+02 stress_83
                      5.3250467471e+02 stress_84
                      5.4002380511e+02 stress_85
                      5.4581601374e+02 stress_86
                      5.4977106655e+02 stress_87
                      5.5180482956e+02 stress_88
                      4.8455031039e+02 stress_89
                      8.0495563158e+01 stress_90
                     -1.2174419451e+02 stress_91
                      1.3836413834e+02 stress_92
                      4.0915402722e+02 stress_93
                      4.1476095225e+02 stress_94
                      3.5984632685e+02 stress_95
                      2.6102094554e+02 stress_96
                      1.2248401500e+02 stress_97
                     -4.0689522187e+01 stress_98
                     -1.9676936641e+02 stress_99
                     -3.1489360723e+02 stress_100
                     -3.8993963790e+02 stress_101
                     -4.3509496431e+02 stress_102
                     -4.6378498968e+02 stress_103
                     -4.8417616733e+02 stress_104
                     -5.0047225182e+02 stress_105
                     -5.1473824187e+02 stress_106
                     -5.2797322052e+02 stress_107
                     -5.4064966657e+02 stress_108
                     -5.5297388161e+02 stress_109
                     -5.6501385387e+02 stress_110
                     -5.7676288167e+02 stress_111
                     -5.8817257082e+02 stress_112
                     -5.9917385897e+02 stress_113
                     -6.0968643509e+02 stress_114
                     -6.1962482156e+02 stress_115
                     -6.2890362038e+02 stress_116
                     -6.3743907935e+02 stress_117
                     -6.4515416065e+02 stress_118
                     -6.5197723248e+02 stress_119
                     -6.5784268082e+02 stress_120
                     -6.6269635995e+02 stress_121
                     -6.6649143736e+02 stress_122
                     -6.6919110118e+02 stress_123
                     -6.7077047667e+02 stress_124
                     -6.7119476841e+02 stress_125
                     -5.7760093450e+02 stress_126
                     -3.4607950599e+02 stress_127
                     -4.8069529075e+01 stress_128
                      1.7944748711e+02 stress_129
                      2.9516473551e+02 stress_130
                      3.4850058307e+02 stress_131
                      3.7440742114e+02 stress_132
                      3.8622235114e+02 stress_133
                      3.8688351748e+02 stress_134
                      1.6018558842e+01 stress_135
                     -4.2911515221e+00 stress_136
                      1.6603560394e+02 stress_137
                      1.3307389834e+02 stress_138
                     -2.4432999828e+01 stress_139
                     -2.9427367549e+02 stress_140
                     -5.0965266487e+02 stress_141
                     -6.0466520477e+02 stress_142
                     -6.4330690104e+02 stress_143
                     -6.6123654120e+02 stress_144
                     -6.6870495591e+02 stress_145
                     -6.5009841812e+02 stress_146
                     -4.3208790579e+02 stress_147
                     -9.7963383507e+01 stress_148
                      1.5887415783e+02 stress_149
                      2.7581183412e+02 stress_150
                      3.1864577829e+02 stress_151
                      3.2390529141e+02 stress_152
                      1.2659007311e+02 stress_153
                     -2.1025628964e+02 stress_154
                     -4.6420864503e+02 stress_155
                     -5.6963503848e+02 stress_156
                     -6.0138006132e+02 stress_157
                     -4.8937219749e+02 stress_158
                     -1.1067947218e+02 stress_159
                      6.9642120074e+01 stress_160
                     -8.2106783173e+01 stress_161
                     -4.2378610552e+02 stress_162
                     -5.7540667742e+02 stress_163
                     -5.8940108951e+02 stress_164
                     -5.5130960627e+02 stress_165
                     -4.7618946126e+02 stress_166
                     -3.6542858583e+02 stress_167
                     -2.2418275543e+02 stress_168
                     -6.6888845014e+01 stress_169
                      8.1689995879e+01 stress_170
                      1.9891491460e+02 stress_171
                      2.7918155160e+02 stress_172
                      3.3083128634e+02 stress_173
                      3.6465318964e+02 stress_174
                      3.8844486917e+02 stress_175
                      4.0680777645e+02 stress_176
                      4.2226647462e+02 stress_177
                      4.3617715809e+02 stress_178
                      4.4926164748e+02 stress_179
                      4.6189967338e+02 stress_180
                      4.7428267198e+02 stress_181
                      4.8649428390e+02 stress_182
                      4.9855715247e+02 stress_183
                      5.1045668903e+02 stress_184
                      5.2215698902e+02 stress_185
                      5.3360868101e+02 stress_186
                      5.4475483875e+02 stress_187
                      5.5553487863e+02 stress_188
                      5.6588597244e+02 stress_189
                      5.7574595727e+02 stress_190
                      5.8505410992e+02 stress_191
                      5.9375080438e+02 stress_192
                      6.0178181058e+02 stress_193
                      6.0909512343e+02 stress_194
                      6.1564232904e+02 stress_195
                      6.2138199851e+02 stress_196
                      6.2627535268e+02 stress_197
                      6.3029122635e+02 stress_198
                      6.3340326820e+02 stress_199
                      6.3559000514e+02 stress_200
                      6.3683780876e+02 stress_201
                      6.3689893045e+02 stress_202
                      3.0399622103e+02 stress_203
                     -3.0402480568e+01 stress_204
                      6.8853719601e+01 stress_205
                      4.2809292808e+02 stress_206
                      4.4174748842e+02 stress_207
                      3.8261281961e+02 stress_208
                      2.7551965726e+02 stress_209
                      1.2597314002e+02 stress_210
                     -4.6099532131e+01 stress_211
                     -2.0235889647e+02 stress_212
                     -3.1298403088e+02 stress_213
                     -3.7980703026e+02 stress_214
                     -4.1945131265e+02 stress_215
                     -4.4514061875e+02 stress_216
                     -4.6408706786e+02 stress_217
                     -4.7979243249e+02 stress_218
                     -4.9390445932e+02 stress_219
                     -5.0718502008e+02 stress_220
                     -5.1996860881e+02 stress_221
                     -5.3237574332e+02 stress_222
                     -5.4441727556e+02 stress_223
                     -5.5604583773e+02 stress_224
                     -5.6718455183e+02 stress_225
                     -5.7774141900e+02 stress_226
                     -5.8761861797e+02 stress_227
                     -5.9671990328e+02 stress_228
                     -6.0495028801e+02 stress_229
                     -6.1222435555e+02 stress_230
                     -6.1846446106e+02 stress_231
                     -6.2360135931e+02 stress_232
                     -6.2758092960e+02 stress_233
                     -6.3035915866e+02 stress_234
                     -6.3190429239e+02 stress_235
                     -6.2598264461e+02 stress_236
                     -2.9063147723e+02 stress_237
                     -5.7737755466e+00 stress_238
                     -2.0732750191e+02 stress_239
                     -4.4416215846e+02 stress_240
                     -1.3930732210e+02 stress_241
                      3.0828587471e+01 stress_242
                     -2.7531770438e+02 stress_243
                     -3.9338416748e+02 stress_244
                     -4.9953740136e+02 stress_245
                     -3.3042184913e+02 stress_246
                     -1.4249347623e+01 stress_247
                      2.5119137370e+02 stress_248
                      3.7039124731e+02 stress_249
                      4.1459814062e+02 stress_250
                      4.2728198456e+02 stress_251
                      3.3110249993e+02 stress_252
                      3.4043410596e+01 stress_253
                     -2.9251486800e+02 stress_254
                     -4.6922355900e+02 stress_255
                     -5.3433192137e+02 stress_256
                     -5.4742685582e+02 stress_257
                     -2.9327475775e+02 stress_258
                      7.1782413773e+01 stress_259
                      1.9230777224e+02 stress_260
                     -3.9699778074e+00 stress_261
                     -3.5152588179e+02 stress_262
                     -5.1131243788e+02 stress_263
                     -5.3384615778e+02 stress_264
                     -4.9549685178e+02 stress_265
                     -4.0944956454e+02 stress_266
                     -2.7807714353e+02 stress_267
                     -1.1086272292e+02 stress_268
                      6.7065346832e+01 stress_269
                      2.1938324964e+02 stress_270
                      3.2550245904e+02 stress_271
                      3.9130175022e+02 stress_272
                      4.3193392599e+02 stress_273
                      4.5904524134e+02 stress_274
                      4.7923748798e+02 stress_275
                      4.9588915968e+02 stress_276
                      5.1068015186e+02 stress_277
                      5.2443178333e+02 stress_278
                      5.3753068471e+02 stress_279
                      5.5013785283e+02 stress_280
                      5.6229400627e+02 stress_281
                      5.7397472564e+02 stress_282
                      5.8511994528e+02 stress_283
                      5.9565209965e+02 stress_284
                      6.0548436872e+02 stress_285
                      6.1452944122e+02 stress_286
                      6.2270214858e+02 stress_287
                      6.2992167834e+02 stress_288
                      6.3611675512e+02 stress_289
                      6.4122439753e+02 stress_290
                      6.4519151640e+02 stress_291
                      6.4797804849e+02 stress_292
                      6.4955434412e+02 stress_293
                      6.4957762098e+02 stress_294
                      3.0560689586e+02 stress_295
                     -2.1462873068e+01 stress_296
                      9.7463131762e+01 stress_297
                      4.4243092821e+02 stress_298
                      4.5334393710e+02 stress_299
                      4.1364969923e+02 stress_300
                      3.4211475898e+02 stress_301
                      2.3996925153e+02 stress_302
                      1.1201811550e+02 stress_303
                     -2.9162770188e+01 stress_304
                     -1.6224893766e+02 stress_305
                     -2.6794993578e+02 stress_306
                     -3.4119239541e+02 stress_307
                     -3.8885021489e+02 stress_308
                     -4.2027822042e+02 stress_309
                     -4.4242759190e+02 stress_310
                     -4.5950602225e+02 stress_311
                     -4.7387082024e+02 stress_312
                     -4.8680971820e+02 stress_313
                     -4.9902532457e+02 stress_314
                     -5.1089843800e+02 stress_315
                     -5.2263046482e+02 stress_316
                     -5.3432134142e+02 stress_317
                     -5.4601098449e+02 stress_318
                     -5.5770353208e+02 stress_319
                     -5.6938153614e+02 stress_320
                     -5.8101328171e+02 stress_321
                     -5.9255901175e+02 stress_322
                     -6.0397296160e+02 stress_323
                     -6.1520657091e+02 stress_324
                     -6.2621004350e+02 stress_325
                     -6.3693170133e+02 stress_326
                     -6.4732156402e+02 stress_327
                     -6.5732835854e+02 stress_328
                     -6.6690434331e+02 stress_329
                     -6.7600250386e+02 stress_330
                     -6.8457722052e+02 stress_331
                     -6.9258662263e+02 stress_332
                     -6.9999014100e+02 stress_333
                     -7.0675116838e+02 stress_334
                     -7.1283654706e+02 stress_335
                     -7.1821393388e+02 stress_336
                     -7.2285800987e+02 stress_337
                     -7.2674468067e+02 stress_338
                     -7.2985422061e+02 stress_339
                     -7.3217160632e+02 stress_340
                     -7.3368486363e+02 stress_341
                     -7.3438609479e+02 stress_342


Active response data for evaluation 57:
Active set vector = { 1 1 1 1 1 1 1 1 1 1 1 1 1 1 1 1 1 1 1 1 1 1 1 1 1 1 1 1 1 1 1 1 1 1 1 1 1 1 1 1 1 1 1 1 1 1 1 1 1 1 1 1 1 1 1 1 1 1 1 1 1 1 1 1 1 1 1 1 1 1 1 1 1 1 1 1 1 1 1 1 1 1 1 1 1 1 1 1 1 1 1 1 1 1 1 1 1 1 1 1 1 1 1 1 1 1 1 1 1 1 1 1 1 1 1 1 1 1 1 1 1 1 1 1 1 1 1 1 1 1 1 1 1 1 1 1 1 1 1 1 1 1 1 1 1 1 1 1 1 1 1 1 1 1 1 1 1 1 1 1 1 1 1 1 1 1 1 1 1 1 1 1 1 1 1 1 1 1 1 1 1 1 1 1 1 1 1 1 1 1 1 1 1 1 1 1 1 1 1 1 1 1 1 1 1 1 1 1 1 1 1 1 1 1 1 1 1 1 1 1 1 1 1 1 1 1 1 1 1 1 1 1 1 1 1 1 1 1 1 1 1 1 1 1 1 1 1 1 1 1 1 1 1 1 1 1 1 1 1 1 1 1 1 1 1 1 1 1 1 1 1 1 1 1 1 1 1 1 1 1 1 1 1 1 1 1 1 1 1 1 1 1 1 1 1 1 1 1 1 1 1 1 1 1 1 1 1 1 1 1 1 1 1 1 1 1 1 1 1 1 1 1 1 1 1 1 1 1 1 1 1 1 1 1 1 1 1 1 1 1 1 1 }
                      2.2067746651e+00 stress_1
                     -2.2667916649e+02 stress_2
                     -4.5634981155e+02 stress_3
                     -4.6680736105e+02 stress_4
                     -1.6956764933e+02 stress_5
                      1.8951864947e+02 stress_6
                      3.3096181106e+02 stress_7
                      3.3192601599e+02 stress_8
                      1.0594220450e+02 stress_9
                     -2.1393760610e+02 stress_10
                     -3.9440850194e+02 stress_11
                     -4.5659873660e+02 stress_12
                     -4.7849951186e+02 stress_13
                     -4.8012572416e+02 stress_14
                     -1.7867610255e+02 stress_15
                     -3.2803222020e+02 stress_16
                     -4.4634448048e+02 stress_17
                     -2.6892320234e+02 stress_18
                      3.6658122896e+01 stress_19
                      2.9128876700e+02 stress_20
                      4.0734901264e+02 stress_21
                      4.5378553638e+02 stress_22
                      4.7397177410e+02 stress_23
                      4.8081139227e+02 stress_24
                      1.7867811169e+02 stress_25
                      2.9424421071e+02 stress_26
                      4.0326786129e+02 stress_27
                      4.2461203881e+02 stress_28
                      3.1265111037e+02 stress_29
                      1.1753079892e+02 stress_30
                     -1.1751775374e+02 stress_31
                     -3.0505885568e+02 stress_32
                     -4.0904316643e+02 stress_33
                     -4.6114034169e+02 stress_34
                     -4.9063857683e+02 stress_35
                     -5.1059745129e+02 stress_36
                     -5.2591407062e+02 stress_37
                     -5.3832092378e+02 stress_38
                     -5.4835384909e+02 stress_39
                     -5.5609072285e+02 stress_40
                     -5.6146279967e+02 stress_41
                     -5.6437075659e+02 stress_42
                     -5.5027842160e+02 stress_43
                     -1.9368530349e+02 stress_44
                      6.7559860180e+01 stress_45
                     -1.1893254030e+02 stress_46
                     -3.9328449401e+02 stress_47
                     -1.2210931699e+02 stress_48
                     -2.1580755984e+02 stress_49
                     -3.5600776048e+02 stress_50
                     -4.9969175916e+02 stress_51
                     -3.4468221080e+02 stress_52
                     -3.2763979458e+01 stress_53
                      2.3726927397e+02 stress_54
                      3.5850303664e+02 stress_55
                      4.0321783662e+02 stress_56
                      4.1684048933e+02 stress_57
                      3.3814854159e+02 stress_58
                      5.0636318251e+01 stress_59
                     -2.7136533623e+02 stress_60
                     -4.3853073179e+02 stress_61
                     -4.9795933954e+02 stress_62
                     -5.1160211324e+02 stress_63
                     -2.6606985353e+02 stress_64
                      9.3562108968e+01 stress_65
                      1.8078212096e+02 stress_66
                     -6.5205530256e+01 stress_67
                     -3.8606033253e+02 stress_68
                     -4.8771207777e+02 stress_69
                     -4.8911716932e+02 stress_70
                     -4.0217316912e+02 stress_71
                     -2.4446630199e+02 stress_72
                     -3.6087289338e+01 stress_73
                      1.6670271405e+02 stress_74
                      3.0647001194e+02 stress_75
                      3.8360719660e+02 stress_76
                      4.2582496640e+02 stress_77
                      4.5215754735e+02 stress_78
                      4.7136027958e+02 stress_79
                      4.8705120820e+02 stress_80
                      5.0066504055e+02 stress_81
                      5.1271731661e+02 stress_82
                      5.2332813143e+02 stress_83
                      5.3245058342e+02 stress_84
                      5.3997057944e+02 stress_85
                      5.4576334480e+02 stress_86
                      5.4971873184e+02 stress_87
                      5.5175265388e+02 stress_88
                      4.8456529871e+02 stress_89
                      8.0867741766e+01 stress_90
                     -1.2130952174e+02 stress_91
                      1.3854533073e+02 stress_92
                      4.0914457741e+02 stress_93
                      4.1474913557e+02 stress_94
                      3.5988935321e+02 stress_95
                      2.6116178507e+02 stress_96
                      1.2275277466e+02 stress_97
                     -4.0310583231e+01 stress_98
                     -1.9637164401e+02 stress_99
                     -3.1457230328e+02 stress_100
                     -3.8971642066e+02 stress_101
                     -4.3494508677e+02 stress_102
                     -4.6368051412e+02 stress_103
                     -4.8409833548e+02 stress_104
                     -5.0041009048e+02 stress_105
                     -5.1468552094e+02 stress_106
                     -5.2792636556e+02 stress_107
                     -5.4060657458e+02 stress_108
                     -5.5293327802e+02 stress_109
                     -5.6497494256e+02 stress_110
                     -5.7672515076e+02 stress_111
                     -5.8813568202e+02 stress_112
                     -5.9913758310e+02 stress_113
                     -6.0965061316e+02 stress_114
                     -6.1958934080e+02 stress_115
                     -6.2886839908e+02 stress_116
                     -6.3740405709e+02 stress_117
                     -6.4511929185e+02 stress_118
                     -6.5194248197e+02 stress_119
                     -6.5780802086e+02 stress_120
                     -6.6266176807e+02 stress_121
                     -6.6645689485e+02 stress_122
                     -6.6915659187e+02 stress_123
                     -6.7073598610e+02 stress_124
                     -6.7116028278e+02 stress_125
                     -5.7765987435e+02 stress_126
                     -3.4636016207e+02 stress_127
                     -4.8536011061e+01 stress_128
                      1.7903540159e+02 stress_129
                      2.9488217821e+02 stress_130
                      3.4829735462e+02 stress_131
                      3.7424233566e+02 stress_132
                      3.8607328036e+02 stress_133
                      3.8673530341e+02 stress_134
                      1.6225427186e+01 stress_135
                     -4.0675558635e+00 stress_136
                      1.6609266999e+02 stress_137
                      1.3316389014e+02 stress_138
                     -2.4188507236e+01 stress_139
                     -2.9384574229e+02 stress_140
                     -5.0931101109e+02 stress_141
                     -6.0447014567e+02 stress_142
                     -6.4318141126e+02 stress_143
                     -6.6113886234e+02 stress_144
                     -6.6861702978e+02 stress_145
                     -6.5002907981e+02 stress_146
                     -4.3223370886e+02 stress_147
                     -9.8363605011e+01 stress_148
                      1.5848004655e+02 stress_149
                      2.7552260891e+02 stress_150
                      3.1841155613e+02 stress_151
                      3.2367823889e+02 stress_152
                      1.2655879478e+02 stress_153
                     -2.1001497000e+02 stress_154
                     -4.6394157572e+02 stress_155
                     -5.6943907082e+02 stress_156
                     -6.0121533159e+02 stress_157
                     -4.8931920930e+02 stress_158
                     -1.1095584912e+02 stress_159
                      6.9301932965e+01 stress_160
                     -8.2296160469e+01 stress_161
                     -4.2370819665e+02 stress_162
                     -5.7530875248e+02 stress_163
                     -5.8930617009e+02 stress_164
                     -5.5125273765e+02 stress_165
                     -4.7620745605e+02 stress_166
                     -3.6555477373e+02 stress_167
                     -2.2443490162e+02 stress_168
                     -6.7244169247e+01 stress_169
                      8.1303777671e+01 stress_170
                      1.9857324201e+02 stress_171
                      2.7891334817e+02 stress_172
                      3.3062726390e+02 stress_173
                      3.6449394470e+02 stress_174
                      3.8831434016e+02 stress_175
                      4.0669526853e+02 stress_176
                      4.2216534949e+02 stress_177
                      4.3608335739e+02 stress_178
                      4.4917266891e+02 stress_179
                      4.6181394616e+02 stress_180
                      4.7419918855e+02 stress_181
                      4.8641238304e+02 stress_182
                      4.9847639064e+02 stress_183
                      5.1037676233e+02 stress_184
                      5.2207768508e+02 stress_185
                      5.3352984863e+02 stress_186
                      5.4467636838e+02 stress_187
                      5.5545668964e+02 stress_188
                      5.6580800450e+02 stress_189
                      5.7566816462e+02 stress_190
                      5.8497645733e+02 stress_191
                      5.9367326433e+02 stress_192
                      6.0170436132e+02 stress_193
                      6.0901774748e+02 stress_194
                      6.1556501214e+02 stress_195
                      6.2130472886e+02 stress_196
                      6.2619812032e+02 stress_197
                      6.3021402269e+02 stress_198
                      6.3332608570e+02 stress_199
                      6.3551283696e+02 stress_200
                      6.3676064857e+02 stress_201
                      6.3682177064e+02 stress_202
                      3.0424173781e+02 stress_203
                     -2.9961257696e+01 stress_204
                      6.9195961262e+01 stress_205
                      4.2812375667e+02 stress_206
                      4.4176971139e+02 stress_207
                      3.8269409525e+02 stress_208
                      2.7570664810e+02 stress_209
                      1.2629500965e+02 stress_210
                     -4.5675952222e+01 stress_211
                     -2.0194522172e+02 stress_212
                     -3.1266820635e+02 stress_213
                     -3.7959118684e+02 stress_214
                     -4.1930279059e+02 stress_215
                     -4.4503160409e+02 stress_216
                     -4.6400062265e+02 stress_217
                     -4.7971909356e+02 stress_218
                     -4.9383897414e+02 stress_219
                     -5.0712440873e+02 stress_220
                     -5.1991112724e+02 stress_221
                     -5.3232033613e+02 stress_222
                     -5.4436328307e+02 stress_223
                     -5.5599283479e+02 stress_224
                     -5.6713225658e+02 stress_225
                     -5.7768963955e+02 stress_226
                     -5.8756722036e+02 stress_227
                     -5.9666879181e+02 stress_228
                     -6.0489939255e+02 stress_229
                     -6.1217362358e+02 stress_230
                     -6.1841385215e+02 stress_231
                     -6.2355084144e+02 stress_232
                     -6.2753047659e+02 stress_233
                     -6.3030874826e+02 stress_234
                     -6.3185390480e+02 stress_235
                     -6.2593817275e+02 stress_236
                     -2.9091161081e+02 stress_237
                     -6.2382485670e+00 stress_238
                     -2.0759203285e+02 stress_239
                     -4.4421784268e+02 stress_240
                     -1.3965470652e+02 stress_241
                      3.0370679094e+01 stress_242
                     -2.7547767341e+02 stress_243
                     -3.9344642768e+02 stress_244
                     -4.9953246341e+02 stress_245
                     -3.3058483304e+02 stress_246
                     -1.4666732911e+01 stress_247
                      2.5078390839e+02 stress_248
                      3.7011269670e+02 stress_249
                      4.1438597011e+02 stress_250
                      4.2708925522e+02 stress_251
                      3.3100577995e+02 stress_252
                      3.4225492101e+01 stress_253
                     -2.9217767056e+02 stress_254
                     -4.6895822172e+02 stress_255
                     -5.3413020791e+02 stress_256
                     -5.4723997207e+02 stress_257
                     -2.9333831603e+02 stress_258
                      7.1461636128e+01 stress_259
                      1.9197622865e+02 stress_260
                     -4.1071237320e+00 stress_261
                     -3.5140332782e+02 stress_262
                     -5.1118076539e+02 stress_263
                     -5.3372204762e+02 stress_264
                     -4.9541105016e+02 stress_265
                     -4.0944948422e+02 stress_266
                     -2.7820450830e+02 stress_267
                     -1.1113245707e+02 stress_268
                      6.6701651375e+01 stress_269
                      2.1902399642e+02 stress_270
                      3.2521153658e+02 stress_271
                      3.9108165553e+02 stress_272
                      4.3176369106e+02 stress_273
                      4.5890583524e+02 stress_274
                      4.7911656273e+02 stress_275
                      4.9577941447e+02 stress_276
                      5.1057733843e+02 stress_277
                      5.2433339548e+02 stress_278
                      5.3743520715e+02 stress_279
                      5.5004434330e+02 stress_280
                      5.6220186202e+02 stress_281
                      5.7388355045e+02 stress_282
                      5.8502947186e+02 stress_283
                      5.9556214330e+02 stress_284
                      6.0539479877e+02 stress_285
                      6.1444016314e+02 stress_286
                      6.2261309245e+02 stress_287
                      6.2983279122e+02 stress_288
                      6.3602799593e+02 stress_289
                      6.4113573350e+02 stress_290
                      6.4510292055e+02 stress_291
                      6.4788949777e+02 stress_292
                      6.4946581799e+02 stress_293
                      6.4948909522e+02 stress_294
                      3.0585125662e+02 stress_295
                     -2.1025844817e+01 stress_296
                      9.7781648803e+01 stress_297
                      4.4244977869e+02 stress_298
                      4.5335576455e+02 stress_299
                      4.1370117666e+02 stress_300
                      3.4223744798e+02 stress_301
                      2.4019098102e+02 stress_302
                      1.1235056334e+02 stress_303
                     -2.8747290662e+01 stress_304
                     -1.6182356415e+02 stress_305
                     -2.6758727683e+02 stress_306
                     -3.4091781961e+02 stress_307
                     -3.8865085232e+02 stress_308
                     -4.2013136232e+02 stress_309
                     -4.4231456752e+02 stress_310
                     -4.5941432707e+02 stress_311
                     -4.7379264089e+02 stress_312
                     -4.8674024952e+02 stress_313
                     -4.9896159247e+02 stress_314
                     -5.1083857073e+02 stress_315
                     -5.2257325994e+02 stress_316
                     -5.3426600978e+02 stress_317
                     -5.4595699702e+02 stress_318
                     -5.5765052685e+02 stress_319
                     -5.6932926080e+02 stress_320
                     -5.8096155715e+02 stress_321
                     -5.9250770870e+02 stress_322
                     -6.0392198533e+02 stress_323
                     -6.1515585096e+02 stress_324
                     -6.2615952678e+02 stress_325
                     -6.3688134729e+02 stress_326
                     -6.4727134136e+02 stress_327
                     -6.5727824277e+02 stress_328
                     -6.6685431509e+02 stress_329
                     -6.7595254775e+02 stress_330
                     -6.8452732404e+02 stress_331
                     -6.9253677561e+02 stress_332
                     -6.9994033504e+02 stress_333
                     -7.0670139648e+02 stress_334
                     -7.1278680331e+02 stress_335
                     -7.1816421322e+02 stress_336
                     -7.2280830791e+02 stress_337
                     -7.2669499355e+02 stress_338
                     -7.2980454484e+02 stress_339
                     -7.3212193874e+02 stress_340
                     -7.3363520128e+02 stress_341
                     -7.3433643483e+02 stress_342


Active response data for evaluation 58:
Active set vector = { 1 1 1 1 1 1 1 1 1 1 1 1 1 1 1 1 1 1 1 1 1 1 1 1 1 1 1 1 1 1 1 1 1 1 1 1 1 1 1 1 1 1 1 1 1 1 1 1 1 1 1 1 1 1 1 1 1 1 1 1 1 1 1 1 1 1 1 1 1 1 1 1 1 1 1 1 1 1 1 1 1 1 1 1 1 1 1 1 1 1 1 1 1 1 1 1 1 1 1 1 1 1 1 1 1 1 1 1 1 1 1 1 1 1 1 1 1 1 1 1 1 1 1 1 1 1 1 1 1 1 1 1 1 1 1 1 1 1 1 1 1 1 1 1 1 1 1 1 1 1 1 1 1 1 1 1 1 1 1 1 1 1 1 1 1 1 1 1 1 1 1 1 1 1 1 1 1 1 1 1 1 1 1 1 1 1 1 1 1 1 1 1 1 1 1 1 1 1 1 1 1 1 1 1 1 1 1 1 1 1 1 1 1 1 1 1 1 1 1 1 1 1 1 1 1 1 1 1 1 1 1 1 1 1 1 1 1 1 1 1 1 1 1 1 1 1 1 1 1 1 1 1 1 1 1 1 1 1 1 1 1 1 1 1 1 1 1 1 1 1 1 1 1 1 1 1 1 1 1 1 1 1 1 1 1 1 1 1 1 1 1 1 1 1 1 1 1 1 1 1 1 1 1 1 1 1 1 1 1 1 1 1 1 1 1 1 1 1 1 1 1 1 1 1 1 1 1 1 1 1 1 1 1 1 1 1 1 1 1 1 1 1 }
                      2.2067746651e+00 stress_1
                     -2.2663828775e+02 stress_2
                     -4.5612211034e+02 stress_3
                     -4.6661410486e+02 stress_4
                     -1.6946103264e+02 stress_5
                      1.8885564421e+02 stress_6
                      3.3001447057e+02 stress_7
                      3.3097806682e+02 stress_8
                      1.0505006077e+02 stress_9
                     -2.1403006480e+02 stress_10
                     -3.9390333897e+02 stress_11
                     -4.5613640295e+02 stress_12
                     -4.7811309273e+02 stress_13
                     -4.7974596426e+02 stress_14
                     -1.7839197264e+02 stress_15
                     -3.2767999128e+02 stress_16
                     -4.4581358769e+02 stress_17
                     -2.6841041082e+02 stress_18
                      3.6735348488e+01 stress_19
                      2.9060218627e+02 stress_20
                      4.0662217951e+02 stress_21
                      4.5322739257e+02 stress_22
                      4.7352121849e+02 stress_23
                      4.8039903662e+02 stress_24
                      1.7836106096e+02 stress_25
                      2.9389680663e+02 stress_26
                      4.0274071218e+02 stress_27
                      4.2405495829e+02 stress_28
                      3.1209787337e+02 stress_29
                      1.1709143684e+02 stress_30
                     -1.1742642143e+02 stress_31
                     -3.0438678423e+02 stress_32
                     -4.0830987860e+02 stress_33
                     -4.6057607364e+02 stress_34
                     -4.9022968061e+02 stress_35
                     -5.1029011728e+02 stress_36
                     -5.2566743930e+02 stress_37
                     -5.3810945824e+02 stress_38
                     -5.4816234443e+02 stress_39
                     -5.5591023124e+02 stress_40
                     -5.6128805618e+02 stress_41
                     -5.6419855338e+02 stress_42
                     -5.5010622002e+02 stress_43
                     -1.9367431660e+02 stress_44
                      6.6996793349e+01 stress_45
                     -1.1945063842e+02 stress_46
                     -3.9309213223e+02 stress_47
                     -1.2200737565e+02 stress_48
                     -2.1570263563e+02 stress_49
                     -3.5580911512e+02 stress_50
                     -4.9924568057e+02 stress_51
                     -3.4424697339e+02 stress_52
                     -3.2706483947e+01 stress_53
                      2.3656359716e+02 stress_54
                      3.5774120241e+02 stress_55
                      4.0260181499e+02 stress_56
                      4.1629179958e+02 stress_57
                      3.3760075945e+02 stress_58
                      5.0262783307e+01 stress_59
                     -2.7087002308e+02 stress_60
                     -4.3765370099e+02 stress_61
                     -4.9714344005e+02 stress_62
                     -5.1082635458e+02 stress_63
                     -2.6534510088e+02 stress_64
                      9.3522590618e+01 stress_65
                      1.8044033383e+02 stress_66
                     -6.5464731166e+01 stress_67
                     -3.8551478812e+02 stress_68
                     -4.8699361252e+02 stress_69
                     -4.8839902569e+02 stress_70
                     -4.0145653426e+02 stress_71
                     -2.4380188562e+02 stress_72
                     -3.5750057510e+01 stress_73
                      1.6640315872e+02 stress_74
                      3.0580893676e+02 stress_75
                      3.8299081444e+02 stress_76
                      4.2537077905e+02 stress_77
                      4.5184097038e+02 stress_78
                      4.7113611559e+02 stress_79
                      4.8688451654e+02 stress_80
                      5.0053280482e+02 stress_81
                      5.1260507516e+02 stress_82
                      5.2322697219e+02 stress_83
                      5.3235512758e+02 stress_84
                      5.3987770494e+02 stress_85
                      5.4567137986e+02 stress_86
                      5.4962692282e+02 stress_87
                      5.5166079219e+02 stress_88
                      4.8447389259e+02 stress_89
                      8.1097645310e+01 stress_90
                     -1.2057454065e+02 stress_91
                      1.3915519689e+02 stress_92
                      4.0888977625e+02 stress_93
                      4.1447356654e+02 stress_94
                      3.5961410957e+02 stress_95
                      2.6089832309e+02 stress_96
                      1.2258007521e+02 stress_97
                     -4.0188621223e+01 stress_98
                     -1.9580873515e+02 stress_99
                     -3.1374768590e+02 stress_100
                     -3.8891932186e+02 stress_101
                     -4.3430706077e+02 stress_102
                     -4.6320442123e+02 stress_103
                     -4.8374636966e+02 stress_104
                     -5.0014382161e+02 stress_105
                     -5.1447558006e+02 stress_106
                     -5.2775216721e+02 stress_107
                     -5.4045407995e+02 stress_108
                     -5.5279296718e+02 stress_109
                     -5.6484035235e+02 stress_110
                     -5.7659189172e+02 stress_111
                     -5.8800079261e+02 stress_112
                     -5.9899910528e+02 stress_113
                     -6.0950731018e+02 stress_114
                     -6.1944050727e+02 stress_115
                     -6.2871372989e+02 stress_116
                     -6.3724355552e+02 stress_117
                     -6.4495320102e+02 stress_118
                     -6.5177123486e+02 stress_119
                     -6.5763220214e+02 stress_120
                     -6.6248207995e+02 stress_121
                     -6.6627413172e+02 stress_122
                     -6.6897161673e+02 stress_123
                     -6.7054970787e+02 stress_124
                     -6.7097365338e+02 stress_125
                     -5.7747459181e+02 stress_126
                     -3.4626777027e+02 stress_127
                     -4.8998116973e+01 stress_128
                      1.7804909137e+02 stress_129
                      2.9396904936e+02 stress_130
                      3.4761186183e+02 stress_131
                      3.7371697313e+02 stress_132
                      3.8562698382e+02 stress_133
                      3.8629345829e+02 stress_134
                      1.5941367611e+01 stress_135
                     -4.3224874495e+00 stress_136
                      1.6576134526e+02 stress_137
                      1.3283262835e+02 stress_138
                     -2.4489286524e+01 stress_139
                     -2.9368567674e+02 stress_140
                     -5.0851200568e+02 stress_141
                     -6.0369647535e+02 stress_142
                     -6.4257040261e+02 stress_143
                     -6.6062627927e+02 stress_144
                     -6.6814473725e+02 stress_145
                     -6.4955679129e+02 stress_146
                     -4.3179558887e+02 stress_147
                     -9.8434731595e+01 stress_148
                      1.5770027293e+02 stress_149
                      2.7467089639e+02 stress_150
                      3.1765808181e+02 stress_151
                      3.2294317379e+02 stress_152
                      1.2584578236e+02 stress_153
                     -2.1019785714e+02 stress_154
                     -4.6324746948e+02 stress_155
                     -5.6855684108e+02 stress_156
                     -6.0035520527e+02 stress_157
                     -4.8846221529e+02 stress_158
                     -1.1052088702e+02 stress_159
                      6.9172252158e+01 stress_160
                     -8.2409890627e+01 stress_161
                     -4.2320645634e+02 stress_162
                     -5.7445766998e+02 stress_163
                     -5.8845311800e+02 stress_164
                     -5.5039975472e+02 stress_165
                     -4.7535780064e+02 stress_166
                     -3.6473745955e+02 stress_167
                     -2.2375982528e+02 stress_168
                     -6.6918160619e+01 stress_169
                      8.1144001587e+01 stress_170
                      1.9805373491e+02 stress_171
                      2.7829401455e+02 stress_172
                      3.3008166161e+02 stress_173
                      3.6407654900e+02 stress_174
                      3.8801776881e+02 stress_175
                      4.0649373491e+02 stress_176
                      4.2203287781e+02 stress_177
                      4.3599890491e+02 stress_178
                      4.4912044522e+02 stress_179
                      4.6178244723e+02 stress_180
                      4.7418011493e+02 stress_181
                      4.8639975569e+02 stress_182
                      4.9846590008e+02 stress_183
                      5.1036530540e+02 stress_184
                      5.2206304050e+02 stress_185
                      5.3351044977e+02 stress_186
                      5.4465114327e+02 stress_187
                      5.5542494685e+02 stress_188
                      5.6576935141e+02 stress_189
                      5.7562244688e+02 stress_190
                      5.8492371381e+02 stress_191
                      5.9361369381e+02 stress_192
                      6.0163829390e+02 stress_193
                      6.0894562420e+02 stress_194
                      6.1548736786e+02 stress_195
                      6.2122217524e+02 stress_196
                      6.2611133472e+02 stress_197
                      6.3012373443e+02 stress_198
                      6.3323306592e+02 stress_199
                      6.3541788927e+02 stress_200
                      6.3666459771e+02 stress_201
                      6.3672566569e+02 stress_202
                      3.0424325439e+02 stress_203
                     -2.9310027789e+01 stress_204
                      6.9842968155e+01 stress_205
                      4.2807044248e+02 stress_206
                      4.4166129559e+02 stress_207
                      3.8258609988e+02 stress_208
                      2.7561377991e+02 stress_209
                      1.2631465198e+02 stress_210
                     -4.5323515429e+01 stress_211
                     -2.0118582166e+02 stress_212
                     -3.1177400530e+02 stress_213
                     -3.7882875772e+02 stress_214
                     -4.1874157182e+02 stress_215
                     -4.4463903228e+02 stress_216
                     -4.6372656596e+02 stress_217
                     -4.7952274577e+02 stress_218
                     -4.9369175023e+02 stress_219
                     -5.0700718145e+02 stress_220
                     -5.1981123483e+02 stress_221
                     -5.3222938710e+02 stress_222
                     -5.4427570579e+02 stress_223
                     -5.5590494663e+02 stress_224
                     -5.6704166820e+02 stress_225
                     -5.7759486927e+02 stress_226
                     -5.8746744032e+02 stress_227
                     -5.9656365570e+02 stress_228
                     -6.0478891828e+02 stress_229
                     -6.1205810623e+02 stress_230
                     -6.1829380094e+02 stress_231
                     -6.2342693179e+02 stress_232
                     -6.2740350739e+02 stress_233
                     -6.3017960951e+02 stress_234
                     -6.3172354812e+02 stress_235
                     -6.2580781612e+02 stress_236
                     -2.9088416249e+02 stress_237
                     -6.7341017448e+00 stress_238
                     -2.0801643533e+02 stress_239
                     -4.4400077666e+02 stress_240
                     -1.3954791439e+02 stress_241
                      3.0168900603e+01 stress_242
                     -2.7545852658e+02 stress_243
                     -3.9310236555e+02 stress_244
                     -4.9887976305e+02 stress_245
                     -3.2994637400e+02 stress_246
                     -1.4446778052e+01 stress_247
                      2.5019726847e+02 stress_248
                      3.6941937095e+02 stress_249
                      4.1380827116e+02 stress_250
                      4.2656558304e+02 stress_251
                      3.3048368808e+02 stress_252
                      3.3891835933e+01 stress_253
                     -2.9164351089e+02 stress_254
                     -4.6798140405e+02 stress_255
                     -5.3317588340e+02 stress_256
                     -5.4631293950e+02 stress_257
                     -2.9246214165e+02 stress_258
                      7.1582187035e+01 stress_259
                      1.9166940435e+02 stress_260
                     -4.3805075851e+00 stress_261
                     -3.5096748961e+02 stress_262
                     -5.1034724231e+02 stress_263
                     -5.3288281262e+02 stress_264
                     -4.9457188319e+02 stress_265
                     -4.0861479801e+02 stress_266
                     -2.7741914561e+02 stress_267
                     -1.1056665392e+02 stress_268
                      6.6783827260e+01 stress_269
                      2.1858758842e+02 stress_270
                      3.2454330527e+02 stress_271
                      3.9044978857e+02 stress_272
                      4.3126665019e+02 stress_273
                      4.5854232256e+02 stress_274
                      4.7885626145e+02 stress_275
                      4.9559163912e+02 stress_276
                      5.1043811672e+02 stress_277
                      5.2422548609e+02 stress_278
                      5.3734657258e+02 stress_279
                      5.4996666562e+02 stress_280
                      5.6212942199e+02 stress_281
                      5.7381244534e+02 stress_282
                      5.8495708337e+02 stress_283
                      5.9548677669e+02 stress_284
                      6.0531543632e+02 stress_285
                      6.1435629226e+02 stress_286
                      6.2252458378e+02 stress_287
                      6.2973981038e+02 stress_288
                      6.3593093539e+02 stress_289
                      6.4103516074e+02 stress_290
                      6.4499953597e+02 stress_291
                      6.4778409753e+02 stress_292
                      6.4935926344e+02 stress_293
                      6.4938252354e+02 stress_294
                      3.0585037483e+02 stress_295
                     -2.0386171233e+01 stress_296
                      9.8412662441e+01 stress_297
                      4.4235454212e+02 stress_298
                      4.5321708056e+02 stress_299
                      4.1356259005e+02 stress_300
                      3.4210254867e+02 stress_301
                      2.4008729242e+02 stress_302
                      1.1237125893e+02 stress_303
                     -2.8445764647e+01 stress_304
                     -1.6116662867e+02 stress_305
                     -2.6671398470e+02 stress_306
                     -3.4005168464e+02 stress_307
                     -3.8792421595e+02 stress_308
                     -4.1957138569e+02 stress_309
                     -4.4189824160e+02 stress_310
                     -4.5910707481e+02 stress_311
                     -4.7356342695e+02 stress_312
                     -4.8656500235e+02 stress_313
                     -4.9882264710e+02 stress_314
                     -5.1072321158e+02 stress_315
                     -5.2247236509e+02 stress_316
                     -5.3417301161e+02 stress_317
                     -5.4586713668e+02 stress_318
                     -5.5756033495e+02 stress_319
                     -5.6923619808e+02 stress_320
                     -5.8086376580e+02 stress_321
                     -5.9240383888e+02 stress_322
                     -6.0381107347e+02 stress_323
                     -6.1503723287e+02 stress_324
                     -6.2603277471e+02 stress_325
                     -6.3674622506e+02 stress_326
                     -6.4712776924e+02 stress_327
                     -6.5712627340e+02 stress_328
                     -6.6669411180e+02 stress_329
                     -6.7578436969e+02 stress_330
                     -6.8435151413e+02 stress_331
                     -6.9235374883e+02 stress_332
                     -6.9975057071e+02 stress_333
                     -7.0650542952e+02 stress_334
                     -7.1258521693e+02 stress_335
                     -7.1795763484e+02 stress_336
                     -7.2259739989e+02 stress_337
                     -7.2648044974e+02 stress_338
                     -7.2958708463e+02 stress_339
                     -7.3190230086e+02 stress_340
                     -7.3341413950e+02 stress_341
                     -7.3411471275e+02 stress_342


Active response data for evaluation 59:
Active set vector = { 1 1 1 1 1 1 1 1 1 1 1 1 1 1 1 1 1 1 1 1 1 1 1 1 1 1 1 1 1 1 1 1 1 1 1 1 1 1 1 1 1 1 1 1 1 1 1 1 1 1 1 1 1 1 1 1 1 1 1 1 1 1 1 1 1 1 1 1 1 1 1 1 1 1 1 1 1 1 1 1 1 1 1 1 1 1 1 1 1 1 1 1 1 1 1 1 1 1 1 1 1 1 1 1 1 1 1 1 1 1 1 1 1 1 1 1 1 1 1 1 1 1 1 1 1 1 1 1 1 1 1 1 1 1 1 1 1 1 1 1 1 1 1 1 1 1 1 1 1 1 1 1 1 1 1 1 1 1 1 1 1 1 1 1 1 1 1 1 1 1 1 1 1 1 1 1 1 1 1 1 1 1 1 1 1 1 1 1 1 1 1 1 1 1 1 1 1 1 1 1 1 1 1 1 1 1 1 1 1 1 1 1 1 1 1 1 1 1 1 1 1 1 1 1 1 1 1 1 1 1 1 1 1 1 1 1 1 1 1 1 1 1 1 1 1 1 1 1 1 1 1 1 1 1 1 1 1 1 1 1 1 1 1 1 1 1 1 1 1 1 1 1 1 1 1 1 1 1 1 1 1 1 1 1 1 1 1 1 1 1 1 1 1 1 1 1 1 1 1 1 1 1 1 1 1 1 1 1 1 1 1 1 1 1 1 1 1 1 1 1 1 1 1 1 1 1 1 1 1 1 1 1 1 1 1 1 1 1 1 1 1 1 }
                      2.2067746651e+00 stress_1
                     -2.2670654276e+02 stress_2
                     -4.5649519382e+02 stress_3
                     -4.6692663377e+02 stress_4
                     -1.6968404360e+02 stress_5
                      1.8944201688e+02 stress_6
                      3.3091761396e+02 stress_7
                      3.3188204866e+02 stress_8
                      1.0589769564e+02 stress_9
                     -2.1398241529e+02 stress_10
                     -3.9443211534e+02 stress_11
                     -4.5660027026e+02 stress_12
                     -4.7848910754e+02 stress_13
                     -4.8011431350e+02 stress_14
                     -1.7866419081e+02 stress_15
                     -3.2803197508e+02 stress_16
                     -4.4638131380e+02 stress_17
                     -2.6895986670e+02 stress_18
                      3.6627612001e+01 stress_19
                      2.9127758729e+02 stress_20
                      4.0734697340e+02 stress_21
                      4.5378121693e+02 stress_22
                      4.7396299802e+02 stress_23
                      4.8080035216e+02 stress_24
                      1.7866687132e+02 stress_25
                      2.9423829548e+02 stress_26
                      4.0329945364e+02 stress_27
                      4.2465279286e+02 stress_28
                      3.1269183950e+02 stress_29
                      1.1757055584e+02 stress_30
                     -1.1748442678e+02 stress_31
                     -3.0503700078e+02 stress_32
                     -4.0902629500e+02 stress_33
                     -4.6111981380e+02 stress_34
                     -4.9060978320e+02 stress_35
                     -5.1055863436e+02 stress_36
                     -5.2586496941e+02 stress_37
                     -5.3826214859e+02 stress_38
                     -5.4828660264e+02 stress_39
                     -5.5601665156e+02 stress_40
                     -5.6138387339e+02 stress_41
                     -5.6428916911e+02 stress_42
                     -5.5019683412e+02 stress_43
                     -1.9360369310e+02 stress_44
                      6.7640632480e+01 stress_45
                     -1.1885476341e+02 stress_46
                     -3.9324654735e+02 stress_47
                     -1.2207079429e+02 stress_48
                     -2.1577046069e+02 stress_49
                     -3.5601507249e+02 stress_50
                     -4.9980698905e+02 stress_51
                     -3.4479725591e+02 stress_52
                     -3.2866168611e+01 stress_53
                      2.3722703801e+02 stress_54
                      3.5851025288e+02 stress_55
                      4.0324212413e+02 stress_56
                      4.1686851612e+02 stress_57
                      3.3817656585e+02 stress_58
                      5.0664353447e+01 stress_59
                     -2.7133120737e+02 stress_60
                     -4.3848039763e+02 stress_61
                     -4.9789658268e+02 stress_62
                     -5.1153547152e+02 stress_63
                     -2.6600312852e+02 stress_64
                      9.3630003936e+01 stress_65
                      1.8085014456e+02 stress_66
                     -6.5138807473e+01 stress_67
                     -3.8600136549e+02 stress_68
                     -4.8764708408e+02 stress_69
                     -4.8905197577e+02 stress_70
                     -4.0210797269e+02 stress_71
                     -2.4440098670e+02 stress_72
                     -3.6021068107e+01 stress_73
                      1.6677092436e+02 stress_74
                      3.0653820127e+02 stress_75
                      3.8367081099e+02 stress_76
                      4.2588043854e+02 stress_77
                      4.5220291890e+02 stress_78
                      4.7139463740e+02 stress_79
                      4.8707428465e+02 stress_80
                      5.0067702547e+02 stress_81
                      5.1271876846e+02 stress_82
                      5.2331992584e+02 stress_83
                      5.3243387110e+02 stress_84
                      5.3994674949e+02 stress_85
                      5.4573398120e+02 stress_86
                      5.4968556866e+02 stress_87
                      5.5171753101e+02 stress_88
                      4.8453017559e+02 stress_89
                      8.0832767976e+01 stress_90
                     -1.2134325763e+02 stress_91
                      1.3851769057e+02 stress_92
                      4.0914901433e+02 stress_93
                      4.1475393008e+02 stress_94
                      3.5989414674e+02 stress_95
                      2.6116653108e+02 stress_96
                      1.2275702182e+02 stress_97
                     -4.0308639719e+01 stress_98
                     -1.9637498684e+02 stress_99
                     -3.1458149108e+02 stress_100
                     -3.8972798833e+02 stress_101
                     -4.3495454100e+02 stress_102
                     -4.6368444397e+02 stress_103
                     -4.8409453562e+02 stress_104
                     -5.0039716077e+02 stress_105
                     -5.1466254968e+02 stress_106
                     -5.2789275180e+02 stress_107
                     -5.4056193627e+02 stress_108
                     -5.5287740484e+02 stress_109
                     -5.6490777050e+02 stress_110
                     -5.7664674815e+02 stress_111
                     -5.8804624165e+02 stress_112
                     -5.9903741428e+02 stress_113
                     -6.0954013586e+02 stress_114
                     -6.1946908031e+02 stress_115
                     -6.2873897942e+02 stress_116
                     -6.3726619506e+02 stress_117
                     -6.4497378759e+02 stress_118
                     -6.5179021164e+02 stress_119
                     -6.5764992932e+02 stress_120
                     -6.6249885656e+02 stress_121
                     -6.6629021296e+02 stress_122
                     -6.6898722708e+02 stress_123
                     -6.7056505144e+02 stress_124
                     -6.7098892635e+02 stress_125
                     -5.7748851788e+02 stress_126
                     -3.4618884714e+02 stress_127
                     -4.8365662537e+01 stress_128
                      1.7920114963e+02 stress_129
                      2.9503964464e+02 stress_130
                      3.4844580996e+02 stress_131
                      3.7438336911e+02 stress_132
                      3.8620983740e+02 stress_133
                      3.8687158544e+02 stress_134
                      1.6361373924e+01 stress_135
                     -3.9316608913e+00 stress_136
                      1.6622852149e+02 stress_137
                      1.3329974146e+02 stress_138
                     -2.4052728311e+01 stress_139
                     -2.9371050616e+02 stress_140
                     -5.0917255423e+02 stress_141
                     -6.0432231597e+02 stress_142
                     -6.4302344767e+02 stress_143
                     -6.6097309906e+02 stress_144
                     -6.6844719996e+02 stress_145
                     -6.4985924999e+02 stress_146
                     -4.3206388388e+02 stress_147
                     -9.8194318919e+01 stress_148
                      1.5864555204e+02 stress_149
                      2.7568146811e+02 stress_150
                      3.1856524084e+02 stress_151
                      3.2383108413e+02 stress_152
                      1.2671152489e+02 stress_153
                     -2.0986433350e+02 stress_154
                     -4.6379036422e+02 stress_155
                     -5.6928117490e+02 stress_156
                     -6.0105298760e+02 stress_157
                     -4.8915686411e+02 stress_158
                     -1.1079350552e+02 stress_159
                      6.9463653731e+01 stress_160
                     -8.2134776222e+01 stress_161
                     -4.2355756771e+02 stress_162
                     -5.7515752049e+02 stress_163
                     -5.8915347476e+02 stress_164
                     -5.5110004225e+02 stress_165
                     -4.7605475613e+02 stress_166
                     -3.6540201981e+02 stress_167
                     -2.2428185277e+02 stress_168
                     -6.7090221220e+01 stress_169
                      8.1459192284e+01 stress_170
                      1.9872948259e+02 stress_171
                      2.7906826718e+02 stress_172
                      3.3077827381e+02 stress_173
                      3.6463888608e+02 stress_174
                      3.8845163852e+02 stress_175
                      4.0682379983e+02 stress_176
                      4.2228429271e+02 stress_177
                      4.3619209577e+02 stress_178
                      4.4927073473e+02 stress_179
                      4.6190098975e+02 stress_180
                      4.7427496101e+02 stress_181
                      4.8647672808e+02 stress_182
                      4.9852923864e+02 stress_183
                      5.1041812766e+02 stress_184
                      5.2210766318e+02 stress_185
                      5.3354861432e+02 stress_186
                      5.4468417374e+02 stress_187
                      5.5545386134e+02 stress_188
                      5.6579494190e+02 stress_189
                      5.7564533622e+02 stress_190
                      5.8494439742e+02 stress_191
                      5.9363257050e+02 stress_192
                      6.0165568812e+02 stress_193
                      6.0896180347e+02 stress_194
                      6.1550255581e+02 stress_195
                      6.2123656126e+02 stress_196
                      6.2612508213e+02 stress_197
                      6.3013698641e+02 stress_198
                      6.3324595063e+02 stress_199
                      6.3543052421e+02 stress_200
                      6.3667709309e+02 stress_201
                      6.3673815429e+02 stress_202
                      3.0415817530e+02 stress_203
                     -3.0043468926e+01 stress_204
                      6.9114037321e+01 stress_205
                      4.2808203262e+02 stress_206
                      4.4173054634e+02 stress_207
                      3.8265492903e+02 stress_208
                      2.7566742075e+02 stress_209
                      1.2625511581e+02 stress_210
                     -4.5718889533e+01 stress_211
                     -2.0199462413e+02 stress_212
                     -3.1272381190e+02 stress_213
                     -3.7964849309e+02 stress_214
                     -4.1935698738e+02 stress_215
                     -4.4507933988e+02 stress_216
                     -4.6403981445e+02 stress_217
                     -4.7974844944e+02 stress_218
                     -4.9385768057e+02 stress_219
                     -5.0713196577e+02 stress_220
                     -5.1990726443e+02 stress_221
                     -5.3230496996e+02 stress_222
                     -5.4433649339e+02 stress_223
                     -5.5595485107e+02 stress_224
                     -5.6708344720e+02 stress_225
                     -5.7763050360e+02 stress_226
                     -5.8749837961e+02 stress_227
                     -5.9659098054e+02 stress_228
                     -6.0481345093e+02 stress_229
                     -6.1208048460e+02 stress_230
                     -6.1831453155e+02 stress_231
                     -6.2344642771e+02 stress_232
                     -6.2742211480e+02 stress_233
                     -6.3019762909e+02 stress_234
                     -6.3174125170e+02 stress_235
                     -6.2582551966e+02 stress_236
                     -2.9079900176e+02 stress_237
                     -6.1264916570e+00 stress_238
                     -2.0748034143e+02 stress_239
                     -4.4410553931e+02 stress_240
                     -1.3954244446e+02 stress_241
                      3.0482571896e+01 stress_242
                     -2.7536587118e+02 stress_243
                     -3.9333422179e+02 stress_244
                     -4.9941811743e+02 stress_245
                     -3.3047048680e+02 stress_246
                     -1.4552686325e+01 stress_247
                      2.5089455649e+02 stress_248
                      3.7021596098e+02 stress_249
                      4.1448240615e+02 stress_250
                      4.2718273456e+02 stress_251
                      3.3109925780e+02 stress_252
                      3.4318910334e+01 stress_253
                     -2.9208284342e+02 stress_254
                     -4.6885744034e+02 stress_255
                     -5.3402324365e+02 stress_256
                     -5.4713112345e+02 stress_257
                     -2.9322947329e+02 stress_258
                      7.1569548961e+01 stress_259
                      1.9208247119e+02 stress_260
                     -4.0009108910e+00 stress_261
                     -3.5129641840e+02 stress_262
                     -5.1106891236e+02 stress_263
                     -5.3360845472e+02 stress_264
                     -4.9529745724e+02 stress_265
                     -4.0933589086e+02 stress_266
                     -2.7809092113e+02 stress_267
                     -1.1101898431e+02 stress_268
                      6.6814424386e+01 stress_269
                      2.1913449088e+02 stress_270
                      3.2531741811e+02 stress_271
                      3.9118073527e+02 stress_272
                      4.3185435854e+02 stress_273
                      4.5898697169e+02 stress_274
                      4.7918737402e+02 stress_275
                      4.9583932901e+02 stress_276
                      5.1062595609e+02 stress_277
                      5.2437046570e+02 stress_278
                      5.3746061877e+02 stress_279
                      5.5005811936e+02 stress_280
                      5.6220415635e+02 stress_281
                      5.7387464425e+02 stress_282
                      5.8500977002e+02 stress_283
                      5.9553216870e+02 stress_284
                      6.0535518741e+02 stress_285
                      6.1439165584e+02 stress_286
                      6.2255652704e+02 stress_287
                      6.2976909446e+02 stress_288
                      6.3595817153e+02 stress_289
                      6.4106085211e+02 stress_290
                      6.4502410861e+02 stress_291
                      6.4780792368e+02 stress_292
                      6.4938268093e+02 stress_293
                      6.4940593508e+02 stress_294
                      3.0576815600e+02 stress_295
                     -2.1107633138e+01 stress_296
                      9.7700335428e+01 stress_297
                      4.4240141741e+02 stress_298
                      4.5330891409e+02 stress_299
                      4.1365432600e+02 stress_300
                      3.4219058725e+02 stress_301
                      2.4014400621e+02 stress_302
                      1.1230296925e+02 stress_303
                     -2.8796860519e+01 stress_304
                     -1.6187690943e+02 stress_305
                     -2.6764475736e+02 stress_306
                     -3.4097741115e+02 stress_307
                     -3.8870945051e+02 stress_308
                     -4.2018617929e+02 stress_309
                     -4.4236353822e+02 stress_310
                     -4.5945599407e+02 stress_311
                     -4.7382595740e+02 stress_312
                     -4.8676443528e+02 stress_313
                     -4.9897604420e+02 stress_314
                     -5.1084281140e+02 stress_315
                     -5.2256691067e+02 stress_316
                     -5.3424877340e+02 stress_317
                     -5.4592864933e+02 stress_318
                     -5.5761091142e+02 stress_319
                     -5.6927828548e+02 stress_320
                     -5.8089919261e+02 stress_321
                     -5.9243398648e+02 stress_322
                     -6.0383699726e+02 stress_323
                     -6.1505974765e+02 stress_324
                     -6.2605251588e+02 stress_325
                     -6.3676369336e+02 stress_326
                     -6.4714336276e+02 stress_327
                     -6.5714031195e+02 stress_328
                     -6.6670685435e+02 stress_329
                     -6.7579602798e+02 stress_330
                     -6.8436226297e+02 stress_331
                     -6.9236373374e+02 stress_332
                     -6.9975991414e+02 stress_333
                     -7.0651423548e+02 stress_334
                     -7.1259357473e+02 stress_335
                     -7.1796562223e+02 stress_336
                     -7.2260508527e+02 stress_337
                     -7.2648789428e+02 stress_338
                     -7.2959434388e+02 stress_339
                     -7.3190942611e+02 stress_340
                     -7.3342117907e+02 stress_341
                     -7.3412171309e+02 stress_342


Active response data for evaluation 60:
Active set vector = { 1 1 1 1 1 1 1 1 1 1 1 1 1 1 1 1 1 1 1 1 1 1 1 1 1 1 1 1 1 1 1 1 1 1 1 1 1 1 1 1 1 1 1 1 1 1 1 1 1 1 1 1 1 1 1 1 1 1 1 1 1 1 1 1 1 1 1 1 1 1 1 1 1 1 1 1 1 1 1 1 1 1 1 1 1 1 1 1 1 1 1 1 1 1 1 1 1 1 1 1 1 1 1 1 1 1 1 1 1 1 1 1 1 1 1 1 1 1 1 1 1 1 1 1 1 1 1 1 1 1 1 1 1 1 1 1 1 1 1 1 1 1 1 1 1 1 1 1 1 1 1 1 1 1 1 1 1 1 1 1 1 1 1 1 1 1 1 1 1 1 1 1 1 1 1 1 1 1 1 1 1 1 1 1 1 1 1 1 1 1 1 1 1 1 1 1 1 1 1 1 1 1 1 1 1 1 1 1 1 1 1 1 1 1 1 1 1 1 1 1 1 1 1 1 1 1 1 1 1 1 1 1 1 1 1 1 1 1 1 1 1 1 1 1 1 1 1 1 1 1 1 1 1 1 1 1 1 1 1 1 1 1 1 1 1 1 1 1 1 1 1 1 1 1 1 1 1 1 1 1 1 1 1 1 1 1 1 1 1 1 1 1 1 1 1 1 1 1 1 1 1 1 1 1 1 1 1 1 1 1 1 1 1 1 1 1 1 1 1 1 1 1 1 1 1 1 1 1 1 1 1 1 1 1 1 1 1 1 1 1 1 1 }
                      2.2067746651e+00 stress_1
                     -2.2667642395e+02 stress_2
                     -4.5633389277e+02 stress_3
                     -4.6679283356e+02 stress_4
                     -1.6955329463e+02 stress_5
                      1.8952885667e+02 stress_6
                      3.3096546511e+02 stress_7
                      3.3192960042e+02 stress_8
                      1.0594575622e+02 stress_9
                     -2.1393461095e+02 stress_10
                     -3.9440302769e+02 stress_11
                     -4.5658638283e+02 stress_12
                     -4.7848140651e+02 stress_13
                     -4.8010706394e+02 stress_14
                     -1.7865746670e+02 stress_15
                     -3.2801342793e+02 stress_16
                     -4.4632513696e+02 stress_17
                     -2.6890386027e+02 stress_18
                      3.6677319428e+01 stress_19
                      2.9130573080e+02 stress_20
                      4.0735915596e+02 stress_21
                      4.5378719982e+02 stress_22
                      4.7396679330e+02 stress_23
                      4.8080352329e+02 stress_24
                      1.7867020706e+02 stress_25
                      2.9423626446e+02 stress_26
                      4.0325932578e+02 stress_27
                      4.2460316312e+02 stress_28
                      3.1264223357e+02 stress_29
                      1.1752186975e+02 stress_30
                     -1.1752695358e+02 stress_31
                     -3.0506729230e+02 stress_32
                     -4.0904703014e+02 stress_33
                     -4.6113596396e+02 stress_34
                     -4.9062399756e+02 stress_35
                     -5.1057200897e+02 stress_36
                     -5.2587795346e+02 stress_37
                     -5.3827493748e+02 stress_38
                     -5.4829928811e+02 stress_39
                     -5.5602928035e+02 stress_40
                     -5.6139647158e+02 stress_41
                     -5.6430175314e+02 stress_42
                     -5.5020941815e+02 stress_43
                     -1.9361623332e+02 stress_44
                      6.7629134055e+01 stress_45
                     -1.1886337051e+02 stress_46
                     -3.9321726117e+02 stress_47
                     -1.2204199906e+02 stress_48
                     -2.1574017226e+02 stress_49
                     -3.5593825381e+02 stress_50
                     -4.9961696371e+02 stress_51
                     -3.4460741501e+02 stress_52
                     -3.2689210643e+01 stress_53
                      2.3734249928e+02 stress_54
                      3.5857066799e+02 stress_55
                      4.0327918626e+02 stress_56
                      4.1689872329e+02 stress_57
                      3.3820677490e+02 stress_58
                      5.0694296580e+01 stress_59
                     -2.7130941477e+02 stress_60
                     -4.3847451782e+02 stress_61
                     -4.9789964271e+02 stress_62
                     -5.1154079482e+02 stress_63
                     -2.6600849112e+02 stress_64
                      9.3624601093e+01 stress_65
                      1.8084504052e+02 stress_66
                     -6.5142651919e+01 stress_67
                     -3.8599752702e+02 stress_68
                     -4.8764689909e+02 stress_69
                     -4.8905191314e+02 stress_70
                     -4.0210791196e+02 stress_71
                     -2.4440099053e+02 stress_72
                     -3.6021462109e+01 stress_73
                      1.6676983694e+02 stress_74
                      3.0653685541e+02 stress_75
                      3.8366969972e+02 stress_76
                      4.2587964837e+02 stress_77
                      4.5220237374e+02 stress_78
                      4.7139425502e+02 stress_79
                      4.8707400742e+02 stress_80
                      5.0067681664e+02 stress_81
                      5.1271860492e+02 stress_82
                      5.2331979280e+02 stress_83
                      5.3243375882e+02 stress_84
                      5.3994665131e+02 stress_85
                      5.4573389236e+02 stress_86
                      5.4968548553e+02 stress_87
                      5.5171745063e+02 stress_88
                      4.8453009503e+02 stress_89
                      8.0831727082e+01 stress_90
                     -1.2134764400e+02 stress_91
                      1.3850723848e+02 stress_92
                      4.0910557279e+02 stress_93
                      4.1471003131e+02 stress_94
                      3.5985024864e+02 stress_95
                      2.6112266378e+02 stress_96
                      1.2271346396e+02 stress_97
                     -4.0350800724e+01 stress_98
                     -1.9641385423e+02 stress_99
                     -3.1461608214e+02 stress_100
                     -3.8975908981e+02 stress_101
                     -4.3498347119e+02 stress_102
                     -4.6371216639e+02 stress_103
                     -4.8412160102e+02 stress_104
                     -5.0042386238e+02 stress_105
                     -5.1468904312e+02 stress_106
                     -5.2791912164e+02 stress_107
                     -5.4058823003e+02 stress_108
                     -5.5290365015e+02 stress_109
                     -5.6493398398e+02 stress_110
                     -5.7667294014e+02 stress_111
                     -5.8807241877e+02 stress_112
                     -5.9906358086e+02 stress_113
                     -6.0956629483e+02 stress_114
                     -6.1949523369e+02 stress_115
                     -6.2876512864e+02 stress_116
                     -6.3729234116e+02 stress_117
                     -6.4499993131e+02 stress_118
                     -6.5181635356e+02 stress_119
                     -6.5767606988e+02 stress_120
                     -6.6252499610e+02 stress_121
                     -6.6631635177e+02 stress_122
                     -6.6901336541e+02 stress_123
                     -6.7059118949e+02 stress_124
                     -6.7101506433e+02 stress_125
                     -5.7751465457e+02 stress_126
                     -3.4621477451e+02 stress_127
                     -4.8388842977e+01 stress_128
                      1.7918535178e+02 stress_129
                      2.9503047824e+02 stress_130
                      3.4844022226e+02 stress_131
                      3.7437945591e+02 stress_132
                      3.8620662337e+02 stress_133
                      3.8686840879e+02 stress_134
                      1.6358054732e+01 stress_135
                     -3.9350375540e+00 stress_136
                      1.6622518165e+02 stress_137
                      1.3329640170e+02 stress_138
                     -2.4056090784e+01 stress_139
                     -2.9371609892e+02 stress_140
                     -5.0918921171e+02 stress_141
                     -6.0434949448e+02 stress_142
                     -6.4305563741e+02 stress_143
                     -6.6100736764e+02 stress_144
                     -6.6848221596e+02 stress_145
                     -6.4989426598e+02 stress_146
                     -4.3209881546e+02 stress_147
                     -9.8226433181e+01 stress_148
                      1.5862328035e+02 stress_149
                      2.7566769535e+02 stress_150
                      3.1855521003e+02 stress_151
                      3.2382152525e+02 stress_152
                      1.2670204302e+02 stress_153
                     -2.0987344602e+02 stress_154
                     -4.6380464880e+02 stress_155
                     -5.6930254309e+02 stress_156
                     -6.0107740573e+02 stress_157
                     -4.8918127898e+02 stress_158
                     -1.1081655773e+02 stress_159
                      6.9444085820e+01 stress_160
                     -8.2154025968e+01 stress_161
                     -4.2356745563e+02 stress_162
                     -5.7516830548e+02 stress_163
                     -5.8916538928e+02 stress_164
                     -5.5111195677e+02 stress_165
                     -4.7606666975e+02 stress_166
                     -3.6541391436e+02 stress_167
                     -2.2429359766e+02 stress_168
                     -6.7101344381e+01 stress_169
                      8.1449576143e+01 stress_170
                      1.9872210335e+02 stress_171
                      2.7906312693e+02 stress_172
                      3.3077486646e+02 stress_173
                      3.6463665113e+02 stress_174
                      3.8845015528e+02 stress_175
                      4.0682279364e+02 stress_176
                      4.2228359250e+02 stress_177
                      4.3619159570e+02 stress_178
                      4.4927036858e+02 stress_179
                      4.6190071529e+02 stress_180
                      4.7427475075e+02 stress_181
                      4.8647656372e+02 stress_182
                      4.9852910773e+02 stress_183
                      5.1041802155e+02 stress_184
                      5.2210757576e+02 stress_185
                      5.3354854119e+02 stress_186
                      5.4468411167e+02 stress_187
                      5.5545380794e+02 stress_188
                      5.6579489536e+02 stress_189
                      5.7564529516e+02 stress_190
                      5.8494436076e+02 stress_191
                      5.9363253740e+02 stress_192
                      6.0165565790e+02 stress_193
                      6.0896177559e+02 stress_194
                      6.1550252982e+02 stress_195
                      6.2123653679e+02 stress_196
                      6.2612505886e+02 stress_197
                      6.3013696406e+02 stress_198
                      6.3324592897e+02 stress_199
                      6.3543050301e+02 stress_200
                      6.3667707215e+02 stress_201
                      6.3673813336e+02 stress_202
                      3.0415773294e+02 stress_203
                     -3.0050126827e+01 stress_204
                      6.9107096538e+01 stress_205
                      4.2803542575e+02 stress_206
                      4.4168137367e+02 stress_207
                      3.8260575666e+02 stress_208
                      2.7561826128e+02 stress_209
                      1.2620607619e+02 stress_210
                     -4.5767447629e+01 stress_211
                     -2.0204222297e+02 stress_212
                     -3.1277039125e+02 stress_213
                     -3.7969438439e+02 stress_214
                     -4.1940251231e+02 stress_215
                     -4.4512468520e+02 stress_216
                     -4.6408507223e+02 stress_217
                     -4.7979366349e+02 stress_218
                     -4.9390287203e+02 stress_219
                     -5.0717714517e+02 stress_220
                     -5.1995243719e+02 stress_221
                     -5.3235013897e+02 stress_222
                     -5.4438166024e+02 stress_223
                     -5.5600001665e+02 stress_224
                     -5.6712861203e+02 stress_225
                     -5.7767566799e+02 stress_226
                     -5.8754354374e+02 stress_227
                     -5.9663614452e+02 stress_228
                     -6.0485861482e+02 stress_229
                     -6.1212564844e+02 stress_230
                     -6.1835969538e+02 stress_231
                     -6.2349159152e+02 stress_232
                     -6.2746727861e+02 stress_233
                     -6.3024279290e+02 stress_234
                     -6.3178641552e+02 stress_235
                     -6.2587068347e+02 stress_236
                     -2.9084373739e+02 stress_237
                     -6.1668286234e+00 stress_238
                     -2.0752060915e+02 stress_239
                     -4.4414593887e+02 stress_240
                     -1.3958231653e+02 stress_241
                      3.0445258926e+01 stress_242
                     -2.7540314991e+02 stress_243
                     -3.9337189335e+02 stress_244
                     -4.9945715045e+02 stress_245
                     -3.3050948173e+02 stress_246
                     -1.4589143678e+01 stress_247
                      2.5087004009e+02 stress_248
                      3.7020241535e+02 stress_249
                      4.1447369624e+02 stress_250
                      4.2717539848e+02 stress_251
                      3.3109192057e+02 stress_252
                      3.4311000102e+01 stress_253
                     -2.9209760518e+02 stress_254
                     -4.6888329555e+02 stress_255
                     -5.3405511264e+02 stress_256
                     -5.4716430813e+02 stress_257
                     -2.9326253142e+02 stress_258
                      7.1540917333e+01 stress_259
                      1.9205854553e+02 stress_260
                     -4.0248581633e+00 stress_261
                     -3.5132335941e+02 stress_262
                     -5.1110243164e+02 stress_263
                     -5.3364339758e+02 stress_264
                     -4.9533240003e+02 stress_265
                     -4.0937082545e+02 stress_266
                     -2.7812571355e+02 stress_267
                     -1.1105279343e+02 stress_268
                      6.6784103825e+01 stress_269
                      2.1911089248e+02 stress_270
                      3.2530143255e+02 stress_271
                      3.9117070991e+02 stress_272
                      4.3184817586e+02 stress_273
                      4.5898309247e+02 stress_274
                      4.7918486227e+02 stress_275
                      4.9583764374e+02 stress_276
                      5.1062478474e+02 stress_277
                      5.2436962394e+02 stress_278
                      5.3745999484e+02 stress_279
                      5.5005764350e+02 stress_280
                      5.6220378372e+02 stress_281
                      5.7387434523e+02 stress_282
                      5.8500952453e+02 stress_283
                      5.9553196281e+02 stress_284
                      6.0535501121e+02 stress_285
                      6.1439150214e+02 stress_286
                      6.2255639049e+02 stress_287
                      6.2976897101e+02 stress_288
                      6.3595805802e+02 stress_289
                      6.4106074599e+02 stress_290
                      6.4502400780e+02 stress_291
                      6.4780782639e+02 stress_292
                      6.4938258556e+02 stress_293
                      6.4940583973e+02 stress_294
                      3.0576760486e+02 stress_295
                     -2.1114180052e+01 stress_296
                      9.7693319627e+01 stress_297
                      4.4236171169e+02 stress_298
                      4.5326766583e+02 stress_299
                      4.1361307777e+02 stress_300
                      3.4214933956e+02 stress_301
                      2.4010275927e+02 stress_302
                      1.1226170200e+02 stress_303
                     -2.8838261767e+01 stress_304
                     -1.6191870627e+02 stress_305
                     -2.6768721900e+02 stress_306
                     -3.4102060433e+02 stress_307
                     -3.8875325417e+02 stress_308
                     -4.2023042131e+02 stress_309
                     -4.4240807459e+02 stress_310
                     -4.5950072409e+02 stress_311
                     -4.7387081520e+02 stress_312
                     -4.8680937857e+02 stress_313
                     -4.9902104572e+02 stress_314
                     -5.1088785338e+02 stress_315
                     -5.2261198132e+02 stress_316
                     -5.3429386473e+02 stress_317
                     -5.4597375585e+02 stress_318
                     -5.5765602928e+02 stress_319
                     -5.6932341193e+02 stress_320
                     -5.8094432565e+02 stress_321
                     -5.9247912466e+02 stress_322
                     -6.0388213947e+02 stress_323
                     -6.1510489306e+02 stress_324
                     -6.2609766387e+02 stress_325
                     -6.3680884344e+02 stress_326
                     -6.4718851454e+02 stress_327
                     -6.5718546513e+02 stress_328
                     -6.6675200869e+02 stress_329
                     -6.7584118328e+02 stress_330
                     -6.8440741907e+02 stress_331
                     -6.9240889050e+02 stress_332
                     -6.9980507146e+02 stress_333
                     -7.0655939326e+02 stress_334
                     -7.1263873289e+02 stress_335
                     -7.1801078072e+02 stress_336
                     -7.2265024402e+02 stress_337
                     -7.2653305324e+02 stress_338
                     -7.2963950299e+02 stress_339
                     -7.3195458533e+02 stress_340
                     -7.3346633837e+02 stress_341
                     -7.3416687242e+02 stress_342


Active response data for evaluation 61:
Active set vector = { 1 1 1 1 1 1 1 1 1 1 1 1 1 1 1 1 1 1 1 1 1 1 1 1 1 1 1 1 1 1 1 1 1 1 1 1 1 1 1 1 1 1 1 1 1 1 1 1 1 1 1 1 1 1 1 1 1 1 1 1 1 1 1 1 1 1 1 1 1 1 1 1 1 1 1 1 1 1 1 1 1 1 1 1 1 1 1 1 1 1 1 1 1 1 1 1 1 1 1 1 1 1 1 1 1 1 1 1 1 1 1 1 1 1 1 1 1 1 1 1 1 1 1 1 1 1 1 1 1 1 1 1 1 1 1 1 1 1 1 1 1 1 1 1 1 1 1 1 1 1 1 1 1 1 1 1 1 1 1 1 1 1 1 1 1 1 1 1 1 1 1 1 1 1 1 1 1 1 1 1 1 1 1 1 1 1 1 1 1 1 1 1 1 1 1 1 1 1 1 1 1 1 1 1 1 1 1 1 1 1 1 1 1 1 1 1 1 1 1 1 1 1 1 1 1 1 1 1 1 1 1 1 1 1 1 1 1 1 1 1 1 1 1 1 1 1 1 1 1 1 1 1 1 1 1 1 1 1 1 1 1 1 1 1 1 1 1 1 1 1 1 1 1 1 1 1 1 1 1 1 1 1 1 1 1 1 1 1 1 1 1 1 1 1 1 1 1 1 1 1 1 1 1 1 1 1 1 1 1 1 1 1 1 1 1 1 1 1 1 1 1 1 1 1 1 1 1 1 1 1 1 1 1 1 1 1 1 1 1 1 1 1 }
                      2.2067746651e+00 stress_1
                     -2.2667909719e+02 stress_2
                     -4.5634467911e+02 stress_3
                     -4.6680063957e+02 stress_4
                     -1.6956084537e+02 stress_5
                      1.8952654393e+02 stress_6
                      3.3096914461e+02 stress_7
                      3.3193333129e+02 stress_8
                      1.0594951364e+02 stress_9
                     -2.1393006306e+02 stress_10
                     -3.9439690269e+02 stress_11
                     -4.5657949697e+02 stress_12
                     -4.7847427072e+02 stress_13
                     -4.8009991113e+02 stress_14
                     -1.7865014400e+02 stress_15
                     -3.2800615187e+02 stress_16
                     -4.4631712828e+02 stress_17
                     -2.6889582781e+02 stress_18
                      3.6686512441e+01 stress_19
                      2.9131979626e+02 stress_20
                      4.0737749029e+02 stress_21
                      4.5380742975e+02 stress_22
                      4.7398775640e+02 stress_23
                      4.8082470611e+02 stress_24
                      1.7869129445e+02 stress_25
                      2.9425729297e+02 stress_26
                      4.0328036272e+02 stress_27
                      4.2462439078e+02 stress_28
                      3.1266345871e+02 stress_29
                      1.1754296757e+02 stress_30
                     -1.1750691331e+02 stress_31
                     -3.0504978021e+02 stress_32
                     -4.0903185300e+02 stress_33
                     -4.6112209278e+02 stress_34
                     -4.9061075979e+02 stress_35
                     -5.1055908255e+02 stress_36
                     -5.2586518898e+02 stress_37
                     -5.3826226234e+02 stress_38
                     -5.4828666448e+02 stress_39
                     -5.5601668698e+02 stress_40
                     -5.6138389541e+02 stress_41
                     -5.6428918520e+02 stress_42
                     -5.5019685020e+02 stress_43
                     -1.9360302003e+02 stress_44
                      6.7646836185e+01 stress_45
                     -1.1884561910e+02 stress_46
                     -3.9319820203e+02 stress_47
                     -1.2202262592e+02 stress_48
                     -2.1572081947e+02 stress_49
                     -3.5591949311e+02 stress_50
                     -4.9959922729e+02 stress_51
                     -3.4458965501e+02 stress_52
                     -3.2669736050e+01 stress_53
                      2.3737034788e+02 stress_54
                      3.5860612771e+02 stress_55
                      4.0331790675e+02 stress_56
                      4.1693840567e+02 stress_57
                      3.3824645631e+02 stress_58
                      5.0733584738e+01 stress_59
                     -2.7127430559e+02 stress_60
                     -4.3844522847e+02 stress_61
                     -4.9787312625e+02 stress_62
                     -5.1151493522e+02 stress_63
                     -2.6598254013e+02 stress_64
                      9.3653522500e+01 stress_65
                      1.8087604195e+02 stress_66
                     -6.5111769933e+01 stress_67
                     -3.8596956027e+02 stress_68
                     -4.8762150807e+02 stress_69
                     -4.8902656452e+02 stress_70
                     -4.0208256151e+02 stress_71
                     -2.4437553806e+02 stress_72
                     -3.5994966832e+01 stress_73
                      1.6679998838e+02 stress_74
                      3.0657218062e+02 stress_75
                      3.8370889880e+02 stress_76
                      4.2592100093e+02 stress_77
                      4.5224483568e+02 stress_78
                      4.7143729876e+02 stress_79
                      4.8711737090e+02 stress_80
                      5.0072036507e+02 stress_81
                      5.1276226538e+02 stress_82
                      5.2336352374e+02 stress_83
                      5.3247753529e+02 stress_84
                      5.3999045750e+02 stress_85
                      5.4577771766e+02 stress_86
                      5.4972932231e+02 stress_87
                      5.5176129286e+02 stress_88
                      4.8457393682e+02 stress_89
                      8.0874694986e+01 stress_90
                     -1.2130729690e+02 stress_91
                      1.3854795055e+02 stress_92
                      4.0915105840e+02 stress_93
                      4.1475571190e+02 stress_94
                      3.5989592885e+02 stress_95
                      2.6116832280e+02 stress_96
                      1.2275887982e+02 stress_97
                     -4.0306610384e+01 stress_98
                     -1.9637283935e+02 stress_99
                     -3.1457954455e+02 stress_100
                     -3.8972648353e+02 stress_101
                     -4.3495347671e+02 stress_102
                     -4.6368371289e+02 stress_103
                     -4.8409403182e+02 stress_104
                     -5.0039680736e+02 stress_105
                     -5.1466229593e+02 stress_106
                     -5.2789256502e+02 stress_107
                     -5.4056179540e+02 stress_108
                     -5.5287729608e+02 stress_109
                     -5.6490768465e+02 stress_110
                     -5.7664667897e+02 stress_111
                     -5.8804618480e+02 stress_112
                     -5.9903736669e+02 stress_113
                     -6.0954009532e+02 stress_114
                     -6.1946904520e+02 stress_115
                     -6.2873894853e+02 stress_116
                     -6.3726616747e+02 stress_117
                     -6.4497376257e+02 stress_118
                     -6.5179018864e+02 stress_119
                     -6.5764990788e+02 stress_120
                     -6.6249883631e+02 stress_121
                     -6.6629019357e+02 stress_122
                     -6.6898720828e+02 stress_123
                     -6.7056503297e+02 stress_124
                     -6.7098890796e+02 stress_125
                     -5.7748849412e+02 stress_126
                     -3.4618809147e+02 stress_127
                     -4.8356058312e+01 stress_128
                      1.7923342211e+02 stress_129
                      2.9509164490e+02 stress_130
                      3.4850823397e+02 stress_131
                      3.7445060518e+02 stress_132
                      3.8627906716e+02 stress_133
                      3.8694092148e+02 stress_134
                      1.6429958864e+01 stress_135
                     -3.8632741371e+00 stress_136
                      1.6629713080e+02 stress_137
                      1.3336835072e+02 stress_138
                     -2.3984254597e+01 stress_139
                     -2.9364767783e+02 stress_140
                     -5.0913269698e+02 stress_141
                     -6.0430233911e+02 stress_142
                     -6.4301246126e+02 stress_143
                     -6.6096573704e+02 stress_144
                     -6.6844112236e+02 stress_145
                     -6.4985317238e+02 stress_146
                     -4.3205761229e+02 stress_147
                     -9.8181951697e+01 stress_148
                      1.5867856289e+02 stress_149
                      2.7573197136e+02 stress_150
                      3.1862336468e+02 stress_151
                      3.2389016528e+02 stress_152
                      1.2677062827e+02 stress_153
                     -2.0980747616e+02 stress_154
                     -4.6374797784e+02 stress_155
                     -5.6925296072e+02 stress_156
                     -6.0103029424e+02 stress_157
                     -4.8913416113e+02 stress_158
                     -1.1076742627e+02 stress_159
                      6.9497991003e+01 stress_160
                     -8.2100151650e+01 stress_161
                     -4.2351655480e+02 stress_162
                     -5.7512266991e+02 stress_163
                     -5.8912042354e+02 stress_164
                     -5.5106699091e+02 stress_165
                     -4.7602169643e+02 stress_166
                     -3.6536884001e+02 stress_167
                     -2.2424790058e+02 stress_168
                     -6.7053430472e+01 stress_169
                      8.1502308086e+01 stress_170
                      1.9878142520e+02 stress_171
                      2.7912863689e+02 stress_172
                      3.3084492664e+02 stress_173
                      3.6470966307e+02 stress_174
                      3.8852499444e+02 stress_175
                      4.0689875816e+02 stress_176
                      4.2236026032e+02 stress_177
                      4.3626871320e+02 stress_178
                      4.4934778096e+02 stress_179
                      4.6197832600e+02 stress_180
                      4.7435249809e+02 stress_181
                      4.8655440731e+02 stress_182
                      4.9860702054e+02 stress_183
                      5.1049598509e+02 stress_184
                      5.2218557711e+02 stress_185
                      5.3362657116e+02 stress_186
                      5.4476216360e+02 stress_187
                      5.5553187695e+02 stress_188
                      5.6587297778e+02 stress_189
                      5.7572338821e+02 stress_190
                      5.8502246230e+02 stress_191
                      5.9371064577e+02 stress_192
                      6.0173377177e+02 stress_193
                      6.0903989391e+02 stress_194
                      6.1558065172e+02 stress_195
                      6.2131466155e+02 stress_196
                      6.2620318589e+02 stress_197
                      6.3021509283e+02 stress_198
                      6.3332405902e+02 stress_199
                      6.3550863393e+02 stress_200
                      6.3675520355e+02 stress_201
                      6.3681626479e+02 stress_202
                      3.0423552361e+02 stress_203
                     -2.9977095606e+01 stress_204
                      6.9180145244e+01 stress_205
                      4.2811355059e+02 stress_206
                      4.4176004891e+02 stress_207
                      3.8268443101e+02 stress_208
                      2.7569688610e+02 stress_209
                      1.2628413521e+02 stress_210
                     -4.5692122247e+01 stress_211
                     -2.0197334699e+02 stress_212
                     -3.1270955247e+02 stress_213
                     -3.7963986394e+02 stress_214
                     -4.1935189034e+02 stress_215
                     -4.4507626962e+02 stress_216
                     -4.6403789579e+02 stress_217
                     -4.7974720034e+02 stress_218
                     -4.9385683424e+02 stress_219
                     -5.0713137060e+02 stress_220
                     -5.1990683135e+02 stress_221
                     -5.3230464485e+02 stress_222
                     -5.4433624225e+02 stress_223
                     -5.5595465189e+02 stress_224
                     -5.6708328532e+02 stress_225
                     -5.7763036901e+02 stress_226
                     -5.8749826528e+02 stress_227
                     -5.9659088144e+02 stress_228
                     -6.0481336335e+02 stress_229
                     -6.1208040576e+02 stress_230
                     -6.1831445930e+02 stress_231
                     -6.2344636034e+02 stress_232
                     -6.2742205091e+02 stress_233
                     -6.3019756749e+02 stress_234
                     -6.3174119133e+02 stress_235
                     -6.2582545928e+02 stress_236
                     -2.9079801400e+02 stress_237
                     -6.1163029939e+00 stress_238
                     -2.0747014781e+02 stress_239
                     -4.4409673124e+02 stress_240
                     -1.3953249225e+02 stress_241
                      3.0497934359e+01 stress_242
                     -2.7535084027e+02 stress_243
                     -3.9332051596e+02 stress_244
                     -4.9940753079e+02 stress_245
                     -3.3045981294e+02 stress_246
                     -1.4536529018e+01 stress_247
                      2.5093578744e+02 stress_248
                      3.7027982463e+02 stress_249
                      4.1455614072e+02 stress_250
                      4.2725925946e+02 stress_251
                      3.3117577800e+02 stress_252
                      3.4393998734e+01 stress_253
                     -2.9202277239e+02 stress_254
                     -4.6882020403e+02 stress_255
                     -5.3399797741e+02 stress_256
                     -5.4710844078e+02 stress_257
                     -2.9320649878e+02 stress_258
                      7.1602082674e+01 stress_259
                      1.9212492606e+02 stress_260
                     -3.9585576698e+00 stress_261
                     -3.5126121137e+02 stress_262
                     -5.1104732970e+02 stress_263
                     -5.3358967493e+02 stress_264
                     -4.9527867726e+02 stress_265
                     -4.0931709120e+02 stress_266
                     -2.7807179756e+02 stress_267
                     -1.1099769626e+02 stress_268
                      6.6843206021e+01 stress_269
                      2.1917744996e+02 stress_270
                      3.2537620556e+02 stress_271
                      3.9125177400e+02 stress_272
                      4.3193322252e+02 stress_273
                      4.5907049019e+02 stress_274
                      4.7927363764e+02 stress_275
                      4.9592724245e+02 stress_276
                      5.1071489041e+02 stress_277
                      5.2446005193e+02 stress_278
                      5.3755063423e+02 stress_279
                      5.5014842561e+02 stress_280
                      5.6229466472e+02 stress_281
                      5.7396529637e+02 stress_282
                      5.8510052644e+02 stress_283
                      5.9562300211e+02 stress_284
                      6.0544607844e+02 stress_285
                      6.1448259047e+02 stress_286
                      6.2264749486e+02 stress_287
                      6.2986008759e+02 stress_288
                      6.3604918384e+02 stress_289
                      6.4115187869e+02 stress_290
                      6.4511514543e+02 stress_291
                      6.4789896727e+02 stress_292
                      6.4947372822e+02 stress_293
                      6.4949698242e+02 stress_294
                      3.0585823261e+02 stress_295
                     -2.1029972345e+01 stress_296
                      9.7777539049e+01 stress_297
                      4.4244786112e+02 stress_298
                      4.5335398529e+02 stress_299
                      4.1369939700e+02 stress_300
                      3.4223564676e+02 stress_301
                      2.4018892299e+02 stress_302
                      1.1234704853e+02 stress_303
                     -2.8755684978e+01 stress_304
                     -1.6184199470e+02 stress_305
                     -2.6761849356e+02 stress_306
                     -3.4095945449e+02 stress_307
                     -3.8869776005e+02 stress_308
                     -4.2017864972e+02 stress_309
                     -4.4235863293e+02 stress_310
                     -4.5945272848e+02 stress_311
                     -4.7382372778e+02 stress_312
                     -4.8676287334e+02 stress_313
                     -4.9897492262e+02 stress_314
                     -5.1084198718e+02 stress_315
                     -5.2256629184e+02 stress_316
                     -5.3424829946e+02 stress_317
                     -5.4592827965e+02 stress_318
                     -5.5761061814e+02 stress_319
                     -5.6927804911e+02 stress_320
                     -5.8089899929e+02 stress_321
                     -5.9243382619e+02 stress_322
                     -6.0383686263e+02 stress_323
                     -6.1505963318e+02 stress_324
                     -6.2605241743e+02 stress_325
                     -6.3676360776e+02 stress_326
                     -6.4714328755e+02 stress_327
                     -6.5714024522e+02 stress_328
                     -6.6670679457e+02 stress_329
                     -6.7579597393e+02 stress_330
                     -6.8436221366e+02 stress_331
                     -6.9236368836e+02 stress_332
                     -6.9975987204e+02 stress_333
                     -7.0651419610e+02 stress_334
                     -7.1259353759e+02 stress_335
                     -7.1796558694e+02 stress_336
                     -7.2260505147e+02 stress_337
                     -7.2648786167e+02 stress_338
                     -7.2959431218e+02 stress_339
                     -7.3190939506e+02 stress_340
                     -7.3342114844e+02 stress_341
                     -7.3412168265e+02 stress_342

>>>>> Total response returned to iterator:

Active set vector = { 2 2 2 2 2 2 2 2 2 2 2 2 2 2 2 2 2 2 2 2 2 2 2 2 2 2 2 2 2 2 2 2 2 2 2 2 2 2 2 2 2 2 2 2 2 2 2 2 2 2 2 2 2 2 2 2 2 2 2 2 2 2 2 2 2 2 2 2 2 2 2 2 2 2 2 2 2 2 2 2 2 2 2 2 2 2 2 2 2 2 2 2 2 2 2 2 2 2 2 2 2 2 2 2 2 2 2 2 2 2 2 2 2 2 2 2 2 2 2 2 2 2 2 2 2 2 2 2 2 2 2 2 2 2 2 2 2 2 2 2 2 2 2 2 2 2 2 2 2 2 2 2 2 2 2 2 2 2 2 2 2 2 2 2 2 2 2 2 2 2 2 2 2 2 2 2 2 2 2 2 2 2 2 2 2 2 2 2 2 2 2 2 2 2 2 2 2 2 2 2 2 2 2 2 2 2 2 2 2 2 2 2 2 2 2 2 2 2 2 2 2 2 2 2 2 2 2 2 2 2 2 2 2 2 2 2 2 2 2 2 2 2 2 2 2 2 2 2 2 2 2 2 2 2 2 2 2 2 2 2 2 2 2 2 2 2 2 2 2 2 2 2 2 2 2 2 2 2 2 2 2 2 2 2 2 2 2 2 2 2 2 2 2 2 2 2 2 2 2 2 2 2 2 2 2 2 2 2 2 2 2 2 2 2 2 2 2 2 2 2 2 2 2 2 2 2 2 2 2 2 2 2 2 2 2 2 2 2 2 2 2 2 } Deriv vars vector = { 1 2 3 4 5 6 7 }
 [  0.0000000000e+00  1.1653237184e-05  0.0000000000e+00  0.0000000000e+00 
    0.0000000000e+00  0.0000000000e+00  0.0000000000e+00 ] stress_1 gradient
 [ -2.2222868438e-02 -1.1412148439e-03 -2.7367526778e+00  4.7736746604e+01 
   -2.7445570000e+03  1.9595507915e+02  0.0000000000e+00 ] stress_2 gradient
 [ -7.2424012656e-01 -5.9797312000e-04 -2.0268714159e+02  2.6034929603e+02 
   -1.5051471000e+04  7.9066530072e+02  0.0000000000e+00 ] stress_3 gradient
 [ -7.9942700573e-01 -4.6574385098e-04 -2.6544052506e+02  2.1819853897e+02 
   -1.2599420000e+04  5.7219976786e+02  0.0000000000e+00 ] stress_4 gradient
 [ -7.8002558570e-01  1.0552155233e-03 -2.6201464779e+02  1.1695366291e+02 
   -1.2302900000e+04  5.6589282384e+02  6.1413493878e+00 ] stress_5 gradient
 [ -3.7809318978e-01  1.9444068967e-03 -1.6794341474e+02 -7.8052338494e+02 
   -8.0885250000e+03  4.3648245463e+02  1.3216076465e+02 ] stress_6 gradient
 [  8.4257097455e-02  1.5348110330e-03  1.1092338990e+01 -1.1078207547e+03 
   -4.3916220000e+03  2.8844006510e+02  2.7632733572e+02 ] stress_7 gradient
 [  8.8228861510e-02  1.5299752115e-03  1.3157738197e+01 -1.1084715789e+03 
   -4.3634150000e+03  2.8717046642e+02  2.7756300875e+02 ] stress_8 gradient
 [  8.0696095512e-02  3.5551177151e-04  1.1328497447e+01 -1.0432474793e+03 
   -4.4222000000e+03  2.8137737268e+02  2.7565851181e+02 ] stress_9 gradient
 [ -1.4026154661e-01 -7.8016972790e-04 -5.9590913713e+01 -1.0991844961e+02 
   -4.6318150000e+03  1.0894138913e+02  2.1897650250e+02 ] stress_10 gradient
 [ -5.7747155698e-01 -6.3942190187e-04 -3.4284244635e+02  5.8075809209e+02 
   -3.2294850000e+03 -2.3509566289e+02  1.0588683594e+02 ] stress_11 gradient
 [ -7.8717267317e-01 -4.4374745354e-04 -7.0394175797e+02  5.1996271551e+02 
   -1.9358860000e+03 -4.0106930120e+02  5.1329603590e+01 ] stress_12 gradient
 [ -8.5581280138e-01 -3.8790062262e-04 -9.6045209713e+02  4.2356396361e+02 
   -1.3916230000e+03 -4.5558947493e+02  3.3408171326e+01 ] stress_13 gradient
 [ -8.6048244684e-01 -3.8482115022e-04 -9.8436570776e+02  4.1506601596e+02 
   -1.3515430000e+03 -4.5930371079e+02  3.2187014279e+01 ] stress_14 gradient
 [ -8.3969640051e-01  1.1549027491e-03 -9.8063061298e+02  3.0331369447e+02 
   -1.2919770000e+03 -4.5415714478e+02  4.0900232906e+01 ] stress_15 gradient
 [ -8.4040226978e-01  3.6791631684e-04 -9.8440796354e+02  3.8286046513e+02 
   -2.4682040000e+03 -4.4970255404e+02  4.1413009995e+01 ] stress_16 gradient
 [ -8.7766721379e-01 -1.6384149278e-04 -1.0438634218e+03  5.9009101731e+02 
   -6.3266010000e+03 -5.1965362949e+02  3.3368978171e+01 ] stress_17 gradient
 [ -8.7460177632e-01  7.6537135166e-04 -1.0433476644e+03  5.6893237614e+02 
   -6.3083990000e+03 -5.1880258788e+02  3.4653279744e+01 ] stress_18 gradient
 [ -7.2518803652e-01  2.0044648676e-03 -1.0152405825e+03  6.0262695724e+01 
   -5.6218798000e+03 -4.7729953903e+02  9.7316672319e+01 ] stress_19 gradient
 [ -9.7926042496e-02  1.7792937143e-03 -8.3319467728e+02 -8.2780569628e+02 
   -3.2277850000e+03 -3.0305730946e+02  3.6039991572e+02 ] stress_20 gradient
 [  4.5183500539e-01  1.0191024835e-03 -4.8160291555e+02 -8.6447658331e+02 
   -1.4234380000e+03 -1.5040346191e+02  5.9089158441e+02 ] stress_21 gradient
 [  6.9599495895e-01  6.5520654785e-04 -1.1020188239e+02 -6.5615162692e+02 
   -7.1099800000e+02 -8.2618474273e+01  6.9324123826e+02 ] stress_22 gradient
 [  7.9042806540e-01  5.2631312751e-04  1.6631321055e+02 -5.2211011485e+02 
   -4.5647000000e+02 -5.6400381933e+01  7.3282777473e+02 ] stress_23 gradient
 [  8.1872635863e-01  4.9186983380e-04  2.8460411243e+02 -4.7392198603e+02 
   -3.8333700000e+02 -4.8543823831e+01  7.4469096160e+02 ] stress_24 gradient
 [  7.9902099830e-01 -1.0541703214e-03  2.8092035644e+02 -3.6254839373e+02 
   -4.1269100000e+02 -5.7994710530e+01  7.3654894690e+02 ] stress_25 gradient
 [  7.9750812244e-01 -4.4007126603e-04  2.8211181140e+02 -3.9801886232e+02 
    1.2284000000e+02 -5.8834023743e+01  7.3399667424e+02 ] stress_26 gradient
 [  8.0619424708e-01  1.1437513055e-04  3.0544608347e+02 -6.0758402026e+02 
    3.9326850000e+03 -5.8716006778e+01  7.3436102540e+02 ] stress_27 gradient
 [  8.1695651871e-01  2.0031916254e-04  3.2034460172e+02 -6.4215491782e+02 
    4.8865810000e+03 -5.5997951407e+01  7.4262787756e+02 ] stress_28 gradient
 [  8.1643779366e-01 -3.8960770309e-04  3.2025535121e+02 -6.3766161296e+02 
    4.8838630000e+03 -5.6244980711e+01  7.4241412971e+02 ] stress_29 gradient
 [  7.9032418091e-01 -1.3544753313e-03  3.1562340717e+02 -5.0459389241e+02 
    4.7749130000e+03 -6.8681476772e+01  7.3163673834e+02 ] stress_30 gradient
 [  5.7365705662e-01 -2.0526689715e-03  2.7066049576e+02  1.1485280783e+02 
    4.0180620000e+03 -1.7198077524e+02  6.4211776162e+02 ] stress_31 gradient
 [  5.5837507044e-02 -1.7472881338e-03  1.0748211100e+02  7.8933765575e+02 
    2.4576560000e+03 -4.1892065029e+02  4.2811733800e+02 ] stress_32 gradient
 [ -4.2242388452e-01 -1.1016930293e-03 -1.9597558145e+02  8.5195685608e+02 
    1.1908940000e+03 -6.4698220872e+02  2.3047533821e+02 ] stress_33 gradient
 [ -6.8990294561e-01 -7.0936261556e-04 -5.9016156159e+02  6.4257044728e+02 
    5.5838300000e+02 -7.7453802559e+02  1.1993286371e+02 ] stress_34 gradient
 [ -8.1960859484e-01 -5.4163001221e-04 -1.0263647911e+03  4.4790413123e+02 
    2.8040400000e+02 -8.3640457227e+02  6.6318081545e+01 ] stress_35 gradient
 [ -8.8334688013e-01 -4.8806606543e-04 -1.4717442377e+03  3.1590968925e+02 
    1.5494500000e+02 -8.6681336648e+02  3.9964677819e+01 ] stress_36 gradient
 [ -9.1649346801e-01 -4.8626641491e-04 -1.9018302523e+03  2.3216357131e+02 
    9.4310000009e+01 -8.8263130520e+02  2.6256872442e+01 ] stress_37 gradient
 [ -9.3477223407e-01 -5.0617003214e-04 -2.2962764807e+03  1.7934485603e+02 
    6.2891999994e+01 -8.9135576449e+02  1.8695497041e+01 ] stress_38 gradient
 [ -9.4531314892e-01 -5.3283247768e-04 -2.6376135156e+03  1.4588514856e+02 
    4.5685000009e+01 -8.9638797865e+02  1.4334895835e+01 ] stress_39 gradient
 [ -9.5150220001e-01 -5.5822629635e-04 -2.9109661388e+03  1.2490586479e+02 
    3.5986000000e+01 -8.9934280098e+02  1.1773913582e+01 ] stress_40 gradient
 [ -9.5502142416e-01 -5.7779744293e-04 -3.1048103704e+03  1.1244028518e+02 
    3.0633000006e+01 -9.0102362648e+02  1.0317597616e+01 ] stress_41 gradient
 [ -9.5670316514e-01 -5.8894777760e-04 -3.2108964611e+03  1.0632649380e+02 
    2.8122000003e+01 -9.0182628846e+02  9.6215562451e+00 ] stress_42 gradient
 [ -9.5670305948e-01 -5.1453117254e-04 -3.2108964611e+03  1.0632458711e+02 
    2.8122000003e+01 -9.0182628847e+02  9.6219191449e+00 ] stress_43 gradient
 [ -9.1651474785e-01  1.2677350807e-03 -3.2035123628e+03 -8.2037198505e+01 
    4.9111000001e+01 -8.8322945332e+02  4.2248041901e+01 ] stress_44 gradient
 [ -6.3701994828e-01  1.9469839139e-03 -3.1418665545e+03 -7.5170922148e+02 
    1.2140140000e+02 -7.5387266821e+02  2.6918870203e+02 ] stress_45 gradient
 [ -6.4193217330e-01  9.7446243750e-04 -3.1432982751e+03 -6.9914958542e+02 
   -1.8176500000e+02 -7.6415986272e+02  2.6588417485e+02 ] stress_46 gradient
 [ -7.6388120619e-01 -1.6921895203e-04 -3.2138843790e+03  1.2981843061e+02 
   -4.3435260000e+03 -1.0371624289e+03  1.7818586526e+02 ] stress_47 gradient
 [ -7.4165297024e-01  1.2070261834e-03 -3.2101706095e+03  2.4159336333e+01 
   -4.2765180000e+03 -1.0240317585e+03  1.9608153165e+02 ] stress_48 gradient
 [ -7.3978640956e-01  7.0750603947e-04 -3.2102634143e+03  2.7645792603e+01 
   -4.4191080000e+03 -1.0190985026e+03  1.9778534513e+02 ] stress_49 gradient
 [ -6.8628499316e-01 -1.6946703765e-04 -3.2166128385e+03  1.3708781569e+02 
   -8.8763020000e+03 -8.7554955415e+02  2.4736540990e+02 ] stress_50 gradient
 [ -6.0122475625e-01 -1.1487410056e-03 -3.2916464616e+03  4.2429973488e+02 
   -1.9858090000e+04 -6.2714362983e+02  3.3317301274e+02 ] stress_51 gradient
 [ -5.9979161108e-01 -3.3376889878e-04 -3.2913565949e+03  4.1162687598e+02 
   -1.9838878000e+04 -6.2658066691e+02  3.3430743679e+02 ] stress_52 gradient
 [ -4.9563441216e-01  1.0531973061e-03 -3.2682112496e+03 -2.9550250567e+01 
   -1.8494673700e+04 -5.8559645290e+02  4.1682005671e+02 ] stress_53 gradient
 [  1.3091050634e-02  1.2101976450e-03 -3.0994217715e+03 -9.1726968111e+02 
   -1.2071946000e+04 -3.8543828375e+02  8.1980500288e+02 ] stress_54 gradient
 [  4.7565100870e-01  6.9850181973e-04 -2.7805016239e+03 -9.7351317186e+02 
   -6.3191570000e+03 -2.0352135950e+02  1.1860740933e+03 ] stress_55 gradient
 [  6.7386373962e-01  4.4149076150e-04 -2.4904409874e+03 -7.9435753421e+02 
   -3.8775390000e+03 -1.2558617966e+02  1.3429907778e+03 ] stress_56 gradient
 [  7.3233622708e-01  3.6799890644e-04 -2.3550131958e+03 -7.1158481008e+02 
   -3.1606810000e+03 -1.0259706086e+02  1.3892789806e+03 ] stress_57 gradient
 [  7.3224244365e-01 -4.7311481395e-05 -2.3550309669e+03 -7.1052366180e+02 
   -3.1609790000e+03 -1.0267769357e+02  1.3892038604e+03 ] stress_58 gradient
 [  6.9442996968e-01 -1.4707023910e-03 -2.3626248040e+03 -5.0692334543e+02 
   -3.1791145000e+03 -1.3546383330e+02  1.3587012807e+03 ] stress_59 gradient
 [  2.9353836481e-01 -2.1664320730e-03 -2.4691006351e+03  5.0625582308e+02 
   -2.8393660000e+03 -4.8387396373e+02  1.0345584431e+03 ] stress_60 gradient
 [ -2.6422466206e-01 -1.6537855168e-03 -2.7420468920e+03  9.4468439007e+02 
   -1.9099900000e+03 -9.6906517274e+02  5.8315275112e+02 ] stress_61 gradient
 [ -5.2983280928e-01 -1.3039190399e-03 -3.0041294650e+03  8.6541321195e+02 
   -1.3313650000e+03 -1.2002310905e+03  3.6808104798e+02 ] stress_62 gradient
 [ -5.9273361576e-01 -1.2188552419e-03 -3.0976699339e+03  8.1568787094e+02 
   -1.1797420000e+03 -1.2549909633e+03  3.1713357763e+02 ] stress_63 gradient
 [ -5.8473058018e-01  5.7651286844e-05 -3.0959962892e+03  7.5607328443e+02 
   -1.1671750000e+03 -1.2486598295e+03  3.2358448035e+02 ] stress_64 gradient
 [ -3.2475308172e-01  1.3053944418e-03 -3.0297393489e+03 -1.3596837070e+02 
   -8.8240350000e+02 -1.0428652140e+03  5.3326382253e+02 ] stress_65 gradient
 [ -1.4269465386e-01  1.3102751647e-03 -2.9689845057e+03 -4.8774698787e+02 
   -7.1569700000e+02 -8.9876224546e+02  6.8008903212e+02 ] stress_66 gradient
 [ -1.5388812216e-01  3.9337830889e-05 -2.9722162433e+03 -3.9123767610e+02 
   -8.5396210000e+02 -9.0778262679e+02  6.7128868130e+02 ] stress_67 gradient
 [ -4.2221100164e-01 -9.8332307597e-04 -3.0879511051e+03  5.4668316754e+02 
   -1.9226000000e+03 -1.1279438655e+03  4.5649935031e+02 ] stress_68 gradient
 [ -6.5715268674e-01 -9.3261596878e-04 -3.2864663772e+03  7.4307682655e+02 
   -1.8226150000e+03 -1.3224614834e+03  2.6672610185e+02 ] stress_69 gradient
 [ -6.6100742227e-01 -9.3040057153e-04 -3.2912519428e+03  7.4255886229e+02 
   -1.8147470000e+03 -1.3256633350e+03  2.6360226237e+02 ] stress_70 gradient
 [ -6.6084474881e-01 -4.7168639416e-04 -3.2912207446e+03  7.4079490622e+02 
   -1.8143800000e+03 -1.3255335897e+03  2.6373290621e+02 ] stress_71 gradient
 [ -6.5178429347e-01  3.3839259595e-04 -3.2894527155e+03  6.7976481978e+02 
   -1.7980170000e+03 -1.3182715145e+03  2.7103045362e+02 ] stress_72 gradient
 [ -5.5921239711e-01  1.2067476547e-03 -3.2698339109e+03  2.9762258555e+02 
   -1.6577442000e+03 -1.2440486647e+03  3.4561948809e+02 ] stress_73 gradient
 [ -2.3463816745e-01  1.4649282482e-03 -3.1808060036e+03 -4.4462066127e+02 
   -1.2334000000e+03 -9.8382315784e+02  6.0713170298e+02 ] stress_74 gradient
 [  2.2481884401e-01  1.0542593534e-03 -2.9713911104e+03 -8.6130471897e+02 
   -7.0521800000e+02 -6.1559702569e+02  9.7718583590e+02 ] stress_75 gradient
 [  5.6895024012e-01  6.0227411576e-04 -2.6514509005e+03 -7.9954842979e+02 
   -3.5256000000e+02 -3.3989399675e+02  1.2542611076e+03 ] stress_76 gradient
 [  7.6027941965e-01  3.4779143977e-04 -2.2600154950e+03 -5.9822698654e+02 
   -1.7559300000e+02 -1.8663540387e+02  1.4082847568e+03 ] stress_77 gradient
 [  8.5884679456e-01  2.4095947465e-04 -1.8282692627e+03 -4.2446910264e+02 
   -9.2384999999e+01 -1.0768205280e+02  1.4876316586e+03 ] stress_78 gradient
 [  9.1053509288e-01  2.1341758722e-04 -1.3774443496e+03 -3.0301565446e+02 
   -5.2180000000e+01 -6.6278621999e+01  1.5292428117e+03 ] stress_79 gradient
 [  9.3894071510e-01  2.2539371222e-04 -9.2382028738e+02 -2.2235103785e+02 
   -3.1651000000e+01 -4.3522605040e+01  1.5521120167e+03 ] stress_80 gradient
 [  9.5536948789e-01  2.5626632609e-04 -4.8141098744e+02 -1.6894198603e+02 
   -2.0536000000e+01 -3.0361147606e+01  1.5653397060e+03 ] stress_81 gradient
 [  9.6532145634e-01  2.9504420058e-04 -6.2938203133e+01 -1.3315842278e+02 
   -1.4186999999e+01 -2.2387305564e+01  1.5733528913e+03 ] stress_82 gradient
 [  9.7158172197e-01  3.3541868403e-04  3.1994573878e+02 -1.0885388567e+02 
   -1.0393000002e+01 -1.7370484924e+01  1.5783942921e+03 ] stress_83 gradient
 [  9.7562563038e-01  3.7346508085e-04  6.5681392907e+02 -9.2204200588e+01 
   -8.0489999959e+00 -1.4130516007e+01  1.5816505900e+03 ] stress_84 gradient
 [  9.7826525981e-01  4.0655779176e-04  9.3848185735e+02 -8.0841587732e+01 
   -6.5729999960e+00 -1.2015006890e+01  1.5837764556e+03 ] stress_85 gradient
 [  9.7996219463e-01  4.3288787227e-04  1.1573770514e+03 -7.3293884590e+01 
   -5.6519999930e+00 -1.0655246177e+01  1.5851431354e+03 ] stress_86 gradient
 [  9.8098071054e-01  4.5121584477e-04  1.3076417547e+03 -6.8660607722e+01 
   -5.1100000064e+00 -9.8393897542e+00  1.5859636513e+03 ] stress_87 gradient
 [  9.8146526529e-01  4.6073793930e-04  1.3851329265e+03 -6.6426904396e+01 
   -4.8559999982e+00 -9.4516197198e+00  1.5863534055e+03 ] stress_88 gradient
 [  9.8141655624e-01  1.0606626873e-04  1.3851246333e+03 -6.5894248106e+01 
   -4.9020000006e+00 -9.4985333007e+00  1.5863142123e+03 ] stress_89 gradient
 [  8.8445575610e-01 -1.7826257451e-03  1.3665040919e+03  3.0940543025e+02 
   -3.7119900000e+01 -1.0350989645e+02  1.5080585858e+03 ] stress_90 gradient
 [  5.9364340798e-01 -2.1218174798e-03  1.2978439431e+03  8.9818496744e+02 
   -8.7191000000e+01 -3.8544488097e+02  1.2733717618e+03 ] stress_91 gradient
 [  6.0682889713e-01 -7.8261557335e-04  1.3027574607e+03  7.5197761189e+02 
    5.3482400000e+02 -3.7412478144e+02  1.2922207653e+03 ] stress_92 gradient
 [  7.6927430267e-01  2.3958671307e-04  1.4185600107e+03 -2.5603484558e+02 
    4.0357670000e+03 -2.2605526999e+02  1.5387573126e+03 ] stress_93 gradient
 [  7.7571765519e-01  2.5304723291e-04  1.4257533657e+03 -2.8011494321e+02 
    4.0897410000e+03 -2.2000708368e+02  1.5488274127e+03 ] stress_94 gradient
 [  7.7568272414e-01 -3.6561262688e-05  1.4257474420e+03 -2.7973449448e+02 
    4.0896280000e+03 -2.2004080281e+02  1.5487969292e+03 ] stress_95 gradient
 [  7.7377466038e-01 -5.5312385412e-04  1.4254180839e+03 -2.6596268106e+02 
    4.0840420000e+03 -2.2187776256e+02  1.5471185187e+03 ] stress_96 gradient
 [  7.5188935311e-01 -1.2291455675e-03  1.4215412150e+03 -1.5990825887e+02 
    4.0243400000e+03 -2.4295808519e+02  1.5278579870e+03 ] stress_97 gradient
 [  6.4159312022e-01 -1.8138310989e-03  1.4001107434e+03  1.8413651205e+02 
    3.7397090000e+03 -3.4920670831e+02  1.4307832598e+03 ] stress_98 gradient
 [  3.5574150120e-01 -1.9223292299e-03  1.3304930472e+03  6.9787095766e+02 
    3.0347890000e+03 -6.2450034298e+02  1.1792559362e+03 ] stress_99 gradient
 [ -4.7477828185e-02 -1.5384669956e-03  1.1833315766e+03  9.9964491329e+02 
    2.0776500000e+03 -1.0126412886e+03  8.2461777695e+02 ] stress_100 gradient
 [ -4.0168122202e-01 -1.0509147916e-03  9.5590466466e+02  9.6071865921e+02 
    1.2637730000e+03 -1.3534383717e+03  5.1323180267e+02 ] stress_101 gradient
 [ -6.3706836783e-01 -7.0256888204e-04  6.6471891873e+02  7.6601860764e+02 
    7.3777700000e+02 -1.5798454935e+03  3.0636199266e+02 ] stress_102 gradient
 [ -7.7596836420e-01 -5.0798948515e-04  3.2689148280e+02  5.6659117300e+02 
    4.3476900000e+02 -1.7134253069e+03  1.8430834387e+02 ] stress_103 gradient
 [ -8.5567969146e-01 -4.1710259261e-04 -4.5608990402e+01  4.1036023813e+02 
    2.6449500000e+02 -1.7900791596e+03  1.1426800146e+02 ] stress_104 gradient
 [ -9.0202880081e-01 -3.8769552161e-04 -4.4453867518e+02  2.9830000397e+02 
    1.6731100000e+02 -1.8346507229e+03  7.3542323242e+01 ] stress_105 gradient
 [ -9.2977591038e-01 -3.9389148388e-04 -8.6368992140e+02  2.1999507250e+02 
    1.1009200000e+02 -1.8613342859e+03  4.9160915770e+01 ] stress_106 gradient
 [ -9.4695395738e-01 -4.2095753062e-04 -1.2977582468e+03  1.6532808575e+02 
    7.5194999999e+01 -1.8778544623e+03  3.4066471143e+01 ] stress_107 gradient
 [ -9.5794893363e-01 -4.6046704120e-04 -1.7418344780e+03  1.2678652658e+02 
    5.3160999994e+01 -1.8884290757e+03  2.4404270143e+01 ] stress_108 gradient
 [ -9.6520933041e-01 -5.0741304780e-04 -2.1911899168e+03  9.9224511304e+01 
    3.8790999997e+01 -1.8954111354e+03  1.8024132844e+01 ] stress_109 gradient
 [ -9.7014234290e-01 -5.5865218196e-04 -2.6412115753e+03  7.9203028617e+01 
    2.9135000000e+01 -1.9001560040e+03  1.3688571703e+01 ] stress_110 gradient
 [ -9.7358096993e-01 -6.1207539902e-04 -3.0873520209e+03  6.4431069256e+01 
    2.2474000002e+01 -1.9034634111e+03  1.0666344101e+01 ] stress_111 gradient
 [ -9.7603307478e-01 -6.6616366300e-04 -3.5251064718e+03  5.3371760268e+01 
    1.7769000010e+01 -1.9058222844e+03  8.5114464690e+00 ] stress_112 gradient
 [ -9.7781726327e-01 -7.1975961060e-04 -3.9501285066e+03  4.4980002313e+01 
    1.4374000000e+01 -1.9075382951e+03  6.9433574338e+00 ] stress_113 gradient
 [ -9.7913836703e-01 -7.7192988436e-04 -4.3582099240e+03  3.8536716416e+01 
    1.1878999999e+01 -1.9088093598e+03  5.7820788152e+00 ] stress_114 gradient
 [ -9.8013105975e-01 -8.2188829892e-04 -4.7452965386e+03  3.3540431759e+01 
    1.0018000000e+01 -1.9097637579e+03  4.9096682549e+00 ] stress_115 gradient
 [ -9.8088597618e-01 -8.6895898201e-04 -5.1075604510e+03  2.9636305392e+01 
    8.6109999984e+00 -1.9104901853e+03  4.2459249425e+00 ] stress_116 gradient
 [ -9.8146501171e-01 -9.1254585220e-04 -5.4413846457e+03  2.6570736024e+01 
    7.5390000006e+00 -1.9110472841e+03  3.7371397490e+00 ] stress_117 gradient
 [ -9.8191140223e-01 -9.5213504800e-04 -5.7435122685e+03  2.4159640467e+01 
    6.7149999950e+00 -1.9114768365e+03  3.3448453184e+00 ] stress_118 gradient
 [ -9.8225551429e-01 -9.8727311876e-04 -6.0109632997e+03  2.2269199590e+01 
    6.0829999939e+00 -1.9118081636e+03  3.0421870779e+00 ] stress_119 gradient
 [ -9.8251886018e-01 -1.0175602653e-03 -6.2410412680e+03  2.0801844741e+01 
    5.6010000094e+00 -1.9120617902e+03  2.8106571555e+00 ] stress_120 gradient
 [ -9.8271690846e-01 -1.0426724662e-03 -6.4315311018e+03  1.9685694927e+01 
    5.2399999959e+00 -1.9122516435e+03  2.6364653609e+00 ] stress_121 gradient
 [ -9.8286047867e-01 -1.0623357075e-03 -6.5805320809e+03  1.8869222763e+01 
    4.9780000040e+00 -1.9123901852e+03  2.5101763101e+00 ] stress_122 gradient
 [ -9.8295705151e-01 -1.0763371259e-03 -6.6865526159e+03  1.8316353233e+01 
    4.8030000016e+00 -1.9124832793e+03  2.4252578139e+00 ] stress_123 gradient
 [ -9.8301155072e-01 -1.0845333511e-03 -6.7485880460e+03  1.8003129904e+01 
    4.7039999913e+00 -1.9125353241e+03  2.3773550701e+00 ] stress_124 gradient
 [ -9.8302592042e-01 -1.0867358635e-03 -6.7652545934e+03  1.7920241586e+01 
    4.6779999934e+00 -1.9125492516e+03  2.3650164833e+00 ] stress_125 gradient
 [ -9.8286969219e-01 -5.9338343030e-04 -6.7652261596e+03  1.6345597482e+01 
    4.7539999969e+00 -1.9123989815e+03  2.5874739175e+00 ] stress_126 gradient
 [ -9.6288737702e-01  5.7792412607e-04 -6.7614981733e+03 -9.2202703311e+01 
    1.0040000001e+01 -1.8931805415e+03  3.1066743313e+01 ] stress_127 gradient
 [ -7.2957017598e-01  1.5659708939e-03 -6.7109251163e+03 -7.3932710921e+02 
    4.1460400000e+01 -1.6687918763e+03  3.6358287154e+02 ] stress_128 gradient
 [ -1.4477823928e-01  1.3045231479e-03 -6.5179670713e+03 -1.3467983869e+03 
    7.0020000001e+01 -1.1066949473e+03  1.1965771326e+03 ] stress_129 gradient
 [  3.5654903610e-01  6.6393300463e-04 -6.1933637191e+03 -1.2515797934e+03 
    6.3819000002e+01 -6.2513880744e+02  1.9102470762e+03 ] stress_130 gradient
 [  6.1867050232e-01  2.9184179430e-04 -5.8432370876e+03 -9.7493218104e+02 
    4.9300000001e+01 -3.7345406390e+02  2.2832555746e+03 ] stress_131 gradient
 [  7.3883697387e-01  1.2908225691e-04 -5.5541135815e+03 -7.7905625234e+02 
    3.9228999998e+01 -2.5809137891e+02  2.4542302625e+03 ] stress_132 gradient
 [  7.8841880091e-01  6.7889122659e-05 -5.3793030106e+03 -6.8139104975e+02 
    3.4243000005e+01 -2.1049535593e+02  2.5247717692e+03 ] stress_133 gradient
 [  7.9105800770e-01  6.4802521355e-05 -5.3685534568e+03 -6.7586560635e+02 
    3.3961999998e+01 -2.0796128975e+02  2.5285266910e+03 ] stress_134 gradient
 [  7.5892114063e-01 -1.8111541451e-03 -5.3751757269e+03 -4.9149248944e+02 
   -1.6336100000e+01 -2.5527971629e+02  2.4830161457e+03 ] stress_135 gradient
 [  7.5149509459e-01 -1.8996968260e-03 -5.3767562431e+03 -4.5746690812e+02 
   -2.5514860000e+01 -2.6622071747e+02  2.4724930236e+03 ] stress_136 gradient
 [  7.5893357042e-01 -1.0197185786e-03 -5.3723347565e+03 -5.4669664303e+02 
   -1.8666000000e+01 -2.5850113968e+02  2.4830550123e+03 ] stress_137 gradient
 [  7.5892727311e-01 -1.1935885288e-03 -5.3723355463e+03 -5.4662304251e+02 
   -1.8685999999e+01 -2.5850993598e+02  2.4830459398e+03 ] stress_138 gradient
 [  7.5297796568e-01 -2.0095836271e-03 -5.3732944760e+03 -5.1099461119e+02 
   -2.8353700000e+01 -2.6726151717e+02  2.4746185772e+03 ] stress_139 gradient
 [  5.7319553565e-01 -2.9827076590e-03 -5.4064667619e+03  2.7094981829e+01 
   -1.6663200000e+02 -5.3210845116e+02  2.2195667004e+03 ] stress_140 gradient
 [ -5.3425658494e-02 -2.5521862110e-03 -5.5941112417e+03  7.6893529153e+02 
   -3.1971200000e+02 -1.4553911039e+03  1.3303945338e+03 ] stress_141 gradient
 [ -5.4606465378e-01 -1.8242855581e-03 -5.9397421744e+03  7.2906192786e+02 
   -2.5763400000e+02 -2.1811038242e+03  6.3146411900e+02 ] stress_142 gradient
 [ -7.5550536142e-01 -1.5061906226e-03 -6.3082619164e+03  5.2787314570e+02 
   -1.7741000000e+02 -2.4896331626e+03  3.3431433188e+02 ] stress_143 gradient
 [ -8.3684099312e-01 -1.3981729898e-03 -6.5987451107e+03  4.0413584711e+02 
   -1.3300200000e+02 -2.6094650988e+03  2.1890101939e+02 ] stress_144 gradient
 [ -8.6509723385e-01 -1.3671986176e-03 -6.7522524513e+03  3.5245914477e+02 
   -1.1505900001e+02 -2.6511001654e+03  1.7880098003e+02 ] stress_145 gradient
 [ -8.6509693800e-01 -1.2690425733e-03 -6.7522524513e+03  3.5245445408e+02 
   -1.1505900000e+02 -2.6510994324e+03  1.7880134293e+02 ] stress_146 gradient
 [ -8.5956591353e-01 -1.3280871635e-04 -6.7511727569e+03  3.1251787726e+02 
   -1.1280900000e+02 -2.6432626660e+03  1.8665739277e+02 ] stress_147 gradient
 [ -6.9410949789e-01  1.2155473755e-03 -6.7148448333e+03 -2.8209606175e+02 
   -7.4708299999e+01 -2.4088175624e+03  4.2169434226e+02 ] stress_148 gradient
 [ -1.4876454209e-01  1.2069121210e-03 -6.5381222872e+03 -1.1057996881e+03 
   -5.2719999985e+00 -1.6364342628e+03  1.1960491137e+03 ] stress_149 gradient
 [  3.0555629467e-01  6.8958800497e-04 -6.2648281113e+03 -1.1818549843e+03 
    2.2134000005e+01 -9.9335247817e+02  1.8407931795e+03 ] stress_150 gradient
 [  5.0155131592e-01  4.2667907798e-04 -6.0588426496e+03 -1.0608397236e+03 
    2.6280999998e+01 -7.1601846942e+02  2.1188490059e+03 ] stress_151 gradient
 [  5.2608014089e-01  3.9325959955e-04 -6.0256307934e+03 -1.0383218357e+03 
    2.6433000005e+01 -6.8131341778e+02  2.1536449052e+03 ] stress_152 gradient
 [  5.2328012025e-01 -6.4064104892e-04 -6.0262500182e+03 -1.0125441067e+03 
    1.3352000001e+01 -6.8525709035e+02  2.1497045417e+03 ] stress_153 gradient
 [  3.9026969351e-01 -2.0845992497e-03 -6.0596020688e+03 -3.9341920400e+02 
   -2.8046300000e+02 -8.7355646015e+02  1.9615705105e+03 ] stress_154 gradient
 [ -8.1507328494e-02 -2.2445262913e-03 -6.2387243087e+03  6.2713608322e+02 
   -6.7653600000e+02 -1.5430124713e+03  1.2926852768e+03 ] stress_155 gradient
 [ -4.4067970132e-01 -1.9037161015e-03 -6.4978821500e+03  8.3951676526e+02 
   -6.6433300000e+02 -2.0533134394e+03  7.8280521453e+02 ] stress_156 gradient
 [ -5.6578947660e-01 -1.7589558680e-03 -6.6489236488e+03  8.0918744287e+02 
   -6.0199300001e+02 -2.2311848007e+03  6.0507805432e+02 ] stress_157 gradient
 [ -5.6546759531e-01 -1.1688769192e-03 -6.6488537490e+03  8.0552550106e+02 
   -6.0169600000e+02 -2.2307281263e+03  6.0553494488e+02 ] stress_158 gradient
 [ -4.6351957934e-01  5.7362487294e-04 -6.6246609343e+03  3.1257126454e+02 
   -5.4059400000e+02 -2.0860525190e+03  7.5023352670e+02 ] stress_159 gradient
 [ -2.2179639308e-01  9.2018209463e-04 -6.5528890227e+03 -3.4579254235e+02 
   -4.2113670000e+02 -1.7430796721e+03  1.0932677909e+03 ] stress_160 gradient
 [ -2.2343366195e-01  1.2374303495e-04 -6.5533602339e+03 -3.2714826557e+02 
   -4.5598180000e+02 -1.7452997106e+03  1.0910486237e+03 ] stress_161 gradient
 [ -3.7660163601e-01 -1.2957543402e-03 -6.6135527988e+03  3.9101394549e+02 
   -1.6839320000e+03 -1.9591725508e+03  8.7725853667e+02 ] stress_162 gradient
 [ -6.4416336513e-01 -1.4271811066e-03 -6.8059638882e+03  7.9395687225e+02 
   -2.1108500000e+03 -2.3378714060e+03  4.9869948947e+02 ] stress_163 gradient
 [ -6.7799092889e-01 -1.4165432605e-03 -6.8451010312e+03  7.9510154051e+02 
   -2.0636190000e+03 -2.3860472515e+03  4.5054090230e+02 ] stress_164 gradient
 [ -6.7798545572e-01 -1.2156095870e-03 -6.8450998464e+03  7.9502067586e+02 
   -2.0636090000e+03 -2.3860399212e+03  4.5054888610e+02 ] stress_165 gradient
 [ -6.7760645488e-01 -8.2027093695e-04 -6.8450244179e+03  7.9113055137e+02 
   -2.0629660000e+03 -2.3855026142e+03  4.5108561456e+02 ] stress_166 gradient
 [ -6.7248088841e-01 -2.4880221220e-04 -6.8439984318e+03  7.5332986357e+02 
   -2.0549680000e+03 -2.3782420051e+03  4.5834650911e+02 ] stress_167 gradient
 [ -6.4089225076e-01  4.1721776391e-04 -6.8374436525e+03  5.8714163897e+02 
   -2.0088770000e+03 -2.3334857196e+03  5.0310291283e+02 ] stress_168 gradient
 [ -5.2843820661e-01  9.6551259805e-04 -6.8116713800e+03  1.7958388577e+02 
   -1.8536988000e+03 -2.1741620075e+03  6.6242816174e+02 ] stress_169 gradient
 [ -2.8397873144e-01  1.1378950854e-03 -6.7425569619e+03 -3.8661444854e+02 
   -1.5320288000e+03 -1.8279016918e+03  1.0086980021e+03 ] stress_170 gradient
 [  5.0500494661e-02  9.2060705084e-04 -6.6083746890e+03 -8.0343443676e+02 
   -1.1096560000e+03 -1.3543216664e+03  1.4823013897e+03 ] stress_171 gradient
 [  3.6469735357e-01  5.5983140718e-04 -6.4050319904e+03 -9.1418319666e+02 
   -7.2690900000e+02 -9.0963519996e+02  1.9270192056e+03 ] stress_172 gradient
 [  5.9579286158e-01  2.5595988912e-04 -6.1429352006e+03 -8.2017275363e+02 
   -4.5413800000e+02 -5.8266149554e+02  2.2540218370e+03 ] stress_173 gradient
 [  7.4573033047e-01  6.0639826205e-05 -5.8353084031e+03 -6.6109138938e+02 
   -2.8201900000e+02 -3.7055421841e+02  2.4661493359e+03 ] stress_174 gradient
 [  8.3855263576e-01 -4.5150158154e-05 -5.4924256755e+03 -5.0960109081e+02 
   -1.7807400000e+02 -2.3925777680e+02  2.5974601898e+03 ] stress_175 gradient
 [  8.9572293251e-01 -9.0711310439e-05 -5.1214764237e+03 -3.8744329078e+02 
   -1.1546300000e+02 -1.5839343050e+02  2.6783330843e+03 ] stress_176 gradient
 [  9.3145169216e-01 -9.8163806869e-05 -4.7276877269e+03 -2.9499409824e+02 
   -7.7120000003e+01 -1.0785797872e+02  2.7288744700e+03 ] stress_177 gradient
 [  9.5429611353e-01 -8.1682429993e-05 -4.3151801156e+03 -2.2660514102e+02 
   -5.3052999999e+01 -7.5545519509e+01  2.7611903136e+03 ] stress_178 gradient
 [  9.6927635713e-01 -4.9969028695e-05 -3.8875792936e+03 -1.7623991296e+02 
   -3.7538999999e+01 -5.4356709234e+01  2.7823814710e+03 ] stress_179 gradient
 [  9.7935093294e-01 -8.3912401872e-06 -3.4482400536e+03 -1.3898380118e+02 
   -2.7267999997e+01 -4.0106710211e+01  2.7966336257e+03 ] stress_180 gradient
 [  9.8629156162e-01  3.9647388732e-05 -3.0003734398e+03 -1.1118336793e+02 
   -2.0293999995e+01 -3.0288578167e+01  2.8064525994e+03 ] stress_181 gradient
 [  9.9118104236e-01  9.1890588472e-05 -2.5471754896e+03 -9.0218986756e+01 
   -1.5449000000e+01 -2.3372490680e+01  2.8133694651e+03 ] stress_182 gradient
 [  9.9469726578e-01  1.4676947356e-04 -2.0917826084e+03 -7.4230595115e+01 
   -1.2007999999e+01 -1.8398185465e+01  2.8183440924e+03 ] stress_183 gradient
 [  9.9727381646e-01  2.0312715598e-04 -1.6373319916e+03 -6.1900027774e+01 
   -9.5160000001e+00 -1.4753586951e+01  2.8219894186e+03 ] stress_184 gradient
 [  9.9919430578e-01  2.6006771817e-04 -1.1869091007e+03 -5.2287100061e+01 
   -7.6789999980e+00 -1.2036997630e+01  2.8247064476e+03 ] stress_185 gradient
 [  1.0006480334e+00  3.1685926000e-04 -7.4357175335e+02 -4.4716610234e+01 
   -6.3020000084e+00 -9.9801304886e+00  2.8267633624e+03 ] stress_186 gradient
 [  1.0017638407e+00  3.7288077531e-04 -3.1031931984e+02 -3.8698773256e+01 
   -5.2539999956e+00 -8.4011954092e+00  2.8283419755e+03 ] stress_187 gradient
 [  1.0026308830e+00  4.2759025667e-04  1.0993689522e+02 -3.3874687151e+01 
   -4.4480000042e+00 -7.1748451869e+00  2.8295689389e+03 ] stress_188 gradient
 [  1.0033119434e+00  4.8050003471e-04  5.1435153785e+02 -2.9979099941e+01 
   -3.8199999949e+00 -6.2116508027e+00  2.8305324373e+03 ] stress_189 gradient
 [  1.0038519483e+00  5.3117038848e-04  9.0021155021e+02 -2.6813657519e+01 
   -3.3260000009e+00 -5.4478391291e+00  2.8312963409e+03 ] stress_190 gradient
 [  1.0042833986e+00  5.7920004027e-04  1.2649318265e+03 -2.4228912923e+01 
   -2.9330000075e+00 -4.8372296104e+00  2.8319067380e+03 ] stress_191 gradient
 [  1.0046300887e+00  6.2421517183e-04  1.6060212505e+03 -2.2111599489e+01 
   -2.6189999971e+00 -4.3461030946e+00  2.8323977411e+03 ] stress_192 gradient
 [  1.0049096851e+00  6.6588537197e-04  1.9212367117e+03 -2.0374547621e+01 
   -2.3679999913e+00 -3.9510028080e+00  2.8327929387e+03 ] stress_193 gradient
 [  1.0051354795e+00  7.0390362284e-04  2.2084508095e+03 -1.8950999821e+01 
   -2.1660000016e+00 -3.6314040693e+00  2.8331126532e+03 ] stress_194 gradient
 [  1.0053173619e+00  7.3798973239e-04  2.4656952934e+03 -1.7789510588e+01 
   -2.0039999981e+00 -3.3741124245e+00  2.8333699490e+03 ] stress_195 gradient
 [  1.0054628763e+00  7.6790633473e-04  2.6912921747e+03 -1.6849945880e+01 
   -1.8749999981e+00 -3.1681325036e+00  2.8335757131e+03 ] stress_196 gradient
 [  1.0055777071e+00  7.9343475754e-04  2.8836787795e+03 -1.6101740189e+01 
   -1.7729999968e+00 -3.0054010292e+00  2.8337386550e+03 ] stress_197 gradient
 [  1.0056661019e+00  8.1439989397e-04  3.0415996767e+03 -1.5521299707e+01 
   -1.6950000031e+00 -2.8807868414e+00  2.8338634924e+03 ] stress_198 gradient
 [  1.0057312515e+00  8.3065483595e-04  3.1639976822e+03 -1.5091019731e+01 
   -1.6379999920e+00 -2.7884257300e+00  2.8339556689e+03 ] stress_199 gradient
 [  1.0057753750e+00  8.4208087412e-04  3.2500126736e+03 -1.4798395658e+01 
   -1.5989999952e+00 -2.7261186361e+00  2.8340180876e+03 ] stress_200 gradient
 [  1.0057999303e+00  8.4860223095e-04  3.2990980903e+03 -1.4634900029e+01 
   -1.5780000012e+00 -2.6916664839e+00  2.8340525631e+03 ] stress_201 gradient
 [  1.0058011348e+00  8.4892176397e-04  3.3015027204e+03 -1.4626945745e+01 
   -1.5759999997e+00 -2.6894674083e+00  2.8340547405e+03 ] stress_202 gradient
 [  9.8515362927e-01 -8.5554762515e-04  3.2975950483e+03  9.9449863189e+01 
   -6.0870000027e+00 -3.6887999013e+01  2.8047578584e+03 ] stress_203 gradient
 [  6.9673297620e-01 -1.8977279492e-03  3.2323670954e+03  8.5751842830e+02 
   -3.6129100000e+01 -5.1452406965e+02  2.3955736803e+03 ] stress_204 gradient
 [  6.9709977548e-01 -1.3750290300e-03  3.2324593473e+03  8.5258130013e+02 
   -7.1665999997e+00 -5.1402979114e+02  2.3964529134e+03 ] stress_205 gradient
 [  7.9438782652e-01  2.7695850497e-04  3.2886940860e+03  3.5048049323e+01 
    4.1552200000e+03 -3.7051976626e+02  2.6517133123e+03 ] stress_206 gradient
 [  8.0456117289e-01  3.2355883926e-04  3.2973462526e+03 -2.9150649562e+01 
    4.4330290000e+03 -3.5495838615e+02  2.6793912994e+03 ] stress_207 gradient
 [  8.0451330911e-01  1.1720435226e-05  3.2973383543e+03 -2.8659086507e+01 
    4.4328920000e+03 -3.5503681979e+02  2.6793201711e+03 ] stress_208 gradient
 [  8.0185814772e-01 -5.4658618003e-04  3.2968889424e+03 -1.0977414954e+01 
    4.4256410000e+03 -3.5940637967e+02  2.6753594852e+03 ] stress_209 gradient
 [  7.7153174033e-01 -1.2595449810e-03  3.2915856449e+03  1.2047441619e+02 
    4.3455630000e+03 -4.0932022656e+02  2.6301157074e+03 ] stress_210 gradient
 [  6.2499334166e-01 -1.8004863629e-03  3.2628420410e+03  5.0890856277e+02 
    3.9684314000e+03 -6.5047008656e+02  2.4115256929e+03 ] stress_211 gradient
 [  2.7912961265e-01 -1.7600898908e-03  3.1737781175e+03  9.8231478600e+02 
    3.0963940000e+03 -1.2193791602e+03  1.8958265361e+03 ] stress_212 gradient
 [ -1.5212358635e-01 -1.2670730438e-03  2.9965577826e+03  1.1347486030e+03 
    2.0273230000e+03 -1.9283034171e+03  1.2531887394e+03 ] stress_213 gradient
 [ -4.9131214364e-01 -7.7390511698e-04  2.7363155079e+03  9.7290023579e+02 
    1.1982680000e+03 -2.4855854005e+03  7.4800242016e+02 ] stress_214 gradient
 [ -7.0065879314e-01 -4.6152797954e-04  2.4138103328e+03  7.2798219230e+02 
    6.9256700000e+02 -2.8294208708e+03  4.3630362646e+02 ] stress_215 gradient
 [ -8.1915916133e-01 -3.0198779936e-04  2.0467276821e+03  5.1983469833e+02 
    4.0914100000e+02 -3.0240132571e+03  2.5989669488e+02 ] stress_216 gradient
 [ -8.8571551392e-01 -2.3625910223e-04  1.6469801308e+03  3.6936126140e+02 
    2.5130000000e+02 -3.1332977018e+03  1.6082474993e+02 ] stress_217 gradient
 [ -9.2402874871e-01 -2.2375221761e-04  1.2229276093e+03  2.6590088329e+02 
    1.6110700000e+02 -3.1962058765e+03  1.0379544573e+02 ] stress_218 gradient
 [ -9.4687648779e-01 -2.4133714779e-04  7.8126351176e+02  1.9535610454e+02 
    1.0767100000e+02 -3.2337198785e+03  6.9787038515e+01 ] stress_219 gradient
 [ -9.6101502619e-01 -2.7621234706e-04  3.2797552120e+02  1.4684107803e+02 
    7.4795000000e+01 -3.2569347689e+03  4.8741766770e+01 ] stress_220 gradient
 [ -9.7007837660e-01 -3.2109657094e-04 -1.3128988473e+02  1.1296006255e+02 
    5.3828999989e+01 -3.2718166352e+03  3.5250975332e+01 ] stress_221 gradient
 [ -9.7607874084e-01 -3.7161737628e-04 -5.9102918722e+02  8.8880935813e+01 
    4.0014000001e+01 -3.2816684864e+03  2.6319291164e+01 ] stress_222 gradient
 [ -9.8016789267e-01 -4.2496566072e-04 -1.0458620806e+03  7.1464539633e+01 
    3.0637999998e+01 -3.2883829921e+03  2.0232376709e+01 ] stress_223 gradient
 [ -9.8302670230e-01 -4.7919703071e-04 -1.4905093571e+03  5.8657592561e+01 
    2.4107000002e+01 -3.2930772819e+03  1.5976653479e+01 ] stress_224 gradient
 [ -9.8507049633e-01 -5.3287234670e-04 -1.9198671506e+03  4.9098449845e+01 
    1.9453999994e+01 -3.2964330687e+03  1.2934466401e+01 ] stress_225 gradient
 [ -9.8655972559e-01 -5.8485821965e-04 -2.3290124657e+03  4.1871199072e+01 
    1.6073999996e+01 -3.2988784389e+03  1.0717512939e+01 ] stress_226 gradient
 [ -9.8766200840e-01 -6.3422145050e-04 -2.7132541213e+03  3.6349990156e+01 
    1.3577999994e+01 -3.3006890098e+03  9.0764810907e+00 ] stress_227 gradient
 [ -9.8848786466e-01 -6.8017923351e-04 -3.0682488553e+03  3.2100179963e+01 
    1.1712999992e+01 -3.3020451053e+03  7.8469773569e+00 ] stress_228 gradient
 [ -9.8911129834e-01 -7.2204640244e-04 -3.3898824557e+03  2.8817587313e+01 
    1.0307999992e+01 -3.3030684077e+03  6.9190431600e+00 ] stress_229 gradient
 [ -9.8958308942e-01 -7.5924599187e-04 -3.6745355374e+03  2.6285200622e+01 
    9.2460000019e+00 -3.3038432148e+03  6.2164696002e+00 ] stress_230 gradient
 [ -9.8993819007e-01 -7.9128130249e-04 -3.9189709921e+03  2.4348414343e+01 
    8.4490000063e+00 -3.3044267024e+03  5.6880878309e+00 ] stress_231 gradient
 [ -9.9020090201e-01 -8.1772681833e-04 -4.1203387266e+03  2.2897237104e+01 
    7.8590000044e+00 -3.3048577209e+03  5.2968820957e+00 ] stress_232 gradient
 [ -9.9038806735e-01 -8.3825487415e-04 -4.2764189306e+03  2.1852991678e+01 
    7.4390000009e+00 -3.3051655912e+03  5.0181752251e+00 ] stress_233 gradient
 [ -9.9051099169e-01 -8.5260518599e-04 -4.3854202750e+03  2.1162162110e+01 
    7.1639999987e+00 -3.3053671730e+03  4.8352738422e+00 ] stress_234 gradient
 [ -9.9057679646e-01 -8.6059266656e-04 -4.4460553409e+03  2.0790802323e+01 
    7.0169999958e+00 -3.3054756607e+03  4.7372909595e+00 ] stress_235 gradient
 [ -9.9057677533e-01 -8.2935362737e-04 -4.4460549459e+03  2.0790755533e+01 
    7.0169999958e+00 -3.3054749276e+03  4.7376538594e+00 ] stress_236 gradient
 [ -9.6885162682e-01  8.8533463998e-04 -4.4418984781e+03 -9.9462882481e+01 
    1.3137999997e+01 -3.2696014347e+03  4.0613542246e+01 ] stress_237 gradient
 [ -7.5986118762e-01  1.8649013732e-03 -4.3960406683e+03 -7.1023525725e+02 
    4.4045060000e+01 -2.9245129175e+03  3.8573007694e+02 ] stress_238 gradient
 [ -7.6269312781e-01  8.0872075035e-04 -4.3986846400e+03 -6.2673428660e+02 
    3.0801000000e+01 -2.9291452081e+03  3.8110369898e+02 ] stress_239 gradient
 [ -8.1759907677e-01 -3.0317056263e-04 -4.4663037564e+03  1.2161908445e+02 
   -7.9228999999e+01 -3.0194641062e+03  2.9089230988e+02 ] stress_240 gradient
 [ -7.9076097754e-01  1.2378256073e-03 -4.4616279770e+03 -7.2350412924e+00 
   -7.1520000000e+01 -2.9751469025e+03  3.3521069381e+02 ] stress_241 gradient
 [ -6.6666897433e-01  1.8246627032e-03 -4.4377181970e+03 -3.6747658504e+02 
   -4.7901500000e+01 -2.7702456241e+03  5.4011968488e+02 ] stress_242 gradient
 [ -6.8268369266e-01  2.4974602540e-04 -4.4496755157e+03 -1.0940388932e+02 
   -8.7237000002e+01 -2.7965696385e+03  5.1381280488e+02 ] stress_243 gradient
 [ -7.2339897079e-01 -2.7111164744e-04 -4.4862461138e+03  2.6958178671e+02 
   -1.3947500000e+02 -2.8636567866e+03  4.4676856130e+02 ] stress_244 gradient
 [ -8.0004293758e-01 -6.3918627861e-04 -4.5851396394e+03  6.2768137278e+02 
   -1.7588400000e+02 -2.9901438536e+03  3.2036048059e+02 ] stress_245 gradient
 [ -7.9790326806e-01  2.4760466307e-04 -4.5847514391e+03  6.1103412078e+02 
   -1.7487500000e+02 -2.9866121409e+03  3.2389185629e+02 ] stress_246 gradient
 [ -6.6964932204e-01  1.5944480240e-03 -4.5590628884e+03  1.2225074116e+02 
   -1.3979190000e+02 -2.7748847171e+03  5.3561755284e+02 ] stress_247 gradient
 [ -9.7646234845e-02  1.5649457796e-03 -4.3879414048e+03 -8.1619293289e+02 
   -4.6326999998e+01 -1.8310713636e+03  1.4794573458e+03 ] stress_248 gradient
 [  4.1061625945e-01  9.2562077791e-04 -4.0781054594e+03 -9.3181098963e+02 
   -1.4299999975e-01 -9.9303287943e+02  2.3175572046e+03 ] stress_249 gradient
 [  6.3014426431e-01  6.1167655042e-04 -3.8044914033e+03 -7.8845227375e+02 
    9.8779999973e+00 -6.3121704776e+02  2.6794090815e+03 ] stress_250 gradient
 [  6.9190923050e-01  5.2470527073e-04 -3.6871463200e+03 -7.2177878655e+02 
    1.1348999999e+01 -5.2943364425e+02  2.7812038619e+03 ] stress_251 gradient
 [  6.9175490414e-01  1.7707705631e-05 -3.6871787029e+03 -7.1993118183e+02 
    1.1117999998e+01 -5.2968727077e+02  2.7809494693e+03 ] stress_252 gradient
 [  6.5433276195e-01 -1.4556561403e-03 -3.6954551090e+03 -4.9975411180e+02 
   -1.5801200000e+01 -5.9142216623e+02  2.7192205431e+03 ] stress_253 gradient
 [  2.9866553730e-01 -2.2883158862e-03 -3.7967475385e+03  5.1237111174e+02 
   -1.3140300000e+02 -1.1783950195e+03  2.1322889914e+03 ] stress_254 gradient
 [ -2.1278973536e-01 -1.9425034812e-03 -4.0484509868e+03  1.0227137290e+03 
   -1.7334200000e+02 -2.0223145604e+03  1.2883983442e+03 ] stress_255 gradient
 [ -4.7228720976e-01 -1.6382598875e-03 -4.2857618015e+03  9.8937318370e+02 
   -1.5597200000e+02 -2.4504068150e+03  8.6030858655e+02 ] stress_256 gradient
 [ -5.2752727538e-01 -1.5695166701e-03 -4.3573122849e+03  9.5532915218e+02 
   -1.4871600000e+02 -2.5415313072e+03  7.6918414214e+02 ] stress_257 gradient
 [ -5.2032750606e-01 -2.4679746067e-04 -4.3556757621e+03  8.9588637821e+02 
   -1.4516000000e+02 -2.5296482447e+03  7.8106547400e+02 ] stress_258 gradient
 [ -2.9681551657e-01  1.1196053449e-03 -4.2949983615e+03  1.3794879676e+01 
   -8.4503500001e+01 -2.1607120316e+03  1.1499807555e+03 ] stress_259 gradient
 [ -6.9665511989e-02  1.1874302705e-03 -4.2129325871e+03 -4.8369544991e+02 
   -4.3725999998e+01 -1.7858620689e+03  1.5248172515e+03 ] stress_260 gradient
 [ -7.3161295568e-02  1.6073789777e-04 -4.2140056746e+03 -4.4461035088e+02 
   -4.9413170000e+01 -1.7916151395e+03  1.5190645494e+03 ] stress_261 gradient
 [ -2.5416675933e-01 -1.2200214239e-03 -4.2840885517e+03  3.8292461409e+02 
   -1.5721900000e+02 -2.0900878196e+03  1.2206068904e+03 ] stress_262 gradient
 [ -5.6112762882e-01 -1.2960246575e-03 -4.4923747812e+03  8.4194605040e+02 
   -1.9028000000e+02 -2.5965257479e+03  7.1418126913e+02 ] stress_263 gradient
 [ -6.2120398616e-01 -1.2649021625e-03 -4.5582724684e+03  8.4667564429e+02 
   -1.8315900001e+02 -2.6956578013e+03  6.1504944575e+02 ] stress_264 gradient
 [ -6.2119887223e-01 -1.0626074505e-03 -4.5582712837e+03  8.4659610145e+02 
   -1.8315400000e+02 -2.6956490049e+03  6.1505815534e+02 ] stress_265 gradient
 [ -6.2069838402e-01 -6.0992812235e-04 -4.5581674213e+03  8.4135781939e+02 
   -1.8284700000e+02 -2.6948228862e+03  6.1588375186e+02 ] stress_266 gradient
 [ -6.1278344739e-01  6.3289663735e-05 -4.5564997003e+03  7.8371114615e+02 
   -1.7924300000e+02 -2.6817596541e+03  6.2894632180e+02 ] stress_267 gradient
 [ -5.6134856296e-01  8.1662278976e-04 -4.5450712897e+03  5.2722040312e+02 
   -1.6174500000e+02 -2.5968548759e+03  7.1384522413e+02 ] stress_268 gradient
 [ -3.8693593570e-01  1.3188128272e-03 -4.5001114981e+03 -3.7169730595e+01 
   -1.1787280000e+02 -2.3089755014e+03  1.0017083024e+03 ] stress_269 gradient
 [ -6.2180292795e-02  1.3104924641e-03 -4.3869051509e+03 -6.4042880309e+02 
   -5.9067000001e+01 -1.7731184355e+03  1.5375477684e+03 ] stress_270 gradient
 [  2.9581999852e-01  9.7635608385e-04 -4.1872635846e+03 -9.0569012686e+02 
   -1.4828000002e+01 -1.1826502275e+03  2.1280129458e+03 ] stress_271 gradient
 [  5.7004056227e-01  6.3935393971e-04 -3.9104432233e+03 -8.5495350391e+02 
    5.9570000019e+00 -7.3051696379e+02  2.5801542352e+03 ] stress_272 gradient
 [  7.4366665130e-01  4.2081041131e-04 -3.5757873402e+03 -6.8732838470e+02 
    1.2146000000e+01 -4.4430236151e+02  2.8663782050e+03 ] stress_273 gradient
 [  8.4617271882e-01  3.0835189799e-04 -3.1993337798e+03 -5.1998342004e+02 
    1.2298000001e+01 -2.7534164779e+02  3.0353456954e+03 ] stress_274 gradient
 [  9.0624024302e-01  2.6519556040e-04 -2.7922435961e+03 -3.8719398246e+02 
    1.0614999997e+01 -1.7633640766e+02  3.1343552217e+03 ] stress_275 gradient
 [  9.4213862852e-01  2.6359773688e-04 -2.3626776830e+03 -2.8963306288e+02 
    8.6859999954e+00 -1.1716739166e+02  3.1935270849e+03 ] stress_276 gradient
 [  9.6424186920e-01  2.8655901737e-04 -1.9172164891e+03 -2.1964284979e+02 
    6.9940000003e+00 -8.0736066993e+01  3.2299607499e+03 ] stress_277 gradient
 [  9.7829469656e-01  3.2409540760e-04 -1.4617288287e+03 -1.6952364305e+02 
    5.6349999909e+00 -5.7572488339e+01  3.2531253552e+03 ] stress_278 gradient
 [  9.8751154918e-01  3.7023642967e-04 -1.0017324373e+03 -1.3335172358e+02 
    4.5770000042e+00 -4.2380552643e+01  3.2683181456e+03 ] stress_279 gradient
 [  9.9373358719e-01  4.2124437633e-04 -5.4254996328e+02 -1.0693379169e+02 
    3.7619999944e+00 -3.2124071871e+01  3.2785751390e+03 ] stress_280 gradient
 [  9.9804498334e-01  4.7463284662e-04 -8.9368204532e+01 -8.7383670516e+01 
    3.1349999972e+00 -2.5016664946e+01  3.2856825270e+03 ] stress_281 gradient
 [  1.0011026865e+00  5.2863619751e-04  3.5276465574e+02 -7.2726030593e+01 
    2.6499999990e+00 -1.9976387516e+01  3.2907232020e+03 ] stress_282 gradient
 [  1.0033157683e+00  5.8191868486e-04  7.7895089650e+02 -6.1603485047e+01 
    2.2739999963e+00 -1.6328123883e+01  3.2943717943e+03 ] stress_283 gradient
 [  1.0049457150e+00  6.3341963437e-04  1.1845198722e+03 -5.3074047794e+01 
    1.9790000010e+00 -1.3641588575e+01  3.2970587027e+03 ] stress_284 gradient
 [  1.0061633569e+00  6.8225553805e-04  1.5649979992e+03 -4.6478285290e+01 
    1.7490000005e+00 -1.1633834074e+01  3.2990662631e+03 ] stress_285 gradient
 [  1.0070829332e+00  7.2768113567e-04  1.9162390775e+03 -4.1348134712e+01 
    1.5670000039e+00 -1.0117939122e+01  3.3005824575e+03 ] stress_286 gradient
 [  1.0077821036e+00  7.6905371755e-04  2.2344084940e+03 -3.7348896163e+01 
    1.4240000041e+00 -8.9656243806e+00  3.3017350265e+03 ] stress_287 gradient
 [  1.0083143954e+00  8.0581358603e-04  2.5159911209e+03 -3.4239636720e+01 
    1.3120000062e+00 -8.0874608640e+00  3.3026128806e+03 ] stress_288 gradient
 [  1.0087172753e+00  8.3749139565e-04  2.7579453320e+03 -3.1845093093e+01 
    1.2239999933e+00 -7.4233405456e+00  3.3032769868e+03 ] stress_289 gradient
 [  1.0090169681e+00  8.6368972358e-04  2.9576271795e+03 -3.0038862349e+01 
    1.1589999986e+00 -6.9292819373e+00  3.3037712560e+03 ] stress_290 gradient
 [  1.0092316472e+00  8.8408301684e-04  3.1128306749e+03 -2.8730803735e+01 
    1.1099999938e+00 -6.5759640550e+00  3.3041250830e+03 ] stress_291 gradient
 [  1.0093738015e+00  8.9842905134e-04  3.2218995496e+03 -2.7857961432e+01 
    1.0790000033e+00 -6.3406631502e+00  3.3043595162e+03 ] stress_292 gradient
 [  1.0094512077e+00  9.0655171693e-04  3.2836158894e+03 -2.7380154609e+01 
    1.0599999996e+00 -6.2138498784e+00  3.3044868939e+03 ] stress_293 gradient
 [  1.0094523277e+00  9.0667169363e-04  3.2845277454e+03 -2.7373182913e+01 
    1.0610000004e+00 -6.2116508027e+00  3.3044890713e+03 ] stress_294 gradient
 [  9.8703895510e-01 -8.5176434576e-04  3.2802354272e+03  9.6130177842e+01 
   -3.8560000007e+00 -4.3226463083e+01  3.2674769444e+03 ] stress_295 gradient
 [  7.0756770282e-01 -1.8776893107e-03  3.2165744133e+03  8.4353266219e+02 
   -3.3828399999e+01 -5.0470197928e+02  2.8060305109e+03 ] stress_296 gradient
 [  7.0818145808e-01 -1.2518426828e-03  3.2167888120e+03  8.3340906125e+02 
    1.4209100000e+01 -5.0385988057e+02  2.8068725467e+03 ] stress_297 gradient
 [  7.9965476549e-01  3.3920539586e-04  3.2811745322e+03 -1.4213287883e+01 
    3.4724560000e+03 -3.6513130212e+02  2.9455930114e+03 ] stress_298 gradient
 [  8.0742442022e-01  3.7733955732e-04  3.2890112018e+03 -6.4803680673e+01 
    3.6433820000e+03 -3.5291031531e+02  2.9578136544e+03 ] stress_299 gradient
 [  8.0741480520e-01  1.6796109770e-04  3.2890096222e+03 -6.4689817436e+01 
    3.6433580000e+03 -3.5292570882e+02  2.9577976868e+03 ] stress_300 gradient
 [  8.0688859945e-01 -2.0809536372e-04  3.2889195818e+03 -6.0379273945e+01 
    3.6421230000e+03 -3.5379141092e+02  2.9569325342e+03 ] stress_301 gradient
 [  8.0061601391e-01 -7.3123951155e-04  3.2878387027e+03 -2.3902635211e+01 
    3.6279780000e+03 -3.6410506762e+02  2.9466196543e+03 ] stress_302 gradient
 [  7.6489247385e-01 -1.3167602962e-03  3.2814497872e+03  1.2140623716e+02 
    3.5498720000e+03 -4.2284746329e+02  2.8878821818e+03 ] stress_303 gradient
 [  6.4380165653e-01 -1.7584241896e-03  3.2575081377e+03  4.4919780780e+02 
    3.2916703000e+03 -6.2193805534e+02  2.6888043336e+03 ] stress_304 gradient
 [  3.8730006813e-01 -1.8190155076e-03  3.1951038580e+03  8.6308875960e+02 
    2.7561080000e+03 -1.0435162865e+03  2.2672444456e+03 ] stress_305 gradient
 [  3.7891906717e-02 -1.5038434728e-03  3.0754291781e+03  1.1126266396e+03 
    2.0395430000e+03 -1.6175075665e+03  1.6932614408e+03 ] stress_306 gradient
 [ -2.9370029865e-01 -1.0629174255e-03  2.8943635674e+03  1.0988913457e+03 
    1.3699480000e+03 -2.1619608857e+03  1.1487999529e+03 ] stress_307 gradient
 [ -5.4134040346e-01 -6.9704419786e-04  2.6602673512e+03  9.2877917918e+02 
    8.7650500000e+02 -2.5684164519e+03  7.4232957411e+02 ] stress_308 gradient
 [ -7.0436934562e-01 -4.5670995391e-04  2.3841297958e+03  7.2565005470e+02 
    5.5539200000e+02 -2.8359330617e+03  4.7479928682e+02 ] stress_309 gradient
 [ -8.0642217588e-01 -3.1942529338e-04  2.0746709932e+03  5.4844870276e+02 
    3.5640800000e+02 -3.0033698172e+03  3.0735307138e+02 ] stress_310 gradient
 [ -8.6976385745e-01 -2.5182475904e-04  1.7379011364e+03  4.1088481147e+02 
    2.3401000000e+02 -3.1072855894e+03  2.0343024790e+02 ] stress_311 gradient
 [ -9.0954677447e-01 -2.2857510146e-04  1.3780146051e+03  3.0893971277e+02 
    1.5775500000e+02 -3.1725489722e+03  1.3816203481e+02 ] stress_312 gradient
 [ -9.3504956929e-01 -2.3335589841e-04  9.9826509409e+02  2.3456390518e+02 
    1.0922900000e+02 -3.2143863536e+03  9.6321892024e+01 ] stress_313 gradient
 [ -9.5178889666e-01 -2.5613584087e-04  6.0136013239e+02  1.8034350469e+02 
    7.7590000001e+01 -3.2418469227e+03  6.8859467220e+01 ] stress_314 gradient
 [ -9.6304212601e-01 -2.9076438029e-04  1.8976358728e+02  1.4056195452e+02 
    5.6452000001e+01 -3.2603074153e+03  5.0397314601e+01 ] stress_315 gradient
 [ -9.7078299908e-01 -3.3339053915e-04 -2.3415703298e+02  1.1108570570e+02 
    4.1995000004e+01 -3.2730063342e+03  3.7697281321e+01 ] stress_316 gradient
 [ -9.7622400161e-01 -3.8152358636e-04 -6.6809622160e+02  8.8995161671e+01 
    3.1885999999e+01 -3.2819323752e+03  2.8770677747e+01 ] stress_317 gradient
 [ -9.8012556545e-01 -4.3348147179e-04 -1.1097457074e+03  7.2242889720e+01 
    2.4673000007e+01 -3.2883331464e+03  2.2369492269e+01 ] stress_318 gradient
 [ -9.8297518269e-01 -4.8807266626e-04 -1.5567952445e+03  5.9388977281e+01 
    1.9428999997e+01 -3.2930083776e+03  1.7693894231e+01 ] stress_319 gradient
 [ -9.8509194522e-01 -5.4441096864e-04 -2.0069448551e+03  4.9413533072e+01 
    1.5550000001e+01 -3.2964814483e+03  1.4220945371e+01 ] stress_320 gradient
 [ -9.8668877818e-01 -6.0179901436e-04 -2.4578716560e+03  4.1588237115e+01 
    1.2635999997e+01 -3.2991005454e+03  1.1601173387e+01 ] stress_321 gradient
 [ -9.8791062535e-01 -6.5966654442e-04 -2.9072792235e+03  3.5386913520e+01 
    1.0414999997e+01 -3.3011053678e+03  9.5965161757e+00 ] stress_322 gradient
 [ -9.8885769426e-01 -7.1752277386e-04 -3.3528612609e+03  3.0426037124e+01 
    8.6979999992e+00 -3.3026593800e+03  8.0422173226e+00 ] stress_323 gradient
 [ -9.8960048098e-01 -7.7493595553e-04 -3.7923474089e+03  2.6422657669e+01 
    7.3560000033e+00 -3.3038776669e+03  6.8236005763e+00 ] stress_324 gradient
 [ -9.9018934285e-01 -8.3151806620e-04 -4.2235218059e+03  2.3165834560e+01 
    6.2960000037e+00 -3.3048437934e+03  5.8575619274e+00 ] stress_325 gradient
 [ -9.9066073242e-01 -8.8690600736e-04 -4.6441642467e+03  2.0497242452e+01 
    5.4489999911e+00 -3.3056178674e+03  5.0838600454e+00 ] stress_326 gradient
 [ -9.9104136042e-01 -9.4076936783e-04 -5.0521690507e+03  1.8296245271e+01 
    4.7670000072e+00 -3.3062424044e+03  4.4593098927e+00 ] stress_327 gradient
 [ -9.9135102747e-01 -9.9278840335e-04 -5.4454139513e+03  1.6470865758e+01 
    4.2150000013e+00 -3.3067496575e+03  3.9512504947e+00 ] stress_328 gradient
 [ -9.9160467381e-01 -1.0426742616e-03 -5.8219421504e+03  1.4949585542e+01 
    3.7630000065e+00 -3.3071660155e+03  3.5350046902e+00 ] stress_329 gradient
 [ -9.9181356276e-01 -1.0901508166e-03 -6.1798426602e+03  1.3676923492e+01 
    3.3910000070e+00 -3.3075090710e+03  3.1920646028e+00 ] stress_330 gradient
 [ -9.9198631615e-01 -1.1349558833e-03 -6.5172716281e+03  1.2609505365e+01 
    3.0840000022e+00 -3.3077927515e+03  2.9086400382e+00 ] stress_331 gradient
 [ -9.9212956938e-01 -1.1768520431e-03 -6.8325447467e+03  1.1712928883e+01 
    2.8299999940e+00 -3.3080273194e+03  2.6738440171e+00 ] stress_332 gradient
 [ -9.9224852092e-01 -1.2156125442e-03 -7.1240361559e+03  1.0960090991e+01 
    2.6189999971e+00 -3.3082230370e+03  2.4782411475e+00 ] stress_333 gradient
 [ -9.9234718581e-01 -1.2510340810e-03 -7.3902807255e+03  1.0329351360e+01 
    2.4449999955e+00 -3.3083843024e+03  2.3163879397e+00 ] stress_334 gradient
 [ -9.9242871273e-01 -1.2829338897e-03 -7.6299547043e+03  9.8034328161e+00 
    2.3009999950e+00 -3.3085177129e+03  2.1828409000e+00 ] stress_335 gradient
 [ -9.9249559523e-01 -1.3111352794e-03 -7.8417702786e+03  9.3687662863e+00 
    2.1830000037e+00 -3.3086283996e+03  2.0728823345e+00 ] stress_336 gradient
 [ -9.9254975633e-01 -1.3354997381e-03 -8.0247180485e+03  9.0143795377e+00 
    2.0879999965e+00 -3.3087170956e+03  1.9843348357e+00 ] stress_337 gradient
 [ -9.9259271750e-01 -1.3558965166e-03 -8.1778411379e+03  8.7317802026e+00 
    2.0130000053e+00 -3.3087874660e+03  1.9139323214e+00 ] stress_338 gradient
 [ -9.9262564102e-01 -1.3722186814e-03 -8.3003544582e+03  8.5143475091e+00 
    1.9540000039e+00 -3.3088417098e+03  1.8594973884e+00 ] stress_339 gradient
 [ -9.9264935103e-01 -1.3843847519e-03 -8.3916616895e+03  8.3571217272e+00 
    1.9129999941e+00 -3.3088798271e+03  1.8210300326e+00 ] stress_340 gradient
 [ -9.9266450261e-01 -1.3923301456e-03 -8.4512877505e+03  8.2565819165e+00 
    1.8859999955e+00 -3.3089054830e+03  1.7959899590e+00 ] stress_341 gradient
 [ -9.9267141274e-01 -1.3960121419e-03 -8.4789178950e+03  8.2105523466e+00 
    1.8740000087e+00 -3.3089164783e+03  1.7847400759e+00 ] stress_342 gradient



---------------------
Begin Evaluation   62
---------------------
Parameters for evaluation 62:
                      4.7143333355e+02 fy
                      1.9756214519e+05 E
                      2.2972035147e-02 b
                      8.4153238076e-01 cR1
                      4.6532151968e-03 cR2
                      1.8115482574e-02 a1
                      2.9502251912e-02 a3

blocking fork: workflow_driver1 paramsDakota.in results.out

Active response data for evaluation 62:
Active set vector = { 1 1 1 1 1 1 1 1 1 1 1 1 1 1 1 1 1 1 1 1 1 1 1 1 1 1 1 1 1 1 1 1 1 1 1 1 1 1 1 1 1 1 1 1 1 1 1 1 1 1 1 1 1 1 1 1 1 1 1 1 1 1 1 1 1 1 1 1 1 1 1 1 1 1 1 1 1 1 1 1 1 1 1 1 1 1 1 1 1 1 1 1 1 1 1 1 1 1 1 1 1 1 1 1 1 1 1 1 1 1 1 1 1 1 1 1 1 1 1 1 1 1 1 1 1 1 1 1 1 1 1 1 1 1 1 1 1 1 1 1 1 1 1 1 1 1 1 1 1 1 1 1 1 1 1 1 1 1 1 1 1 1 1 1 1 1 1 1 1 1 1 1 1 1 1 1 1 1 1 1 1 1 1 1 1 1 1 1 1 1 1 1 1 1 1 1 1 1 1 1 1 1 1 1 1 1 1 1 1 1 1 1 1 1 1 1 1 1 1 1 1 1 1 1 1 1 1 1 1 1 1 1 1 1 1 1 1 1 1 1 1 1 1 1 1 1 1 1 1 1 1 1 1 1 1 1 1 1 1 1 1 1 1 1 1 1 1 1 1 1 1 1 1 1 1 1 1 1 1 1 1 1 1 1 1 1 1 1 1 1 1 1 1 1 1 1 1 1 1 1 1 1 1 1 1 1 1 1 1 1 1 1 1 1 1 1 1 1 1 1 1 1 1 1 1 1 1 1 1 1 1 1 1 1 1 1 1 1 1 1 1 1 }
                      2.3022385001e+00 stress_1
                     -2.3890003373e+02 stress_2
                     -4.7794607649e+02 stress_3
                     -4.8288018225e+02 stress_4
                     -1.7150960090e+02 stress_5
                      2.1228967277e+02 stress_6
                      3.5719862840e+02 stress_7
                      3.5813895087e+02 stress_8
                      1.2159539113e+02 stress_9
                     -2.2262366865e+02 stress_10
                     -4.1091493388e+02 stress_11
                     -4.6808474226e+02 stress_12
                     -4.8686780756e+02 stress_13
                     -4.8824418937e+02 stress_14
                     -1.7271216097e+02 stress_15
                     -3.3154490063e+02 stress_16
                     -4.6921270682e+02 stress_17
                     -2.8390262516e+02 stress_18
                      3.9985219532e+01 stress_19
                      3.1002410990e+02 stress_20
                      4.2341168852e+02 stress_21
                      4.6488142889e+02 stress_22
                      4.8228012971e+02 stress_23
                      4.8814213390e+02 stress_24
                      1.7192637637e+02 stress_25
                      2.9358226710e+02 stress_26
                      4.1994641217e+02 stress_27
                      4.4567574715e+02 stress_28
                      3.2882856116e+02 stress_29
                      1.2392348993e+02 stress_30
                     -1.2693014047e+02 stress_31
                     -3.2475675886e+02 stress_32
                     -4.2664369020e+02 stress_33
                     -4.7350637850e+02 stress_34
                     -4.9895992265e+02 stress_35
                     -5.1621128656e+02 stress_36
                     -5.2969207284e+02 stress_37
                     -5.4080538954e+02 stress_38
                     -5.4990729437e+02 stress_39
                     -5.5698477846e+02 stress_40
                     -5.6192413031e+02 stress_41
                     -5.6460535305e+02 stress_42
                     -5.4990337744e+02 stress_43
                     -1.7629397487e+02 stress_44
                      9.9601342310e+01 stress_45
                     -9.5996557862e+01 stress_46
                     -4.0364444016e+02 stress_47
                     -1.1970748707e+02 stress_48
                     -2.1755329955e+02 stress_49
                     -3.7023235677e+02 stress_50
                     -5.5764297210e+02 stress_51
                     -3.9578477136e+02 stress_52
                     -6.3872004889e+01 stress_53
                      2.3602143301e+02 stress_54
                      3.6851595790e+02 stress_55
                      4.1441088827e+02 stress_56
                      4.2785776623e+02 stress_57
                      3.4575202957e+02 stress_58
                      4.3913743823e+01 stress_59
                     -2.9731170579e+02 stress_60
                     -4.6415762231e+02 stress_61
                     -5.1815027637e+02 stress_62
                     -5.3002065484e+02 stress_63
                     -2.7329940226e+02 stress_64
                      1.0923510588e+02 stress_65
                      2.0178564076e+02 stress_66
                     -5.6100177256e+01 stress_67
                     -4.0164072752e+02 stress_68
                     -5.0534380753e+02 stress_69
                     -5.0669638448e+02 stress_70
                     -4.1597542691e+02 stress_71
                     -2.5086145521e+02 stress_72
                     -2.9946285457e+01 stress_73
                      1.8654180970e+02 stress_74
                      3.3026359407e+02 stress_75
                      4.0365368338e+02 stress_76
                      4.4119534150e+02 stress_77
                      4.6398362600e+02 stress_78
                      4.8069968764e+02 stress_79
                      4.9460383206e+02 stress_80
                      5.0687293289e+02 stress_81
                      5.1787219998e+02 stress_82
                      5.2763985541e+02 stress_83
                      5.3608597482e+02 stress_84
                      5.4307507864e+02 stress_85
                      5.4847233215e+02 stress_86
                      5.5216341851e+02 stress_87
                      5.5406307192e+02 stress_88
                      4.8396465762e+02 stress_89
                      5.9667915173e+01 stress_90
                     -1.5399871756e+02 stress_91
                      1.1988025524e+02 stress_92
                      4.2340969736e+02 stress_93
                      4.2964335305e+02 stress_94
                      3.7240700992e+02 stress_95
                      2.6927446525e+02 stress_96
                      1.2380416922e+02 stress_97
                     -4.9692184467e+01 stress_98
                     -2.1651653502e+02 stress_99
                     -3.3949847997e+02 stress_100
                     -4.1313283078e+02 stress_101
                     -4.5465197394e+02 stress_102
                     -4.7990243575e+02 stress_103
                     -4.9760576699e+02 stress_104
                     -5.1186893689e+02 stress_105
                     -5.2456033683e+02 stress_106
                     -5.3652231517e+02 stress_107
                     -5.4812286024e+02 stress_108
                     -5.5950288090e+02 stress_109
                     -5.7069066486e+02 stress_110
                     -5.8165609604e+02 stress_111
                     -5.9233761358e+02 stress_112
                     -6.0265927407e+02 stress_113
                     -6.1253788560e+02 stress_114
                     -6.2188761159e+02 stress_115
                     -6.3062418724e+02 stress_116
                     -6.3866592711e+02 stress_117
                     -6.4593819237e+02 stress_118
                     -6.5237195492e+02 stress_119
                     -6.5790423420e+02 stress_120
                     -6.6248314450e+02 stress_121
                     -6.6606391294e+02 stress_122
                     -6.6861138969e+02 stress_123
                     -6.7010182806e+02 stress_124
                     -6.7050223902e+02 stress_125
                     -5.7294317381e+02 stress_126
                     -3.3063976413e+02 stress_127
                     -1.5209095644e+01 stress_128
                      2.2031465377e+02 stress_129
                      3.3080826661e+02 stress_130
                      3.7795984000e+02 stress_131
                      4.0004711917e+02 stress_132
                      4.1003099600e+02 stress_133
                      4.1058938355e+02 stress_134
                      2.2174511389e+01 stress_135
                      6.5873174181e-01 stress_136
                      1.7919033288e+02 stress_137
                      1.4483644901e+02 stress_138
                     -1.9669792745e+01 stress_139
                     -3.0574171553e+02 stress_140
                     -5.3144411705e+02 stress_141
                     -6.2199607384e+02 stress_142
                     -6.5581495446e+02 stress_143
                     -6.7113226262e+02 stress_144
                     -6.7752727524e+02 stress_145
                     -6.5813518516e+02 stress_146
                     -4.3053729359e+02 stress_147
                     -7.6889740707e+01 stress_148
                      1.9404721866e+02 stress_149
                      3.0988640282e+02 stress_150
                      3.4971987562e+02 stress_151
                      3.5449289746e+02 stress_152
                      1.4857610010e+02 stress_153
                     -2.0925377994e+02 stress_154
                     -4.8186949963e+02 stress_155
                     -5.8870091431e+02 stress_156
                     -6.1900008798e+02 stress_157
                     -5.0222968269e+02 stress_158
                     -1.0262896120e+02 stress_159
                      9.1028354886e+01 stress_160
                     -6.7374611406e+01 stress_161
                     -4.3406576821e+02 stress_162
                     -5.9462828970e+02 stress_163
                     -6.0847152542e+02 stress_164
                     -5.6877124968e+02 stress_165
                     -4.9044327830e+02 stress_166
                     -3.7462828130e+02 stress_167
                     -2.2570476274e+02 stress_168
                     -5.7625828919e+01 stress_169
                      1.0230523594e+02 stress_170
                      2.2646972351e+02 stress_171
                      3.0786944100e+02 stress_172
                      3.5741580309e+02 stress_173
                      3.8833707022e+02 stress_174
                      4.0947452731e+02 stress_175
                      4.2565894258e+02 stress_176
                      4.3936376324e+02 stress_177
                      4.5183879465e+02 stress_178
                      4.6371227357e+02 stress_179
                      4.7529512789e+02 stress_180
                      4.8673163111e+02 stress_181
                      4.9807431903e+02 stress_182
                      5.0932574800e+02 stress_183
                      5.2045880744e+02 stress_184
                      5.3143009868e+02 stress_185
                      5.4218619293e+02 stress_186
                      5.5266840166e+02 stress_187
                      5.6281590036e+02 stress_188
                      5.7256668276e+02 stress_189
                      5.8186003998e+02 stress_190
                      5.9063710929e+02 stress_191
                      5.9884042221e+02 stress_192
                      6.0641786824e+02 stress_193
                      6.1331963945e+02 stress_194
                      6.1949947165e+02 stress_195
                      6.2491781417e+02 stress_196
                      6.2953771320e+02 stress_197
                      6.3332948011e+02 stress_198
                      6.3626803506e+02 stress_199
                      6.3833295813e+02 stress_200
                      6.3951128408e+02 stress_201
                      6.3956900310e+02 stress_202
                      2.9149871234e+02 stress_203
                     -6.3391807654e+01 stress_204
                      4.0134514312e+01 stress_205
                      4.3551314002e+02 stress_206
                      4.5147400410e+02 stress_207
                      3.8983835107e+02 stress_208
                      2.7804293090e+02 stress_209
                      1.2074437620e+02 stress_210
                     -6.2911185726e+01 stress_211
                     -2.3036916719e+02 stress_212
                     -3.4518801100e+02 stress_213
                     -4.1031407623e+02 stress_214
                     -4.4663615962e+02 stress_215
                     -4.6934311991e+02 stress_216
                     -4.8597954271e+02 stress_217
                     -4.9991631531e+02 stress_218
                     -5.1262804767e+02 stress_219
                     -5.2474891958e+02 stress_220
                     -5.3653153389e+02 stress_221
                     -5.4804683166e+02 stress_222
                     -5.5927672223e+02 stress_223
                     -5.7015776387e+02 stress_224
                     -5.8060487811e+02 stress_225
                     -5.9052275299e+02 stress_226
                     -5.9981322137e+02 stress_227
                     -6.0838135239e+02 stress_228
                     -6.1613459383e+02 stress_229
                     -6.2299023547e+02 stress_230
                     -6.2887347972e+02 stress_231
                     -6.3371787363e+02 stress_232
                     -6.3747154597e+02 stress_233
                     -6.4009240719e+02 stress_234
                     -6.4155013281e+02 stress_235
                     -6.3537848909e+02 stress_236
                     -2.8468298727e+02 stress_237
                      1.7710895949e+01 stress_238
                     -1.9328528010e+02 stress_239
                     -4.4930112513e+02 stress_240
                     -1.3032301841e+02 stress_241
                      5.0251131442e+01 stress_242
                     -2.7182202481e+02 stress_243
                     -3.9942674372e+02 stress_244
                     -5.1382892887e+02 stress_245
                     -3.3741444946e+02 stress_246
                     -3.1418714247e+00 stress_247
                      2.7930961797e+02 stress_248
                      3.9839681028e+02 stress_249
                      4.3939708730e+02 stress_250
                      4.5077852195e+02 stress_251
                      3.5052157608e+02 stress_252
                      3.8668629012e+01 stress_253
                     -3.1083262054e+02 stress_254
                     -4.9497878023e+02 stress_255
                     -5.5845277846e+02 stress_256
                     -5.7076125881e+02 stress_257
                     -3.0528739395e+02 stress_258
                      8.3938183697e+01 stress_259
                      2.1347012633e+02 stress_260
                      8.4984121348e+00 stress_261
                     -3.6257061449e+02 stress_262
                     -5.3132331660e+02 stress_263
                     -5.5395752810e+02 stress_264
                     -5.1398855944e+02 stress_265
                     -4.2425948365e+02 stress_266
                     -2.8676588863e+02 stress_267
                     -1.0988903694e+02 stress_268
                      8.0942371035e+01 stress_269
                      2.4387033804e+02 stress_270
                      3.5331138484e+02 stress_271
                      4.1723408187e+02 stress_272
                      4.5454366381e+02 stress_273
                      4.7860178190e+02 stress_274
                      4.9635889149e+02 stress_275
                      5.1110862254e+02 stress_276
                      5.2438093478e+02 stress_277
                      5.3687611477e+02 stress_278
                      5.4889823181e+02 stress_279
                      5.6055556100e+02 stress_280
                      5.7185640501e+02 stress_281
                      5.8275712919e+02 stress_282
                      5.9318692699e+02 stress_283
                      6.0306281119e+02 stress_284
                      6.1229599112e+02 stress_285
                      6.2079919289e+02 stress_286
                      6.2848853732e+02 stress_287
                      6.3528521854e+02 stress_288
                      6.4112011215e+02 stress_289
                      6.4593242554e+02 stress_290
                      6.4967107974e+02 stress_291
                      6.5229758058e+02 stress_292
                      6.5378350283e+02 stress_293
                      6.5380544597e+02 stress_294
                      2.9409787145e+02 stress_295
                     -5.3247844869e+01 stress_296
                      7.0864896482e+01 stress_297
                      4.4988899687e+02 stress_298
                      4.6243184863e+02 stress_299
                      4.2106084320e+02 stress_300
                      3.4646396214e+02 stress_301
                      2.3962552971e+02 stress_302
                      1.0469469860e+02 stress_303
                     -4.6001574781e+01 stress_304
                     -1.8873075986e+02 stress_305
                     -2.9999429982e+02 stress_306
                     -3.7371448026e+02 stress_307
                     -4.1907869548e+02 stress_308
                     -4.4759432816e+02 stress_309
                     -4.6713034181e+02 stress_310
                     -4.8208375418e+02 stress_311
                     -4.9474925553e+02 stress_312
                     -5.0630500186e+02 stress_313
                     -5.1735836322e+02 stress_314
                     -5.2822017853e+02 stress_315
                     -5.3904366327e+02 stress_316
                     -5.4989648637e+02 stress_317
                     -5.6079740982e+02 stress_318
                     -5.7173695404e+02 stress_319
                     -5.8268913499e+02 stress_320
                     -5.9361720302e+02 stress_321
                     -6.0447869622e+02 stress_322
                     -6.1522680544e+02 stress_323
                     -6.2581301639e+02 stress_324
                     -6.3618831673e+02 stress_325
                     -6.4630240204e+02 stress_326
                     -6.5610692168e+02 stress_327
                     -6.6555256575e+02 stress_328
                     -6.7459355164e+02 stress_329
                     -6.8318493024e+02 stress_330
                     -6.9128318087e+02 stress_331
                     -6.9884840925e+02 stress_332
                     -7.0584201722e+02 stress_333
                     -7.1222920157e+02 stress_334
                     -7.1797845981e+02 stress_335
                     -7.2305909261e+02 stress_336
                     -7.2744706460e+02 stress_337
                     -7.3111952054e+02 stress_338
                     -7.3405775239e+02 stress_339
                     -7.3624751214e+02 stress_340
                     -7.3767744794e+02 stress_341
                     -7.3834007345e+02 stress_342



------------------------------------------
Begin Dakota derivative estimation routine
------------------------------------------

>>>>> map at X performed previously and results retrieved

>>>>> Dakota finite difference gradient evaluation for x[1] + h:

---------------------
Begin Evaluation   63
---------------------
Parameters for evaluation 63:
                      4.7190476689e+02 fy
                      1.9756214519e+05 E
                      2.2972035147e-02 b
                      8.4153238076e-01 cR1
                      4.6532151968e-03 cR2
                      1.8115482574e-02 a1
                      2.9502251912e-02 a3

(Asynchronous job 63 added to queue)


>>>>> Dakota finite difference gradient evaluation for x[2] + h:

---------------------
Begin Evaluation   64
---------------------
Parameters for evaluation 64:
                      4.7143333355e+02 fy
                      1.9775970734e+05 E
                      2.2972035147e-02 b
                      8.4153238076e-01 cR1
                      4.6532151968e-03 cR2
                      1.8115482574e-02 a1
                      2.9502251912e-02 a3

(Asynchronous job 64 added to queue)


>>>>> Dakota finite difference gradient evaluation for x[3] + h:

---------------------
Begin Evaluation   65
---------------------
Parameters for evaluation 65:
                      4.7143333355e+02 fy
                      1.9756214519e+05 E
                      2.2995007182e-02 b
                      8.4153238076e-01 cR1
                      4.6532151968e-03 cR2
                      1.8115482574e-02 a1
                      2.9502251912e-02 a3

(Asynchronous job 65 added to queue)


>>>>> Dakota finite difference gradient evaluation for x[4] + h:

---------------------
Begin Evaluation   66
---------------------
Parameters for evaluation 66:
                      4.7143333355e+02 fy
                      1.9756214519e+05 E
                      2.2972035147e-02 b
                      8.4237391314e-01 cR1
                      4.6532151968e-03 cR2
                      1.8115482574e-02 a1
                      2.9502251912e-02 a3

(Asynchronous job 66 added to queue)


>>>>> Dakota finite difference gradient evaluation for x[5] + h:

---------------------
Begin Evaluation   67
---------------------
Parameters for evaluation 67:
                      4.7143333355e+02 fy
                      1.9756214519e+05 E
                      2.2972035147e-02 b
                      8.4153238076e-01 cR1
                      4.6632151968e-03 cR2
                      1.8115482574e-02 a1
                      2.9502251912e-02 a3

(Asynchronous job 67 added to queue)


>>>>> Dakota finite difference gradient evaluation for x[6] + h:

---------------------
Begin Evaluation   68
---------------------
Parameters for evaluation 68:
                      4.7143333355e+02 fy
                      1.9756214519e+05 E
                      2.2972035147e-02 b
                      8.4153238076e-01 cR1
                      4.6532151968e-03 cR2
                      1.8133598056e-02 a1
                      2.9502251912e-02 a3

(Asynchronous job 68 added to queue)


>>>>> Dakota finite difference gradient evaluation for x[7] + h:

---------------------
Begin Evaluation   69
---------------------
Parameters for evaluation 69:
                      4.7143333355e+02 fy
                      1.9756214519e+05 E
                      2.2972035147e-02 b
                      8.4153238076e-01 cR1
                      4.6532151968e-03 cR2
                      1.8115482574e-02 a1
                      2.9531754164e-02 a3

(Asynchronous job 69 added to queue)



Blocking synchronize of 7 asynchronous evaluations
First pass: initiating 7 local asynchronous jobs
Initiating evaluation 63
nonblocking fork: workflow_driver1 paramsDakota.in results.out
Initiating evaluation 64
nonblocking fork: workflow_driver1 paramsDakota.in results.out
Initiating evaluation 65
nonblocking fork: workflow_driver1 paramsDakota.in results.out
Initiating evaluation 66
nonblocking fork: workflow_driver1 paramsDakota.in results.out
Initiating evaluation 67
nonblocking fork: workflow_driver1 paramsDakota.in results.out
Initiating evaluation 68
nonblocking fork: workflow_driver1 paramsDakota.in results.out
Initiating evaluation 69
nonblocking fork: workflow_driver1 paramsDakota.in results.out
Waiting on completed jobs
Evaluation 63 has completed
Evaluation 64 has completed
Evaluation 65 has completed
Evaluation 66 has completed
Evaluation 67 has completed
Waiting on completed jobs
Evaluation 68 has completed
Waiting on completed jobs
Evaluation 69 has completed

Active response data for evaluation 63:
Active set vector = { 1 1 1 1 1 1 1 1 1 1 1 1 1 1 1 1 1 1 1 1 1 1 1 1 1 1 1 1 1 1 1 1 1 1 1 1 1 1 1 1 1 1 1 1 1 1 1 1 1 1 1 1 1 1 1 1 1 1 1 1 1 1 1 1 1 1 1 1 1 1 1 1 1 1 1 1 1 1 1 1 1 1 1 1 1 1 1 1 1 1 1 1 1 1 1 1 1 1 1 1 1 1 1 1 1 1 1 1 1 1 1 1 1 1 1 1 1 1 1 1 1 1 1 1 1 1 1 1 1 1 1 1 1 1 1 1 1 1 1 1 1 1 1 1 1 1 1 1 1 1 1 1 1 1 1 1 1 1 1 1 1 1 1 1 1 1 1 1 1 1 1 1 1 1 1 1 1 1 1 1 1 1 1 1 1 1 1 1 1 1 1 1 1 1 1 1 1 1 1 1 1 1 1 1 1 1 1 1 1 1 1 1 1 1 1 1 1 1 1 1 1 1 1 1 1 1 1 1 1 1 1 1 1 1 1 1 1 1 1 1 1 1 1 1 1 1 1 1 1 1 1 1 1 1 1 1 1 1 1 1 1 1 1 1 1 1 1 1 1 1 1 1 1 1 1 1 1 1 1 1 1 1 1 1 1 1 1 1 1 1 1 1 1 1 1 1 1 1 1 1 1 1 1 1 1 1 1 1 1 1 1 1 1 1 1 1 1 1 1 1 1 1 1 1 1 1 1 1 1 1 1 1 1 1 1 1 1 1 1 1 1 1 }
                      2.3022385001e+00 stress_1
                     -2.3890243102e+02 stress_2
                     -4.7836665300e+02 stress_3
                     -4.8332351112e+02 stress_4
                     -1.7194479074e+02 stress_5
                      2.1208022726e+02 stress_6
                      3.5725945688e+02 stress_7
                      3.5820200687e+02 stress_8
                      1.2165553421e+02 stress_9
                     -2.2267961861e+02 stress_10
                     -4.1121276550e+02 stress_11
                     -4.6848187666e+02 stress_12
                     -4.8729292529e+02 stress_13
                     -4.8867110291e+02 stress_14
                     -1.7313060432e+02 stress_15
                     -3.3196213644e+02 stress_16
                     -4.6963363674e+02 stress_17
                     -2.8432256652e+02 stress_18
                      3.9632184324e+01 stress_19
                      3.0999794044e+02 stress_20
                      4.2366197875e+02 stress_21
                      4.6524125338e+02 stress_22
                      4.8267885625e+02 stress_23
                      4.8855202891e+02 stress_24
                      1.7232820164e+02 stress_25
                      2.9398342513e+02 stress_26
                      4.2033309514e+02 stress_27
                      4.4606094875e+02 stress_28
                      3.2921361534e+02 stress_29
                      1.2429850972e+02 stress_30
                     -1.2665762027e+02 stress_31
                     -3.2475380853e+02 stress_32
                     -4.2687994629e+02 stress_33
                     -4.7386284155e+02 stress_34
                     -4.9936898746e+02 stress_35
                     -5.1664419117e+02 stress_36
                     -5.3013663049e+02 stress_37
                     -5.4125607525e+02 stress_38
                     -5.5036138839e+02 stress_39
                     -5.5744082060e+02 stress_40
                     -5.6238125961e+02 stress_41
                     -5.6506299598e+02 stress_42
                     -5.5036102035e+02 stress_43
                     -1.7673439907e+02 stress_44
                      9.9304363507e+01 stress_45
                     -9.6295712915e+01 stress_46
                     -4.0403962431e+02 stress_47
                     -1.2009370751e+02 stress_48
                     -2.1793952016e+02 stress_49
                     -3.7062216116e+02 stress_50
                     -5.5839791152e+02 stress_51
                     -3.9653910444e+02 stress_52
                     -6.4563233598e+01 stress_53
                      2.3572100592e+02 stress_54
                      3.6860102776e+02 stress_55
                      4.1465585583e+02 stress_56
                      4.2814815119e+02 stress_57
                      3.4604239119e+02 stress_58
                      4.4189375098e+01 stress_59
                     -2.9722895864e+02 stress_60
                     -4.6434577948e+02 stress_61
                     -5.1845507051e+02 stress_62
                     -5.3035129598e+02 stress_63
                     -2.7362702642e+02 stress_64
                      1.0903935634e+02 stress_65
                      2.0169060938e+02 stress_66
                     -5.6199386695e+01 stress_67
                     -4.0187208839e+02 stress_68
                     -5.0569053295e+02 stress_69
                     -5.0704487575e+02 stress_70
                     -4.1632387291e+02 stress_71
                     -2.5120651567e+02 stress_72
                     -3.0248782907e+01 stress_73
                      1.8641051302e+02 stress_74
                      3.3038136081e+02 stress_75
                      4.0394582079e+02 stress_76
                      4.4157548009e+02 stress_77
                      4.6440532772e+02 stress_78
                      4.8114170884e+02 stress_79
                      4.9505641117e+02 stress_80
                      5.0733134800e+02 stress_81
                      5.1833402238e+02 stress_82
                      5.2810375778e+02 stress_83
                      5.3655118861e+02 stress_84
                      5.4354113223e+02 stress_85
                      5.4893891786e+02 stress_86
                      5.5263032036e+02 stress_87
                      5.5453012326e+02 stress_88
                      4.8443169634e+02 stress_89
                      6.0091226939e+01 stress_90
                     -1.5372597051e+02 stress_91
                      1.2016000960e+02 stress_92
                      4.2380529529e+02 stress_93
                      4.3004331187e+02 stress_94
                      3.7280696011e+02 stress_95
                      2.6967378804e+02 stress_96
                      1.2419472156e+02 stress_97
                     -4.9353400472e+01 stress_98
                     -2.1632752170e+02 stress_99
                     -3.3952779638e+02 stress_100
                     -4.1334616450e+02 stress_101
                     -4.5497851004e+02 stress_102
                     -4.8029063121e+02 stress_103
                     -4.9802693459e+02 stress_104
                     -5.1230816221e+02 stress_105
                     -5.2500983644e+02 stress_106
                     -5.3697790328e+02 stress_107
                     -5.4858219960e+02 stress_108
                     -5.5996461558e+02 stress_109
                     -5.7115397922e+02 stress_110
                     -5.8212048267e+02 stress_111
                     -5.9280274688e+02 stress_112
                     -6.0312493923e+02 stress_113
                     -6.1300393714e+02 stress_114
                     -6.2235394859e+02 stress_115
                     -6.3109073808e+02 stress_116
                     -6.3913263981e+02 stress_117
                     -6.4640502842e+02 stress_118
                     -6.5283888511e+02 stress_119
                     -6.5837123584e+02 stress_120
                     -6.6295019950e+02 stress_121
                     -6.6653100642e+02 stress_122
                     -6.6907850894e+02 stress_123
                     -6.7056896182e+02 stress_124
                     -6.7096937660e+02 stress_125
                     -5.7341026790e+02 stress_126
                     -3.3109896751e+02 stress_127
                     -1.5554238733e+01 stress_128
                      2.2027829724e+02 stress_129
                      3.3102179855e+02 stress_130
                      3.7829148074e+02 stress_131
                      4.0042885058e+02 stress_132
                      4.1043246731e+02 stress_133
                      4.1099188843e+02 stress_134
                      2.2564099016e+01 stress_135
                      1.0450583716e+00 stress_136
                      1.7957899058e+02 stress_137
                      1.4522510533e+02 stress_138
                     -1.9283279691e+01 stress_139
                     -3.0544181705e+02 stress_140
                     -5.3148371747e+02 stress_141
                     -6.2228575714e+02 stress_142
                     -6.5619852022e+02 stress_143
                     -6.7154919786e+02 stress_144
                     -6.7795526529e+02 stress_145
                     -6.5856317516e+02 stress_146
                     -4.3096333236e+02 stress_147
                     -7.7238601469e+01 stress_148
                      1.9398665603e+02 stress_149
                      3.1006130470e+02 stress_150
                      3.4998973128e+02 stress_151
                      3.5477424578e+02 stress_152
                      1.4885651897e+02 stress_153
                     -2.0903468046e+02 stress_154
                     -4.8190491396e+02 stress_155
                     -5.8892879531e+02 stress_156
                     -6.1929102016e+02 stress_157
                     -5.0252052396e+02 stress_158
                     -1.0287517884e+02 stress_159
                      9.0904905245e+01 stress_160
                     -6.7498612370e+01 stress_161
                     -4.3426514589e+02 stress_162
                     -5.9496715108e+02 stress_163
                     -6.0882673421e+02 stress_164
                     -5.6912645731e+02 stress_165
                     -4.9079837750e+02 stress_166
                     -3.7498159123e+02 stress_167
                     -2.2604515170e+02 stress_168
                     -5.7913592603e+01 stress_169
                      1.0214387882e+02 stress_170
                      2.2648883269e+02 stress_171
                      3.0805513195e+02 stress_172
                      3.5771752041e+02 stress_173
                      3.8870927712e+02 stress_174
                      4.0988770180e+02 stress_175
                      4.2609596888e+02 stress_176
                      4.3981498029e+02 stress_177
                      4.5229870246e+02 stress_178
                      4.6417766760e+02 stress_179
                      4.7576408853e+02 stress_180
                      4.8720297515e+02 stress_181
                      4.9854729650e+02 stress_182
                      5.0979987111e+02 stress_183
                      5.2093375109e+02 stress_184
                      5.3190564133e+02 stress_185
                      5.4266218045e+02 stress_186
                      5.5314472473e+02 stress_187
                      5.6329248006e+02 stress_188
                      5.7304346115e+02 stress_189
                      5.8233697384e+02 stress_190
                      5.9111416588e+02 stress_191
                      5.9931757636e+02 stress_192
                      6.0689510034e+02 stress_193
                      6.1379693395e+02 stress_194
                      6.1997681604e+02 stress_195
                      6.2539519821e+02 stress_196
                      6.3001512837e+02 stress_197
                      6.3380691913e+02 stress_198
                      6.3674549160e+02 stress_199
                      6.3881042650e+02 stress_200
                      6.3998875903e+02 stress_201
                      6.4004647837e+02 stress_202
                      2.9196823533e+02 stress_203
                     -6.3062443521e+01 stress_204
                      4.0463978410e+01 stress_205
                      4.3591888896e+02 stress_206
                      4.5188870068e+02 stress_207
                      3.9025303577e+02 stress_208
                      2.7845673769e+02 stress_209
                      1.2114594016e+02 stress_210
                     -6.2579048930e+01 stress_211
                     -2.3021917036e+02 stress_212
                     -3.4527015344e+02 stress_213
                     -4.1056993765e+02 stress_214
                     -4.4699118375e+02 stress_215
                     -4.6975012805e+02 stress_216
                     -4.8641386954e+02 stress_217
                     -5.0036550869e+02 stress_218
                     -5.1308569284e+02 stress_219
                     -5.2521158394e+02 stress_220
                     -5.3699730241e+02 stress_221
                     -5.4851459150e+02 stress_222
                     -5.5974580183e+02 stress_223
                     -5.7062774364e+02 stress_224
                     -5.8107548747e+02 stress_225
                     -5.9099381229e+02 stress_226
                     -6.0028460805e+02 stress_227
                     -6.0885298070e+02 stress_228
                     -6.1660640220e+02 stress_229
                     -6.2346217857e+02 stress_230
                     -6.2934552331e+02 stress_231
                     -6.3418999098e+02 stress_232
                     -6.3794371557e+02 stress_233
                     -6.4056461096e+02 stress_234
                     -6.4202235482e+02 stress_235
                     -6.3585071110e+02 stress_236
                     -2.8514684585e+02 stress_237
                      1.7346336894e+01 stress_238
                     -1.9365080478e+02 stress_239
                     -4.4969156482e+02 stress_240
                     -1.3070286057e+02 stress_241
                      4.9929319165e+01 stress_242
                     -2.7215013461e+02 stress_243
                     -3.9977364477e+02 stress_244
                     -5.1421415390e+02 stress_245
                     -3.3779899573e+02 stress_246
                     -3.4700819940e+00 stress_247
                      2.7927553803e+02 stress_248
                      3.9862161560e+02 stress_249
                      4.3972508757e+02 stress_250
                      4.5113410351e+02 stress_251
                      3.5087711611e+02 stress_252
                      3.9009045683e+01 stress_253
                     -3.1067180967e+02 stress_254
                     -4.9509275623e+02 stress_255
                     -5.5869971858e+02 stress_256
                     -5.7103535226e+02 stress_257
                     -3.0555897187e+02 stress_258
                      8.3771942049e+01 stress_259
                      2.1342314293e+02 stress_260
                      8.4502986154e+00 stress_261
                     -3.6270104233e+02 stress_262
                     -5.3160791955e+02 stress_263
                     -5.5427165867e+02 stress_264
                     -5.1430268893e+02 stress_265
                     -4.2457346854e+02 stress_266
                     -2.8707704949e+02 stress_267
                     -1.1017848493e+02 stress_268
                      8.0737326050e+01 stress_269
                      2.4383578857e+02 stress_270
                      3.5346596617e+02 stress_271
                      4.1752634362e+02 stress_272
                      4.5491704290e+02 stress_273
                      4.7901979176e+02 stress_274
                      4.9680148488e+02 stress_275
                      5.1156514981e+02 stress_276
                      5.2484566021e+02 stress_277
                      5.3734585128e+02 stress_278
                      5.4937114376e+02 stress_279
                      5.6103055257e+02 stress_280
                      5.7233279944e+02 stress_281
                      5.8323449511e+02 stress_282
                      5.9366498133e+02 stress_283
                      6.0354136314e+02 stress_284
                      6.1277490870e+02 stress_285
                      6.2127838262e+02 stress_286
                      6.2896793137e+02 stress_287
                      6.3576476649e+02 stress_288
                      6.4159977551e+02 stress_289
                      6.4641217413e+02 stress_290
                      6.5015088903e+02 stress_291
                      6.5277742988e+02 stress_292
                      6.5426337386e+02 stress_293
                      6.5428531733e+02 stress_294
                      2.9456909197e+02 stress_295
                     -5.2911922742e+01 stress_296
                      7.1201034446e+01 stress_297
                      4.5028968092e+02 stress_298
                      4.6283837087e+02 stress_299
                      4.2146736332e+02 stress_300
                      3.4687032802e+02 stress_301
                      2.4002966948e+02 stress_302
                      1.0508406665e+02 stress_303
                     -4.5669147869e+01 stress_304
                     -1.8853067212e+02 stress_305
                     -2.9998113057e+02 stress_306
                     -3.7387491608e+02 stress_307
                     -4.1936163889e+02 stress_308
                     -4.4795268774e+02 stress_309
                     -4.6753297474e+02 stress_310
                     -4.8251233962e+02 stress_311
                     -4.9519334578e+02 stress_312
                     -5.0675860473e+02 stress_313
                     -5.1781797195e+02 stress_314
                     -5.2868368680e+02 stress_315
                     -5.3950977105e+02 stress_316
                     -5.5036436989e+02 stress_317
                     -5.6126653381e+02 stress_318
                     -5.7220696254e+02 stress_319
                     -5.8315978611e+02 stress_320
                     -5.9408832912e+02 stress_321
                     -6.0495017890e+02 stress_322
                     -6.1569855971e+02 stress_323
                     -6.2628498022e+02 stress_324
                     -6.3666044422e+02 stress_325
                     -6.4677465870e+02 stress_326
                     -6.5657928132e+02 stress_327
                     -6.6602500816e+02 stress_328
                     -6.7506606112e+02 stress_329
                     -6.8365749439e+02 stress_330
                     -6.9175578983e+02 stress_331
                     -6.9932105506e+02 stress_332
                     -7.0631469338e+02 stress_333
                     -7.1270190275e+02 stress_334
                     -7.1845118155e+02 stress_335
                     -7.2353183111e+02 stress_336
                     -7.2791981662e+02 stress_337
                     -7.3159228324e+02 stress_338
                     -7.3453052325e+02 stress_339
                     -7.3672028888e+02 stress_340
                     -7.3815022842e+02 stress_341
                     -7.3881285563e+02 stress_342


Active response data for evaluation 64:
Active set vector = { 1 1 1 1 1 1 1 1 1 1 1 1 1 1 1 1 1 1 1 1 1 1 1 1 1 1 1 1 1 1 1 1 1 1 1 1 1 1 1 1 1 1 1 1 1 1 1 1 1 1 1 1 1 1 1 1 1 1 1 1 1 1 1 1 1 1 1 1 1 1 1 1 1 1 1 1 1 1 1 1 1 1 1 1 1 1 1 1 1 1 1 1 1 1 1 1 1 1 1 1 1 1 1 1 1 1 1 1 1 1 1 1 1 1 1 1 1 1 1 1 1 1 1 1 1 1 1 1 1 1 1 1 1 1 1 1 1 1 1 1 1 1 1 1 1 1 1 1 1 1 1 1 1 1 1 1 1 1 1 1 1 1 1 1 1 1 1 1 1 1 1 1 1 1 1 1 1 1 1 1 1 1 1 1 1 1 1 1 1 1 1 1 1 1 1 1 1 1 1 1 1 1 1 1 1 1 1 1 1 1 1 1 1 1 1 1 1 1 1 1 1 1 1 1 1 1 1 1 1 1 1 1 1 1 1 1 1 1 1 1 1 1 1 1 1 1 1 1 1 1 1 1 1 1 1 1 1 1 1 1 1 1 1 1 1 1 1 1 1 1 1 1 1 1 1 1 1 1 1 1 1 1 1 1 1 1 1 1 1 1 1 1 1 1 1 1 1 1 1 1 1 1 1 1 1 1 1 1 1 1 1 1 1 1 1 1 1 1 1 1 1 1 1 1 1 1 1 1 1 1 1 1 1 1 1 1 1 1 1 1 1 1 }
                      2.3045407386e+00 stress_1
                     -2.3913651845e+02 stress_2
                     -4.7800315961e+02 stress_3
                     -4.8291957423e+02 stress_4
                     -1.7124579351e+02 stress_5
                      2.1271095261e+02 stress_6
                      3.5749439527e+02 stress_7
                      3.5843343140e+02 stress_8
                      1.2165625036e+02 stress_9
                     -2.2279063732e+02 stress_10
                     -4.1102803973e+02 stress_11
                     -4.6815570095e+02 stress_12
                     -4.8692956674e+02 stress_13
                     -4.8830552914e+02 stress_14
                     -1.7246647196e+02 stress_15
                     -3.3145925990e+02 stress_16
                     -4.6926110290e+02 stress_17
                     -2.8376670364e+02 stress_18
                      4.0377897841e+01 stress_19
                      3.1035950189e+02 stress_20
                      4.2358425665e+02 stress_21
                      4.6498617056e+02 stress_22
                      4.8236347037e+02 stress_23
                      4.8822019913e+02 stress_24
                      1.7169632758e+02 stress_25
                      2.9347454110e+02 stress_26
                      4.1997960396e+02 stress_27
                      4.4573618888e+02 stress_28
                      3.2877230372e+02 stress_29
                      1.2367240026e+02 stress_30
                     -1.2732927211e+02 stress_31
                     -3.2508380389e+02 stress_32
                     -4.2683357454e+02 stress_33
                     -4.7362314318e+02 stress_34
                     -4.9904966580e+02 stress_35
                     -5.1629450407e+02 stress_36
                     -5.2977714996e+02 stress_37
                     -5.4089546894e+02 stress_38
                     -5.5000307692e+02 stress_39
                     -5.5708569585e+02 stress_40
                     -5.6202890296e+02 stress_41
                     -5.6471229473e+02 stress_42
                     -5.4999561717e+02 stress_43
                     -1.7602988903e+02 stress_44
                      9.9997472655e+01 stress_45
                     -9.5793844575e+01 stress_46
                     -4.0365335005e+02 stress_47
                     -1.1944145714e+02 stress_48
                     -2.1738511523e+02 stress_49
                     -3.7021303406e+02 stress_50
                     -5.5744687887e+02 stress_51
                     -3.9542742886e+02 stress_52
                     -6.3246087733e+01 stress_53
                      2.3655586435e+02 stress_54
                      3.6879792760e+02 stress_55
                      4.1457935823e+02 stress_56
                      4.2799443656e+02 stress_57
                      3.4580661761e+02 stress_58
                      4.3681285171e+01 stress_59
                     -2.9769192422e+02 stress_60
                     -4.6443346254e+02 stress_61
                     -5.1836348350e+02 stress_62
                     -5.3021989887e+02 stress_63
                     -2.7324495302e+02 stress_64
                      1.0953985108e+02 stress_65
                      2.0208205138e+02 stress_66
                     -5.6057463468e+01 stress_67
                     -4.0181115336e+02 stress_68
                     -5.0550246927e+02 stress_69
                     -5.0685463201e+02 stress_70
                     -4.1604299892e+02 stress_71
                     -2.5076731095e+02 stress_72
                     -2.9673925566e+01 stress_73
                      1.8685910620e+02 stress_74
                      3.3047547066e+02 stress_75
                      4.0376478370e+02 stress_76
                      4.4125615963e+02 stress_77
                      4.6402576962e+02 stress_78
                      4.8073828068e+02 stress_79
                      4.9464579975e+02 stress_80
                      5.0692134965e+02 stress_81
                      5.1792821813e+02 stress_82
                      5.2770356704e+02 stress_83
                      5.3615682479e+02 stress_84
                      5.4315208027e+02 stress_85
                      5.4855420040e+02 stress_86
                      5.5224866259e+02 stress_87
                      5.5415006658e+02 stress_88
                      4.8398156654e+02 stress_89
                      5.9304408859e+01 stress_90
                     -1.5442494945e+02 stress_91
                      1.1972088433e+02 stress_92
                      4.2343791637e+02 stress_93
                      4.2967344008e+02 stress_94
                      3.7237986927e+02 stress_95
                      2.6914482174e+02 stress_96
                      1.2353785668e+02 stress_97
                     -5.0080068313e+01 stress_98
                     -2.1692118874e+02 stress_99
                     -3.3980772708e+02 stress_100
                     -4.1333192580e+02 stress_101
                     -4.5477964423e+02 stress_102
                     -4.7999387351e+02 stress_103
                     -4.9768204027e+02 stress_104
                     -5.1194147568e+02 stress_105
                     -5.2463532780e+02 stress_106
                     -5.3660320069e+02 stress_107
                     -5.4821160817e+02 stress_108
                     -5.5960062196e+02 stress_109
                     -5.7079801958e+02 stress_110
                     -5.8177334771e+02 stress_111
                     -5.9246480273e+02 stress_112
                     -6.0279625491e+02 stress_113
                     -6.1268436003e+02 stress_114
                     -6.2204315130e+02 stress_115
                     -6.3078825045e+02 stress_116
                     -6.3883787077e+02 stress_117
                     -6.4611728538e+02 stress_118
                     -6.5255738788e+02 stress_119
                     -6.5809512824e+02 stress_120
                     -6.6267856428e+02 stress_121
                     -6.6626287516e+02 stress_122
                     -6.6881287369e+02 stress_123
                     -6.7030478805e+02 stress_124
                     -6.7070559561e+02 stress_125
                     -5.7304901499e+02 stress_126
                     -3.3051122189e+02 stress_127
                     -1.4879520449e+01 stress_128
                      2.2057059158e+02 stress_129
                      3.3092496836e+02 stress_130
                      3.7800578730e+02 stress_131
                      4.0006517260e+02 stress_132
                      4.1003934033e+02 stress_133
                      4.1059725522e+02 stress_134
                      2.1806932233e+01 stress_135
                      2.7290917924e-01 stress_136
                      1.7898071240e+02 stress_137
                      1.4459247605e+02 stress_138
                     -2.0076118876e+01 stress_139
                     -3.0634716967e+02 stress_140
                     -5.3193525839e+02 stress_141
                     -6.2232792237e+02 stress_142
                     -6.5608694732e+02 stress_143
                     -6.7138629185e+02 stress_144
                     -6.7777667563e+02 stress_145
                     -6.5836519350e+02 stress_146
                     -4.3054166256e+02 stress_147
                     -7.6617886268e+01 stress_148
                      1.9430124846e+02 stress_149
                      3.1002084744e+02 stress_150
                      3.4979930985e+02 stress_151
                      3.5456562882e+02 stress_152
                      1.4844384750e+02 stress_153
                     -2.0968234809e+02 stress_154
                     -4.8231572270e+02 stress_155
                     -5.8906146586e+02 stress_156
                     -6.1932792469e+02 stress_157
                     -5.0244084021e+02 stress_158
                     -1.0248528312e+02 stress_159
                      9.1242640619e+01 stress_160
                     -6.7318176301e+01 stress_161
                     -4.3430054093e+02 stress_162
                     -5.9488406320e+02 stress_163
                     -6.0872479299e+02 stress_164
                     -5.6898481815e+02 stress_165
                     -4.9057862762e+02 stress_166
                     -3.7464961119e+02 stress_167
                     -2.2559013365e+02 stress_168
                     -5.7395900340e+01 stress_169
                      1.0256843139e+02 stress_170
                      2.2667647158e+02 stress_171
                      3.0799107346e+02 stress_172
                      3.5747110599e+02 stress_173
                      3.8835293586e+02 stress_174
                      4.0947065235e+02 stress_175
                      4.2564745681e+02 stress_176
                      4.3935182674e+02 stress_177
                      4.5183066455e+02 stress_178
                      4.6371054491e+02 stress_179
                      4.7530142478e+02 stress_180
                      4.8674698737e+02 stress_181
                      4.9809938885e+02 stress_182
                      5.0936092664e+02 stress_183
                      5.2050430077e+02 stress_184
                      5.3148596588e+02 stress_185
                      5.4225237254e+02 stress_186
                      5.5274472882e+02 stress_187
                      5.6290211907e+02 stress_188
                      5.7266245409e+02 stress_189
                      5.8196494962e+02 stress_190
                      5.9075067359e+02 stress_191
                      5.9896209251e+02 stress_192
                      6.0654703826e+02 stress_193
                      6.1345564900e+02 stress_194
                      6.1964161128e+02 stress_195
                      6.2506533259e+02 stress_196
                      6.2968982049e+02 stress_197
                      6.3348535537e+02 stress_198
                      6.3642683140e+02 stress_199
                      6.3849380760e+02 stress_200
                      6.3967330531e+02 stress_201
                      6.3973108173e+02 stress_202
                      2.9132070192e+02 stress_203
                     -6.3784159160e+01 stress_204
                      3.9845588767e+01 stress_205
                      4.3554329940e+02 stress_206
                      4.5151118011e+02 stress_207
                      3.8981390336e+02 stress_208
                      2.7790756894e+02 stress_209
                      1.2046400216e+02 stress_210
                     -6.3305582901e+01 stress_211
                     -2.3074858575e+02 stress_212
                     -3.4545013624e+02 stress_213
                     -4.1046788715e+02 stress_214
                     -4.4672738062e+02 stress_215
                     -4.6940522086e+02 stress_216
                     -4.8603105081e+02 stress_217
                     -4.9996694426e+02 stress_218
                     -5.1268296597e+02 stress_219
                     -5.2481095723e+02 stress_220
                     -5.3660226101e+02 stress_221
                     -5.4812708984e+02 stress_222
                     -5.5936689525e+02 stress_223
                     -5.7025792099e+02 stress_224
                     -5.8071485502e+02 stress_225
                     -5.9064219944e+02 stress_226
                     -5.9994163209e+02 stress_227
                     -6.0851809046e+02 stress_228
                     -6.1627890575e+02 stress_229
                     -6.2314126876e+02 stress_230
                     -6.2903029613e+02 stress_231
                     -6.3387946093e+02 stress_232
                     -6.3763683489e+02 stress_233
                     -6.4026028293e+02 stress_234
                     -6.4171944811e+02 stress_235
                     -6.3554163274e+02 stress_236
                     -2.8450382898e+02 stress_237
                      1.8092855557e+01 stress_238
                     -1.9311334762e+02 stress_239
                     -4.4936020969e+02 stress_240
                     -1.3007376142e+02 stress_241
                      5.0622749707e+01 stress_242
                     -2.7176615826e+02 stress_243
                     -3.9947962269e+02 stress_244
                     -5.1395776024e+02 stress_245
                     -3.3736754750e+02 stress_246
                     -2.8172046419e+00 stress_247
                      2.7962220748e+02 stress_248
                      3.9856978522e+02 stress_249
                      4.3950806187e+02 stress_250
                      4.5087335967e+02 stress_251
                      3.5051619854e+02 stress_252
                      3.8366576200e+01 stress_253
                     -3.1130410789e+02 stress_254
                     -4.9535939135e+02 stress_255
                     -5.5876395609e+02 stress_256
                     -5.7105761578e+02 stress_257
                     -3.0532080137e+02 stress_258
                      8.4188369629e+01 stress_259
                      2.1373037131e+02 stress_260
                      8.5548185078e+00 stress_261
                     -3.6280279614e+02 stress_262
                     -5.3156994195e+02 stress_263
                     -5.5419725652e+02 stress_264
                     -5.1418831997e+02 stress_265
                     -4.2436966019e+02 stress_266
                     -2.8674140531e+02 stress_267
                     -1.0970945941e+02 stress_268
                      8.1228158078e+01 stress_269
                      2.4414830598e+02 stress_270
                      3.5350963031e+02 stress_271
                      4.1735869044e+02 stress_272
                      4.5462458911e+02 stress_273
                      4.7866221931e+02 stress_274
                      4.9641255399e+02 stress_275
                      5.1116313160e+02 stress_276
                      5.2444053655e+02 stress_277
                      5.3694321218e+02 stress_278
                      5.4897418327e+02 stress_279
                      5.6064109502e+02 stress_280
                      5.7195184033e+02 stress_281
                      5.8286249601e+02 stress_282
                      5.9330203681e+02 stress_283
                      6.0318730046e+02 stress_284
                      6.1242934881e+02 stress_285
                      6.2094078227e+02 stress_286
                      6.2863761220e+02 stress_287
                      6.3544093659e+02 stress_288
                      6.4128154993e+02 stress_289
                      6.4609859062e+02 stress_290
                      6.4984092292e+02 stress_291
                      6.5247001034e+02 stress_292
                      6.5395739682e+02 stress_293
                      6.5397936160e+02 stress_294
                      2.9392076147e+02 stress_295
                     -5.3636626395e+01 stress_296
                      7.0600011280e+01 stress_297
                      4.4993852305e+02 stress_298
                      4.6248807431e+02 stress_299
                      4.2107570001e+02 stress_300
                      3.4640437687e+02 stress_301
                      2.3946134036e+02 stress_302
                      1.0441040206e+02 stress_303
                     -4.6379456025e+01 stress_304
                     -1.8911877056e+02 stress_305
                     -3.0030654899e+02 stress_306
                     -3.7392698343e+02 stress_307
                     -4.1921427945e+02 stress_308
                     -4.4768319889e+02 stress_309
                     -4.6719460214e+02 stress_310
                     -4.8213709557e+02 stress_311
                     -4.9479980752e+02 stress_312
                     -5.0635762831e+02 stress_313
                     -5.1741605726e+02 stress_314
                     -5.2828484801e+02 stress_315
                     -5.3911656553e+02 stress_316
                     -5.4997847177e+02 stress_317
                     -5.6088905991e+02 stress_318
                     -5.7183866221e+02 stress_319
                     -5.8280115490e+02 stress_320
                     -5.9373967767e+02 stress_321
                     -6.0461167698e+02 stress_322
                     -6.1537026366e+02 stress_323
                     -6.2596685198e+02 stress_324
                     -6.3635236453e+02 stress_325
                     -6.4647643519e+02 stress_326
                     -6.5629065674e+02 stress_327
                     -6.6574566395e+02 stress_328
                     -6.7479562400e+02 stress_329
                     -6.8339553949e+02 stress_330
                     -6.9150184372e+02 stress_331
                     -6.9907460061e+02 stress_332
                     -7.0607517192e+02 stress_333
                     -7.1246871853e+02 stress_334
                     -7.1822370555e+02 stress_335
                     -7.2330940227e+02 stress_336
                     -7.2770174876e+02 stress_337
                     -7.3137786650e+02 stress_338
                     -7.3431902845e+02 stress_339
                     -7.3651097212e+02 stress_340
                     -7.3794233413e+02 stress_341
                     -7.3860562056e+02 stress_342


Active response data for evaluation 65:
Active set vector = { 1 1 1 1 1 1 1 1 1 1 1 1 1 1 1 1 1 1 1 1 1 1 1 1 1 1 1 1 1 1 1 1 1 1 1 1 1 1 1 1 1 1 1 1 1 1 1 1 1 1 1 1 1 1 1 1 1 1 1 1 1 1 1 1 1 1 1 1 1 1 1 1 1 1 1 1 1 1 1 1 1 1 1 1 1 1 1 1 1 1 1 1 1 1 1 1 1 1 1 1 1 1 1 1 1 1 1 1 1 1 1 1 1 1 1 1 1 1 1 1 1 1 1 1 1 1 1 1 1 1 1 1 1 1 1 1 1 1 1 1 1 1 1 1 1 1 1 1 1 1 1 1 1 1 1 1 1 1 1 1 1 1 1 1 1 1 1 1 1 1 1 1 1 1 1 1 1 1 1 1 1 1 1 1 1 1 1 1 1 1 1 1 1 1 1 1 1 1 1 1 1 1 1 1 1 1 1 1 1 1 1 1 1 1 1 1 1 1 1 1 1 1 1 1 1 1 1 1 1 1 1 1 1 1 1 1 1 1 1 1 1 1 1 1 1 1 1 1 1 1 1 1 1 1 1 1 1 1 1 1 1 1 1 1 1 1 1 1 1 1 1 1 1 1 1 1 1 1 1 1 1 1 1 1 1 1 1 1 1 1 1 1 1 1 1 1 1 1 1 1 1 1 1 1 1 1 1 1 1 1 1 1 1 1 1 1 1 1 1 1 1 1 1 1 1 1 1 1 1 1 1 1 1 1 1 1 1 1 1 1 1 1 }
                      2.3022385001e+00 stress_1
                     -2.3890004238e+02 stress_2
                     -4.7795087863e+02 stress_3
                     -4.8288662518e+02 stress_4
                     -1.7151599183e+02 stress_5
                      2.1228531503e+02 stress_6
                      3.5719861333e+02 stress_7
                      3.5813898673e+02 stress_8
                      1.2159540169e+02 stress_9
                     -2.2262510670e+02 stress_10
                     -4.1092314346e+02 stress_11
                     -4.6810176612e+02 stress_12
                     -4.8689105953e+02 stress_13
                     -4.8826802058e+02 stress_14
                     -1.7273592739e+02 stress_15
                     -3.3156868644e+02 stress_16
                     -4.6923757931e+02 stress_17
                     -2.8392749036e+02 stress_18
                      3.9960906697e+01 stress_19
                      3.1000404603e+02 stress_20
                      4.2340021125e+02 stress_21
                      4.6487899491e+02 stress_22
                      4.8228439259e+02 stress_23
                      4.8814925477e+02 stress_24
                      1.7193343297e+02 stress_25
                      2.9358932654e+02 stress_26
                      4.1995373265e+02 stress_27
                      4.4568334243e+02 stress_28
                      3.2883615532e+02 stress_29
                      1.2393100495e+02 stress_30
                     -1.2692356787e+02 stress_31
                     -3.2475403638e+02 stress_32
                     -4.2664837772e+02 stress_33
                     -4.7352066609e+02 stress_34
                     -4.9898476389e+02 stress_35
                     -5.1624685968e+02 stress_36
                     -5.2973798700e+02 stress_37
                     -5.4086077696e+02 stress_38
                     -5.4997087442e+02 stress_39
                     -5.5705491706e+02 stress_40
                     -5.6199891888e+02 stress_41
                     -5.6468268617e+02 stress_42
                     -5.4998071056e+02 stress_43
                     -1.7637116884e+02 stress_44
                      9.9525543397e+01 stress_45
                     -9.6072366597e+01 stress_46
                     -4.0372143263e+02 stress_47
                     -1.1978441499e+02 stress_48
                     -2.1763022747e+02 stress_49
                     -3.7030928569e+02 stress_50
                     -5.5772081293e+02 stress_51
                     -3.9586260861e+02 stress_52
                     -6.3949441652e+01 stress_53
                      2.3594760416e+02 stress_54
                      3.6844961219e+02 stress_55
                      4.1435149493e+02 stress_56
                      4.2780162862e+02 stress_57
                      3.4569589176e+02 stress_58
                      4.3857468868e+01 stress_59
                     -2.9737040184e+02 stress_60
                     -4.6422302138e+02 stress_61
                     -5.1822212944e+02 stress_62
                     -5.3009479978e+02 stress_63
                     -2.7337352052e+02 stress_64
                      1.0916239896e+02 stress_65
                      2.0171434973e+02 stress_66
                     -5.6171516011e+01 stress_67
                     -4.0171457914e+02 stress_68
                     -5.0542246033e+02 stress_69
                     -5.0677515434e+02 stress_70
                     -4.1605419640e+02 stress_71
                     -2.5094019618e+02 stress_72
                     -3.0024640199e+01 stress_73
                      1.8646546758e+02 stress_74
                      3.3019230774e+02 stress_75
                      4.0359021258e+02 stress_76
                      4.4114138184e+02 stress_77
                      4.6394009844e+02 stress_78
                      4.8066701619e+02 stress_79
                      4.9458206362e+02 stress_80
                      5.0686178682e+02 stress_81
                      5.1787109558e+02 stress_82
                      5.2764793543e+02 stress_83
                      5.3610213371e+02 stress_84
                      5.4309799165e+02 stress_85
                      5.4850049358e+02 stress_86
                      5.5219518264e+02 stress_87
                      5.5409669391e+02 stress_88
                      4.8399827951e+02 stress_89
                      5.9701165615e+01 stress_90
                     -1.5396704411e+02 stress_91
                      1.1991198073e+02 stress_92
                      4.2344369237e+02 stress_93
                      4.2967751095e+02 stress_94
                      3.7244116775e+02 stress_95
                      2.6930861836e+02 stress_96
                      1.2383825490e+02 stress_97
                     -4.9658531698e+01 stress_98
                     -2.1648445230e+02 stress_99
                     -3.3946992333e+02 stress_100
                     -4.1310982328e+02 stress_101
                     -4.5463606119e+02 stress_102
                     -4.7989471079e+02 stress_103
                     -4.9760703219e+02 stress_104
                     -5.1187980426e+02 stress_105
                     -5.2458127684e+02 stress_106
                     -5.3655367621e+02 stress_107
                     -5.4816487633e+02 stress_108
                     -5.5955567478e+02 stress_109
                     -5.7075424996e+02 stress_110
                     -5.8173037766e+02 stress_111
                     -5.9242238957e+02 stress_112
                     -6.0275423847e+02 stress_113
                     -6.1264263184e+02 stress_114
                     -6.2200163606e+02 stress_115
                     -6.3074689474e+02 stress_116
                     -6.3879663582e+02 stress_117
                     -6.4607614246e+02 stress_118
                     -6.5251631520e+02 stress_119
                     -6.5805410887e+02 stress_120
                     -6.6263758472e+02 stress_121
                     -6.6622192430e+02 stress_122
                     -6.6877194207e+02 stress_123
                     -6.7026386725e+02 stress_124
                     -6.7066467766e+02 stress_125
                     -5.7310561210e+02 stress_126
                     -3.3080213676e+02 stress_127
                     -1.5370370235e+01 stress_128
                      2.2015803682e+02 stress_129
                      3.3065965381e+02 stress_130
                      3.7781979947e+02 stress_131
                      3.9991410796e+02 stress_132
                      4.0990221955e+02 stress_133
                      4.1046086720e+02 stress_134
                      2.2045880847e+01 stress_135
                      5.3007152421e-01 stress_136
                      1.7906175461e+02 stress_137
                      1.4470787074e+02 stress_138
                     -1.9798385785e+01 stress_139
                     -3.0587098996e+02 stress_140
                     -5.3157785607e+02 stress_141
                     -6.2213828114e+02 stress_142
                     -6.5596612656e+02 stress_143
                     -6.7129045981e+02 stress_144
                     -6.7768917547e+02 stress_145
                     -6.5829708539e+02 stress_146
                     -4.3069917697e+02 stress_147
                     -7.7050880999e+01 stress_148
                      1.9389023325e+02 stress_149
                      3.0973609854e+02 stress_150
                      3.4957461140e+02 stress_151
                      3.5434844421e+02 stress_152
                      1.4843163841e+02 stress_153
                     -2.0939888156e+02 stress_154
                     -4.8201870247e+02 stress_155
                     -5.8885638892e+02 stress_156
                     -6.1915924067e+02 stress_157
                     -5.0238883450e+02 stress_158
                     -1.0278764911e+02 stress_159
                      9.0871251156e+01 stress_160
                     -6.7531720598e+01 stress_161
                     -4.3422406935e+02 stress_162
                     -5.9479113439e+02 stress_163
                     -6.0863532364e+02 stress_164
                     -5.6893504790e+02 stress_165
                     -4.9060707557e+02 stress_166
                     -3.7479206286e+02 stress_167
                     -2.2586842754e+02 stress_168
                     -5.7788973693e+01 stress_169
                      1.0214362697e+02 stress_170
                      2.2631127967e+02 stress_171
                      3.0771591538e+02 stress_172
                      3.5726864712e+02 stress_173
                      3.8819737255e+02 stress_174
                      4.0934311442e+02 stress_175
                      4.2553646851e+02 stress_176
                      4.3925076094e+02 stress_177
                      4.5173570246e+02 stress_178
                      4.6361944616e+02 stress_179
                      4.7521284175e+02 stress_180
                      4.8666008725e+02 stress_181
                      4.9801364291e+02 stress_182
                      5.0927599057e+02 stress_183
                      5.2041994495e+02 stress_184
                      5.3140203374e+02 stress_185
                      5.4216875511e+02 stress_186
                      5.5266134879e+02 stress_187
                      5.6281892061e+02 stress_188
                      5.7257939622e+02 stress_189
                      5.8188200176e+02 stress_190
                      5.9066781258e+02 stress_191
                      5.9887930055e+02 stress_192
                      6.0646430145e+02 stress_193
                      6.1337295635e+02 stress_194
                      6.1955895394e+02 stress_195
                      6.2498270331e+02 stress_196
                      6.2960721323e+02 stress_197
                      6.3340276499e+02 stress_198
                      6.3634425342e+02 stress_199
                      6.3841123799e+02 stress_200
                      6.3959074036e+02 stress_201
                      6.3964851700e+02 stress_202
                      2.9157815876e+02 stress_203
                     -6.3313774194e+01 stress_204
                      4.0212548106e+01 stress_205
                      4.3559202629e+02 stress_206
                      4.5155305667e+02 stress_207
                      3.8991740355e+02 stress_208
                      2.7812197686e+02 stress_209
                      1.2082332885e+02 stress_210
                     -6.2832820456e+01 stress_211
                     -2.3029282709e+02 stress_212
                     -3.4511592413e+02 stress_213
                     -4.1024832142e+02 stress_214
                     -4.4657823519e+02 stress_215
                     -4.6929406875e+02 stress_216
                     -4.8594012266e+02 stress_217
                     -4.9988709118e+02 stress_218
                     -5.1260943011e+02 stress_219
                     -5.2474117991e+02 stress_220
                     -5.3653481074e+02 stress_221
                     -5.4806113338e+02 stress_222
                     -5.5930192925e+02 stress_223
                     -5.7019363073e+02 stress_224
                     -5.8065103747e+02 stress_225
                     -5.9057871977e+02 stress_226
                     -5.9987839827e+02 stress_227
                     -6.0845503813e+02 stress_228
                     -6.1621598864e+02 stress_229
                     -6.2307845286e+02 stress_230
                     -6.2896755571e+02 stress_231
                     -6.3381677592e+02 stress_232
                     -6.3757418911e+02 stress_233
                     -6.4019766282e+02 stress_234
                     -6.4165684169e+02 stress_235
                     -6.3548519797e+02 stress_236
                     -2.8478962443e+02 stress_237
                      1.7605228039e+01 stress_238
                     -1.9339098931e+02 stress_239
                     -4.4940823572e+02 stress_240
                     -1.3043004636e+02 stress_241
                      5.0144600025e+01 stress_242
                     -2.7192877171e+02 stress_243
                     -3.9953425834e+02 stress_244
                     -5.1393872018e+02 stress_245
                     -3.3752423521e+02 stress_246
                     -3.2511532443e+00 stress_247
                      2.7920429751e+02 stress_248
                      3.9829902429e+02 stress_249
                      4.3930596472e+02 stress_250
                      4.5069024882e+02 stress_251
                      3.5043330256e+02 stress_252
                      3.8580210155e+01 stress_253
                     -3.1092324995e+02 stress_254
                     -4.9507543388e+02 stress_255
                     -5.5855521184e+02 stress_256
                     -5.7086543495e+02 stress_257
                     -3.0539154481e+02 stress_258
                      8.3835280235e+01 stress_259
                      2.1336909542e+02 stress_260
                      8.3973651115e+00 stress_261
                     -3.6267313131e+02 stress_262
                     -5.3143076451e+02 stress_263
                     -5.5406657222e+02 stress_264
                     -5.1409760354e+02 stress_265
                     -4.2436852641e+02 stress_266
                     -2.8687490496e+02 stress_267
                     -1.0999784064e+02 stress_268
                      8.0834517503e+01 stress_269
                      2.4376509657e+02 stress_270
                      3.5321094781e+02 stress_271
                      4.1714037571e+02 stress_272
                      4.5445807912e+02 stress_273
                      4.7852529740e+02 stress_274
                      4.9629221776e+02 stress_275
                      5.1105228060e+02 stress_276
                      5.2433529364e+02 stress_277
                      5.3684140685e+02 stress_278
                      5.4887455999e+02 stress_279
                      5.6054290229e+02 stress_280
                      5.7185461326e+02 stress_281
                      5.8276593799e+02 stress_282
                      5.9320595303e+02 stress_283
                      6.0309155954e+02 stress_284
                      6.1233385986e+02 stress_285
                      6.2084548088e+02 stress_286
                      6.2854245164e+02 stress_287
                      6.3534588209e+02 stress_288
                      6.4118657500e+02 stress_289
                      6.4600367443e+02 stress_290
                      6.4974604857e+02 stress_291
                      6.5237516357e+02 stress_292
                      6.5386256504e+02 stress_293
                      6.5388453004e+02 stress_294
                      2.9417688121e+02 stress_295
                     -5.3170208300e+01 stress_296
                      7.0942534281e+01 stress_297
                      4.4996771675e+02 stress_298
                      4.6251072847e+02 stress_299
                      4.2113972303e+02 stress_300
                      3.4654284080e+02 stress_301
                      2.3970439141e+02 stress_302
                      1.0477344423e+02 stress_303
                     -4.5923319365e+01 stress_304
                     -1.8865390477e+02 stress_305
                     -2.9992028412e+02 stress_306
                     -3.7364485882e+02 stress_307
                     -4.1901477494e+02 stress_308
                     -4.4753711112e+02 stress_309
                     -4.6708060797e+02 stress_310
                     -4.8204213953e+02 stress_311
                     -4.9471629979e+02 stress_312
                     -5.0628117087e+02 stress_313
                     -5.1734406114e+02 stress_314
                     -5.2821575266e+02 stress_315
                     -5.3904940566e+02 stress_316
                     -5.4991263481e+02 stress_317
                     -5.6082414747e+02 stress_318
                     -5.7177440916e+02 stress_319
                     -5.8273738103e+02 stress_320
                     -5.9367625801e+02 stress_321
                     -6.0454852328e+02 stress_322
                     -6.1530731252e+02 stress_323
                     -6.2590405716e+02 stress_324
                     -6.3628969178e+02 stress_325
                     -6.4641385880e+02 stress_326
                     -6.5622815716e+02 stress_327
                     -6.6568322613e+02 stress_328
                     -6.7473323620e+02 stress_329
                     -6.8333319248e+02 stress_330
                     -6.9143953014e+02 stress_331
                     -6.9901231451e+02 stress_332
                     -7.0601290848e+02 stress_333
                     -7.1240647375e+02 stress_334
                     -7.1816147610e+02 stress_335
                     -7.2324718532e+02 stress_336
                     -7.2763954190e+02 stress_337
                     -7.3131566762e+02 stress_338
                     -7.3425683565e+02 stress_339
                     -7.3644878370e+02 stress_340
                     -7.3788014850e+02 stress_341
                     -7.3854343620e+02 stress_342


Active response data for evaluation 66:
Active set vector = { 1 1 1 1 1 1 1 1 1 1 1 1 1 1 1 1 1 1 1 1 1 1 1 1 1 1 1 1 1 1 1 1 1 1 1 1 1 1 1 1 1 1 1 1 1 1 1 1 1 1 1 1 1 1 1 1 1 1 1 1 1 1 1 1 1 1 1 1 1 1 1 1 1 1 1 1 1 1 1 1 1 1 1 1 1 1 1 1 1 1 1 1 1 1 1 1 1 1 1 1 1 1 1 1 1 1 1 1 1 1 1 1 1 1 1 1 1 1 1 1 1 1 1 1 1 1 1 1 1 1 1 1 1 1 1 1 1 1 1 1 1 1 1 1 1 1 1 1 1 1 1 1 1 1 1 1 1 1 1 1 1 1 1 1 1 1 1 1 1 1 1 1 1 1 1 1 1 1 1 1 1 1 1 1 1 1 1 1 1 1 1 1 1 1 1 1 1 1 1 1 1 1 1 1 1 1 1 1 1 1 1 1 1 1 1 1 1 1 1 1 1 1 1 1 1 1 1 1 1 1 1 1 1 1 1 1 1 1 1 1 1 1 1 1 1 1 1 1 1 1 1 1 1 1 1 1 1 1 1 1 1 1 1 1 1 1 1 1 1 1 1 1 1 1 1 1 1 1 1 1 1 1 1 1 1 1 1 1 1 1 1 1 1 1 1 1 1 1 1 1 1 1 1 1 1 1 1 1 1 1 1 1 1 1 1 1 1 1 1 1 1 1 1 1 1 1 1 1 1 1 1 1 1 1 1 1 1 1 1 1 1 1 }
                      2.3022385001e+00 stress_1
                     -2.3889587781e+02 stress_2
                     -4.7790285739e+02 stress_3
                     -4.8285267696e+02 stress_4
                     -1.7153496271e+02 stress_5
                      2.1164858490e+02 stress_6
                      3.5637973379e+02 stress_7
                      3.5732039571e+02 stress_8
                      1.2080937829e+02 stress_9
                     -2.2273642122e+02 stress_10
                     -4.1050600024e+02 stress_11
                     -4.6775811709e+02 stress_12
                     -4.8661930698e+02 stress_13
                     -4.8800207886e+02 stress_14
                     -1.7253772304e+02 stress_15
                     -3.3134978491e+02 stress_16
                     -4.6887184499e+02 stress_17
                     -2.8357238226e+02 stress_18
                      3.9969455109e+01 stress_19
                      3.0935547368e+02 stress_20
                      4.2279684612e+02 stress_21
                      4.6445638210e+02 stress_22
                      4.8195966321e+02 stress_23
                      4.8785705519e+02 stress_24
                      1.7170920491e+02 stress_25
                      2.9335973260e+02 stress_26
                      4.1958141387e+02 stress_27
                      4.4526842516e+02 stress_28
                      3.2842325821e+02 stress_29
                      1.2359858672e+02 stress_30
                     -1.2680449912e+02 stress_31
                     -3.2412907360e+02 stress_32
                     -4.2603323788e+02 stress_33
                     -4.7308919100e+02 stress_34
                     -4.9869139691e+02 stress_35
                     -5.1603334997e+02 stress_36
                     -5.2956753727e+02 stress_37
                     -5.4071277563e+02 stress_38
                     -5.4983411466e+02 stress_39
                     -5.5692343584e+02 stress_40
                     -5.6186968166e+02 stress_41
                     -5.6455424496e+02 stress_42
                     -5.4985226987e+02 stress_43
                     -1.7636674316e+02 stress_44
                      9.9019187533e+01 stress_45
                     -9.6562302395e+01 stress_46
                     -4.0360091561e+02 stress_47
                     -1.1972869998e+02 stress_48
                     -2.1757451240e+02 stress_49
                     -3.7025232856e+02 stress_50
                     -5.5754460395e+02 stress_51
                     -3.9569199951e+02 stress_52
                     -6.4051214240e+01 stress_53
                      2.3519156144e+02 stress_54
                      3.6770636728e+02 stress_55
                      4.1378714139e+02 stress_56
                      4.2731214689e+02 stress_57
                      3.4520683967e+02 stress_58
                      4.3498459526e+01 stress_59
                     -2.9694714367e+02 stress_60
                     -4.6349791374e+02 stress_61
                     -5.1758739221e+02 stress_62
                     -5.2950209936e+02 stress_63
                     -2.7281445423e+02 stress_64
                      1.0907137993e+02 stress_65
                      2.0135356315e+02 stress_66
                     -5.6480614640e+01 stress_67
                     -4.0130536655e+02 stress_68
                     -5.0486118979e+02 stress_69
                     -5.0621458800e+02 stress_70
                     -4.1549438967e+02 stress_71
                     -2.5041538358e+02 stress_72
                     -2.9765025878e+01 stress_73
                      1.8615556036e+02 stress_74
                      3.2959505509e+02 stress_75
                      4.0308996419e+02 stress_76
                      4.4080811501e+02 stress_77
                      4.6372748578e+02 stress_78
                      4.8052697064e+02 stress_79
                      4.9448287667e+02 stress_80
                      5.0678450323e+02 stress_81
                      5.1780467973e+02 stress_82
                      5.2758607557e+02 stress_83
                      5.3604136334e+02 stress_84
                      5.4303659663e+02 stress_85
                      5.4843785903e+02 stress_86
                      5.5213137973e+02 stress_87
                      5.5403219916e+02 stress_88
                      4.8393400492e+02 stress_89
                      5.9897424856e+01 stress_90
                     -1.5331438883e+02 stress_91
                      1.2050035094e+02 stress_92
                      4.2324476118e+02 stress_93
                      4.2945706223e+02 stress_94
                      3.7222086672e+02 stress_95
                      2.6909541344e+02 stress_96
                      1.2369125454e+02 stress_97
                     -4.9557255455e+01 stress_98
                     -2.1598094053e+02 stress_99
                     -3.3874502103e+02 stress_100
                     -4.1244951312e+02 stress_101
                     -4.5414290984e+02 stress_102
                     -4.7954908220e+02 stress_103
                     -4.9736376004e+02 stress_104
                     -5.1170137876e+02 stress_105
                     -5.2444192434e+02 stress_106
                     -5.3643661801e+02 stress_107
                     -5.4805930764e+02 stress_108
                     -5.5945461329e+02 stress_109
                     -5.7065315989e+02 stress_110
                     -5.8162631561e+02 stress_111
                     -5.9231347594e+02 stress_112
                     -6.0263932541e+02 stress_113
                     -6.1252109112e+02 stress_114
                     -6.2187322085e+02 stress_115
                     -6.3061164616e+02 stress_116
                     -6.3865481891e+02 stress_117
                     -6.4592819795e+02 stress_118
                     -6.5236282498e+02 stress_119
                     -6.5789576957e+02 stress_120
                     -6.6247518241e+02 stress_121
                     -6.6605631644e+02 stress_122
                     -6.6860403974e+02 stress_123
                     -6.7009461742e+02 stress_124
                     -6.7049506520e+02 stress_125
                     -5.7293670437e+02 stress_126
                     -3.3070111613e+02 stress_127
                     -1.5756290758e+01 stress_128
                      2.1931990239e+02 stress_129
                      3.2995404452e+02 stress_130
                      3.7734136147e+02 stress_131
                      3.9957643565e+02 stress_132
                      4.0962970989e+02 stress_133
                      4.1019194417e+02 stress_134
                      2.1888729181e+01 stress_135
                      3.9562991062e-01 stress_136
                      1.7886648393e+02 stress_137
                      1.4451262456e+02 stress_138
                     -1.9974243485e+01 stress_139
                     -3.0566676719e+02 stress_140
                     -5.3083387374e+02 stress_141
                     -6.2149102774e+02 stress_142
                     -6.5548301263e+02 stress_143
                     -6.7089233731e+02 stress_144
                     -6.7732339332e+02 stress_145
                     -6.5793130457e+02 stress_146
                     -4.3035559086e+02 stress_147
                     -7.7131867935e+01 stress_148
                      1.9318338702e+02 stress_149
                      3.0902658665e+02 stress_150
                      3.4898419235e+02 stress_151
                      3.5377793637e+02 stress_152
                      1.4787370129e+02 stress_153
                     -2.0953715558e+02 stress_154
                     -4.8136892193e+02 stress_155
                     -5.8807970602e+02 stress_156
                     -6.1842439529e+02 stress_157
                     -5.0165563922e+02 stress_158
                     -1.0238987464e+02 stress_159
                      9.0755624183e+01 stress_160
                     -6.7639565563e+01 stress_161
                     -4.3383279238e+02 stress_162
                     -5.9409094839e+02 stress_163
                     -6.0793898200e+02 stress_164
                     -5.6823873349e+02 stress_165
                     -4.8991252096e+02 stress_166
                     -3.7411829240e+02 stress_167
                     -2.2530094318e+02 stress_168
                     -5.7515773828e+01 stress_169
                      1.0197624918e+02 stress_170
                      2.2582551677e+02 stress_171
                      3.0717513899e+02 stress_172
                      3.5682962083e+02 stress_173
                      3.8789162480e+02 stress_174
                      4.0914903531e+02 stress_175
                      4.2542296586e+02 stress_176
                      4.3919152356e+02 stress_177
                      4.5171138325e+02 stress_178
                      4.6361648498e+02 stress_179
                      4.7522187082e+02 stress_180
                      4.8667463937e+02 stress_181
                      4.9802923557e+02 stress_182
                      5.0928950778e+02 stress_183
                      5.2042922497e+02 stress_184
                      5.3140559427e+02 stress_185
                      5.4216560883e+02 stress_186
                      5.5265087782e+02 stress_187
                      5.6280078953e+02 stress_188
                      5.7255349146e+02 stress_189
                      5.8184838731e+02 stress_190
                      5.9062669760e+02 stress_191
                      5.9883101588e+02 stress_192
                      6.0640927859e+02 stress_193
                      6.1331171323e+02 stress_194
                      6.1949208259e+02 stress_195
                      6.2491085674e+02 stress_196
                      6.2953109759e+02 stress_197
                      6.3332312844e+02 stress_198
                      6.3626187834e+02 stress_199
                      6.3832693365e+02 stress_200
                      6.3950533335e+02 stress_201
                      6.3956305595e+02 stress_202
                      2.9156286163e+02 stress_203
                     -6.2757292403e+01 stress_204
                      4.0768176158e+01 stress_205
                      4.3558856207e+02 stress_206
                      4.5149000481e+02 stress_207
                      3.8985454535e+02 stress_208
                      2.7806835219e+02 stress_209
                      1.2085291864e+02 stress_210
                     -6.2519096016e+01 stress_211
                     -2.2960844209e+02 stress_212
                     -3.4433651025e+02 stress_213
                     -4.0962788275e+02 stress_214
                     -4.4615585064e+02 stress_215
                     -4.6902037964e+02 stress_216
                     -4.8576208820e+02 stress_217
                     -4.9976684304e+02 stress_218
                     -5.1252258801e+02 stress_219
                     -5.2467243090e+02 stress_220
                     -5.3647452898e+02 stress_221
                     -5.4800322642e+02 stress_222
                     -5.5924253336e+02 stress_223
                     -5.7013032522e+02 stress_224
                     -5.8058236576e+02 stress_225
                     -5.9050389195e+02 stress_226
                     -5.9979710140e+02 stress_227
                     -6.0836731027e+02 stress_228
                     -6.1612213556e+02 stress_229
                     -6.2297898530e+02 stress_230
                     -6.2886314479e+02 stress_231
                     -6.3370821917e+02 stress_232
                     -6.3746237822e+02 stress_233
                     -6.4008356001e+02 stress_234
                     -6.4154145748e+02 stress_235
                     -6.3536981377e+02 stress_236
                     -2.8474815902e+02 stress_237
                      1.7192059088e+01 stress_238
                     -1.9375704425e+02 stress_239
                     -4.4921614633e+02 stress_240
                     -1.3031892939e+02 stress_241
                      4.9990023089e+01 stress_242
                     -2.7191637646e+02 stress_243
                     -3.9923238425e+02 stress_244
                     -5.1334921129e+02 stress_245
                     -3.3694330825e+02 stress_246
                     -3.0123951760e+00 stress_247
                      2.7869855516e+02 stress_248
                      3.9773529233e+02 stress_249
                      4.3886779292e+02 stress_250
                      4.5030436489e+02 stress_251
                      3.5004819730e+02 stress_252
                      3.8332373982e+01 stress_253
                     -3.1040765438e+02 stress_254
                     -4.9419286164e+02 stress_255
                     -5.5773494819e+02 stress_256
                     -5.7007901820e+02 stress_257
                     -3.0463805622e+02 stress_258
                      8.3946969418e+01 stress_259
                      2.1308433684e+02 stress_260
                      8.1338077003e+00 stress_261
                     -3.6231863126e+02 stress_262
                     -5.3070852175e+02 stress_263
                     -5.5334588637e+02 stress_264
                     -5.1337694456e+02 stress_265
                     -4.2365029933e+02 stress_266
                     -2.8618960863e+02 stress_267
                     -1.0948457680e+02 stress_268
                      8.0920226681e+01 stress_269
                      2.4337040770e+02 stress_270
                      3.5262720150e+02 stress_271
                      4.1662543831e+02 stress_272
                      4.5408402174e+02 stress_273
                      4.7827339418e+02 stress_274
                      4.9612637901e+02 stress_275
                      5.1094219971e+02 stress_276
                      5.2425952843e+02 stress_277
                      5.3678557109e+02 stress_278
                      5.4882914684e+02 stress_279
                      5.6050164865e+02 stress_280
                      5.7181340656e+02 stress_281
                      5.8272211125e+02 stress_282
                      5.9315783256e+02 stress_283
                      6.0303817160e+02 stress_284
                      6.1227473789e+02 stress_285
                      6.2078053435e+02 stress_286
                      6.2847187539e+02 stress_287
                      6.3527009175e+02 stress_288
                      6.4110615665e+02 stress_289
                      6.4591934685e+02 stress_290
                      6.4965863225e+02 stress_291
                      6.5228555244e+02 stress_292
                      6.5377170362e+02 stress_293
                      6.5379365011e+02 stress_294
                      2.9416214589e+02 stress_295
                     -5.2622089453e+01 stress_296
                      7.1488193231e+01 stress_297
                      4.4993356074e+02 stress_298
                      4.6243196112e+02 stress_299
                      4.2106099598e+02 stress_300
                      3.4646613206e+02 stress_301
                      2.3964827945e+02 stress_302
                      1.0481219083e+02 stress_303
                     -4.5644759819e+01 stress_304
                     -1.8805310191e+02 stress_305
                     -2.9913710139e+02 stress_306
                     -3.7290450001e+02 stress_307
                     -4.1843140144e+02 stress_308
                     -4.4711631012e+02 stress_309
                     -4.6678736575e+02 stress_310
                     -4.8183853953e+02 stress_311
                     -4.9457244102e+02 stress_312
                     -5.0617571668e+02 stress_313
                     -5.1726229572e+02 stress_314
                     -5.2814759364e+02 stress_315
                     -5.3898790999e+02 stress_316
                     -5.4985297530e+02 stress_317
                     -5.6076293334e+02 stress_318
                     -5.7170923933e+02 stress_319
                     -5.8266654921e+02 stress_320
                     -5.9359855680e+02 stress_321
                     -6.0446311180e+02 stress_322
                     -6.1521362671e+02 stress_323
                     -6.2580174697e+02 stress_324
                     -6.3617857683e+02 stress_325
                     -6.4629389768e+02 stress_326
                     -6.5609942304e+02 stress_327
                     -6.6554589114e+02 stress_328
                     -6.7458755618e+02 stress_329
                     -6.8317949715e+02 stress_330
                     -6.9127821508e+02 stress_331
                     -6.9884383266e+02 stress_332
                     -7.0583776494e+02 stress_333
                     -7.1222521917e+02 stress_334
                     -7.1797470107e+02 stress_335
                     -7.2305551774e+02 stress_336
                     -7.2744363897e+02 stress_337
                     -7.3111621347e+02 stress_338
                     -7.3405453625e+02 stress_339
                     -7.3624436161e+02 stress_340
                     -7.3767433930e+02 stress_341
                     -7.3833698395e+02 stress_342


Active response data for evaluation 67:
Active set vector = { 1 1 1 1 1 1 1 1 1 1 1 1 1 1 1 1 1 1 1 1 1 1 1 1 1 1 1 1 1 1 1 1 1 1 1 1 1 1 1 1 1 1 1 1 1 1 1 1 1 1 1 1 1 1 1 1 1 1 1 1 1 1 1 1 1 1 1 1 1 1 1 1 1 1 1 1 1 1 1 1 1 1 1 1 1 1 1 1 1 1 1 1 1 1 1 1 1 1 1 1 1 1 1 1 1 1 1 1 1 1 1 1 1 1 1 1 1 1 1 1 1 1 1 1 1 1 1 1 1 1 1 1 1 1 1 1 1 1 1 1 1 1 1 1 1 1 1 1 1 1 1 1 1 1 1 1 1 1 1 1 1 1 1 1 1 1 1 1 1 1 1 1 1 1 1 1 1 1 1 1 1 1 1 1 1 1 1 1 1 1 1 1 1 1 1 1 1 1 1 1 1 1 1 1 1 1 1 1 1 1 1 1 1 1 1 1 1 1 1 1 1 1 1 1 1 1 1 1 1 1 1 1 1 1 1 1 1 1 1 1 1 1 1 1 1 1 1 1 1 1 1 1 1 1 1 1 1 1 1 1 1 1 1 1 1 1 1 1 1 1 1 1 1 1 1 1 1 1 1 1 1 1 1 1 1 1 1 1 1 1 1 1 1 1 1 1 1 1 1 1 1 1 1 1 1 1 1 1 1 1 1 1 1 1 1 1 1 1 1 1 1 1 1 1 1 1 1 1 1 1 1 1 1 1 1 1 1 1 1 1 1 1 }
                      2.3022385001e+00 stress_1
                     -2.3890184310e+02 stress_2
                     -4.7796495601e+02 stress_3
                     -4.8289218526e+02 stress_4
                     -1.7152056953e+02 stress_5
                      2.1229249246e+02 stress_6
                      3.5720802017e+02 stress_7
                      3.5814836459e+02 stress_8
                      1.2160428510e+02 stress_9
                     -2.2262517110e+02 stress_10
                     -4.1092325469e+02 stress_11
                     -4.6809082980e+02 stress_12
                     -4.8687233663e+02 stress_13
                     -4.8824859522e+02 stress_14
                     -1.7271622548e+02 stress_15
                     -3.3155170888e+02 stress_16
                     -4.6924528562e+02 stress_17
                     -2.8393512341e+02 stress_18
                      3.9956572795e+01 stress_19
                      3.1000974340e+02 stress_20
                      4.2340672118e+02 stress_21
                      4.6487944252e+02 stress_22
                      4.8227903923e+02 stress_23
                      4.8814127722e+02 stress_24
                      1.7192530247e+02 stress_25
                      2.9358172975e+02 stress_26
                      4.1996253193e+02 stress_27
                      4.4569861876e+02 stress_28
                      3.2885142232e+02 stress_29
                      1.2394582673e+02 stress_30
                     -1.2691192413e+02 stress_31
                     -3.2474707173e+02 stress_32
                     -4.2663999469e+02 stress_33
                     -4.7350506644e+02 stress_34
                     -4.9895943721e+02 stress_35
                     -5.1621109783e+02 stress_36
                     -5.2969199866e+02 stress_37
                     -5.4080536279e+02 stress_38
                     -5.4990728841e+02 stress_39
                     -5.5698478196e+02 stress_40
                     -5.6192413814e+02 stress_41
                     -5.6460536264e+02 stress_42
                     -5.4990338703e+02 stress_43
                     -1.7629382672e+02 stress_44
                      9.9602138764e+01 stress_45
                     -9.5996644194e+01 stress_46
                     -4.0367299031e+02 stress_47
                     -1.1973565958e+02 stress_48
                     -2.1758147202e+02 stress_49
                     -3.7025953761e+02 stress_50
                     -5.5757002779e+02 stress_51
                     -3.9571185603e+02 stress_52
                     -6.3802505223e+01 stress_53
                      2.3606845433e+02 stress_54
                      3.6853996627e+02 stress_55
                      4.1442512581e+02 stress_56
                      4.2786919604e+02 stress_57
                      3.4576345699e+02 stress_58
                      4.3924350872e+01 stress_59
                     -2.9730724993e+02 stress_60
                     -4.6415776381e+02 stress_61
                     -5.1815126149e+02 stress_62
                     -5.3002171122e+02 stress_63
                     -2.7330041268e+02 stress_64
                      1.0923502368e+02 stress_65
                      2.0178596470e+02 stress_66
                     -5.6100685028e+01 stress_67
                     -4.0165139931e+02 stress_68
                     -5.0535481666e+02 stress_69
                     -5.0670734357e+02 stress_70
                     -4.1598638448e+02 stress_71
                     -2.5087232626e+02 stress_72
                     -2.9956284914e+01 stress_73
                      1.8653469310e+02 stress_74
                      3.3025998323e+02 stress_75
                      4.0365214245e+02 stress_76
                      4.4119468886e+02 stress_77
                      4.6398333292e+02 stress_78
                      4.8069954616e+02 stress_79
                      4.9460375888e+02 stress_80
                      5.0687289259e+02 stress_81
                      5.1787217650e+02 stress_82
                      5.2763984100e+02 stress_83
                      5.3608596549e+02 stress_84
                      5.4307507226e+02 stress_85
                      5.4847232747e+02 stress_86
                      5.5216341478e+02 stress_87
                      5.5406306862e+02 stress_88
                      4.8396465412e+02 stress_89
                      5.9667661276e+01 stress_90
                     -1.5399940880e+02 stress_91
                      1.1988229120e+02 stress_92
                      4.2343865908e+02 stress_93
                      4.2967277301e+02 stress_94
                      3.7243642945e+02 stress_95
                      2.6930385693e+02 stress_96
                      1.2383320222e+02 stress_97
                     -4.9665134544e+01 stress_98
                     -2.1649492024e+02 stress_99
                     -3.3948443327e+02 stress_100
                     -4.1312491543e+02 stress_101
                     -4.5464770344e+02 stress_102
                     -4.7990009223e+02 stress_103
                     -4.9760442721e+02 stress_104
                     -5.1186813409e+02 stress_105
                     -5.2455983317e+02 stress_106
                     -5.3652198540e+02 stress_107
                     -5.4812263575e+02 stress_108
                     -5.5950272258e+02 stress_109
                     -5.7069054953e+02 stress_110
                     -5.8165600950e+02 stress_111
                     -5.9233754684e+02 stress_112
                     -6.0265922129e+02 stress_113
                     -6.1253784285e+02 stress_114
                     -6.2188757618e+02 stress_115
                     -6.3062415729e+02 stress_116
                     -6.3866590126e+02 stress_117
                     -6.4593816962e+02 stress_118
                     -6.5237193452e+02 stress_119
                     -6.5790421558e+02 stress_120
                     -6.6248312721e+02 stress_121
                     -6.6606389660e+02 stress_122
                     -6.6861137398e+02 stress_123
                     -6.7010181271e+02 stress_124
                     -6.7050222376e+02 stress_125
                     -5.7294315817e+02 stress_126
                     -3.3063971150e+02 stress_127
                     -1.5208777261e+01 stress_128
                      2.2031521349e+02 stress_129
                      3.3080874296e+02 stress_130
                      3.7796018336e+02 stress_131
                      4.0004737984e+02 stress_132
                      4.1003121798e+02 stress_133
                      4.1058960339e+02 stress_134
                      2.2174390613e+01 stress_135
                      6.5854233321e-01 stress_136
                      1.7919019305e+02 stress_137
                      1.4483630912e+02 stress_138
                     -1.9669991385e+01 stress_139
                     -3.0574301380e+02 stress_140
                     -5.3144667529e+02 stress_141
                     -6.2199794659e+02 stress_142
                     -6.5581613957e+02 stress_143
                     -6.7113310569e+02 stress_144
                     -6.7752798725e+02 stress_145
                     -6.5813589717e+02 stress_146
                     -4.3053799216e+02 stress_147
                     -7.6890154084e+01 stress_148
                      1.9404734095e+02 stress_149
                      3.0988667819e+02 stress_150
                      3.4972014467e+02 stress_151
                      3.5449316258e+02 stress_152
                      1.4857629429e+02 stress_153
                     -2.0925581063e+02 stress_154
                     -4.8187495330e+02 stress_155
                     -5.8870605397e+02 stress_156
                     -6.1900460127e+02 stress_157
                     -5.0223419457e+02 stress_158
                     -1.0263304262e+02 stress_159
                      9.1025230337e+01 stress_160
                     -6.7377889932e+01 stress_161
                     -4.3407798152e+02 stress_162
                     -5.9464353972e+02 stress_163
                     -6.0848623998e+02 stress_164
                     -5.6878596422e+02 stress_165
                     -4.9045799001e+02 stress_166
                     -3.7464295080e+02 stress_167
                     -2.2571915075e+02 stress_168
                     -5.7639144965e+01 stress_169
                      1.0229434984e+02 stress_170
                      2.2646213513e+02 stress_171
                      3.0786476328e+02 stress_172
                      3.5741307372e+02 stress_173
                      3.8833548335e+02 stress_174
                      4.0947358365e+02 stress_175
                      4.2565836275e+02 stress_176
                      4.3936339421e+02 stress_177
                      4.5183855161e+02 stress_178
                      4.6371210828e+02 stress_179
                      4.7529501209e+02 stress_180
                      4.8673154773e+02 stress_181
                      4.9807425747e+02 stress_182
                      5.0932570148e+02 stress_183
                      5.2045877152e+02 stress_184
                      5.3143007038e+02 stress_185
                      5.4218617021e+02 stress_186
                      5.5266838310e+02 stress_187
                      5.6281588494e+02 stress_188
                      5.7256666974e+02 stress_189
                      5.8186002882e+02 stress_190
                      5.9063709958e+02 stress_191
                      5.9884041365e+02 stress_192
                      6.0641786059e+02 stress_193
                      6.1331963252e+02 stress_194
                      6.1949946530e+02 stress_195
                      6.2491780827e+02 stress_196
                      6.2953770766e+02 stress_197
                      6.3332947484e+02 stress_198
                      6.3626802999e+02 stress_199
                      6.3833295320e+02 stress_200
                      6.3951127922e+02 stress_201
                      6.3956899824e+02 stress_202
                      2.9149867649e+02 stress_203
                     -6.3392096972e+01 stress_204
                      4.0134270876e+01 stress_205
                      4.3553929364e+02 stress_206
                      4.5150262081e+02 stress_207
                      3.8986696731e+02 stress_208
                      2.7807151476e+02 stress_209
                      1.2077252812e+02 stress_210
                     -6.2885400913e+01 stress_211
                     -2.3034942396e+02 stress_212
                     -3.4517579397e+02 stress_213
                     -4.1030738414e+02 stress_214
                     -4.4663257075e+02 stress_215
                     -4.6934113568e+02 stress_216
                     -4.8597839184e+02 stress_217
                     -4.9991561327e+02 stress_218
                     -5.1262759846e+02 stress_219
                     -5.2474861929e+02 stress_220
                     -5.3653132502e+02 stress_221
                     -5.4804668105e+02 stress_222
                     -5.5927660999e+02 stress_223
                     -5.7015767767e+02 stress_224
                     -5.8060481004e+02 stress_225
                     -5.9052269781e+02 stress_226
                     -5.9981317554e+02 stress_227
                     -6.0838131343e+02 stress_228
                     -6.1613455999e+02 stress_229
                     -6.2299020543e+02 stress_230
                     -6.2887345252e+02 stress_231
                     -6.3371784851e+02 stress_232
                     -6.3747152232e+02 stress_233
                     -6.4009238450e+02 stress_234
                     -6.4155011064e+02 stress_235
                     -6.3537846692e+02 stress_236
                     -2.8468292285e+02 stress_237
                      1.7711220264e+01 stress_238
                     -1.9328503952e+02 stress_239
                     -4.4930180038e+02 stress_240
                     -1.3032363958e+02 stress_241
                      5.0250705163e+01 stress_242
                     -2.7182273629e+02 stress_243
                     -3.9942790304e+02 stress_244
                     -5.1383040972e+02 stress_245
                     -3.3741592455e+02 stress_246
                     -3.1430737983e+00 stress_247
                      2.7930924884e+02 stress_248
                      3.9839683048e+02 stress_249
                      4.3939717552e+02 stress_250
                      4.5077861707e+02 stress_251
                      3.5052167011e+02 stress_252
                      3.8668534428e+01 stress_253
                     -3.1083370070e+02 stress_254
                     -4.9498019143e+02 stress_255
                     -5.5845399269e+02 stress_256
                     -5.7076240096e+02 stress_257
                     -3.0528851450e+02 stress_258
                      8.3937542430e+01 stress_259
                      2.1346983462e+02 stress_260
                      8.4980858597e+00 stress_261
                     -3.6257184481e+02 stress_262
                     -5.3132483861e+02 stress_263
                     -5.5395897660e+02 stress_264
                     -5.1399000792e+02 stress_265
                     -4.2426093056e+02 stress_266
                     -2.8676731300e+02 stress_267
                     -1.0989033341e+02 stress_268
                      8.0941435366e+01 stress_269
                      2.4386991219e+02 stress_270
                      3.5331132593e+02 stress_271
                      4.1723416946e+02 stress_272
                      4.5454377780e+02 stress_273
                      4.7860188230e+02 stress_274
                      4.9635897100e+02 stress_275
                      5.1110868357e+02 stress_276
                      5.2438098145e+02 stress_277
                      5.3687615080e+02 stress_278
                      5.4889826001e+02 stress_279
                      5.6055558345e+02 stress_280
                      5.7185642321e+02 stress_281
                      5.8275714419e+02 stress_282
                      5.9318693958e+02 stress_283
                      6.0306282195e+02 stress_284
                      6.1229600047e+02 stress_285
                      6.2079920114e+02 stress_286
                      6.2848854472e+02 stress_287
                      6.3528522529e+02 stress_288
                      6.4112011840e+02 stress_289
                      6.4593243141e+02 stress_290
                      6.4967108534e+02 stress_291
                      6.5229758599e+02 stress_292
                      6.5378350814e+02 stress_293
                      6.5380545129e+02 stress_294
                      2.9409784299e+02 stress_295
                     -5.3248124382e+01 stress_296
                      7.0864734026e+01 stress_297
                      4.4991253061e+02 stress_298
                      4.6245692048e+02 stress_299
                      4.2108591498e+02 stress_300
                      3.4648902863e+02 stress_301
                      2.3965052361e+02 stress_302
                      1.0471922899e+02 stress_303
                     -4.5978775768e+01 stress_304
                     -1.8871187947e+02 stress_305
                     -2.9998082947e+02 stress_306
                     -3.7370593636e+02 stress_307
                     -4.1907356897e+02 stress_308
                     -4.4759127425e+02 stress_309
                     -4.6712848872e+02 stress_310
                     -4.8208259678e+02 stress_311
                     -4.9474850938e+02 stress_312
                     -5.0630450558e+02 stress_313
                     -5.1735802330e+02 stress_314
                     -5.2821993931e+02 stress_315
                     -5.3904349066e+02 stress_316
                     -5.4989635894e+02 stress_317
                     -5.6079731375e+02 stress_318
                     -5.7173688019e+02 stress_319
                     -5.8268907718e+02 stress_320
                     -5.9361715702e+02 stress_321
                     -6.0447865903e+02 stress_322
                     -6.1522677493e+02 stress_323
                     -6.2581299101e+02 stress_324
                     -6.3618829535e+02 stress_325
                     -6.4630238379e+02 stress_326
                     -6.5610690593e+02 stress_327
                     -6.6555255199e+02 stress_328
                     -6.7459353950e+02 stress_329
                     -6.8318491941e+02 stress_330
                     -6.9128317111e+02 stress_331
                     -6.9884840037e+02 stress_332
                     -7.0584200906e+02 stress_333
                     -7.1222919401e+02 stress_334
                     -7.1797845274e+02 stress_335
                     -7.2305908593e+02 stress_336
                     -7.2744705824e+02 stress_337
                     -7.3111951443e+02 stress_338
                     -7.3405774648e+02 stress_339
                     -7.3624750637e+02 stress_340
                     -7.3767744226e+02 stress_341
                     -7.3834006780e+02 stress_342


Active response data for evaluation 68:
Active set vector = { 1 1 1 1 1 1 1 1 1 1 1 1 1 1 1 1 1 1 1 1 1 1 1 1 1 1 1 1 1 1 1 1 1 1 1 1 1 1 1 1 1 1 1 1 1 1 1 1 1 1 1 1 1 1 1 1 1 1 1 1 1 1 1 1 1 1 1 1 1 1 1 1 1 1 1 1 1 1 1 1 1 1 1 1 1 1 1 1 1 1 1 1 1 1 1 1 1 1 1 1 1 1 1 1 1 1 1 1 1 1 1 1 1 1 1 1 1 1 1 1 1 1 1 1 1 1 1 1 1 1 1 1 1 1 1 1 1 1 1 1 1 1 1 1 1 1 1 1 1 1 1 1 1 1 1 1 1 1 1 1 1 1 1 1 1 1 1 1 1 1 1 1 1 1 1 1 1 1 1 1 1 1 1 1 1 1 1 1 1 1 1 1 1 1 1 1 1 1 1 1 1 1 1 1 1 1 1 1 1 1 1 1 1 1 1 1 1 1 1 1 1 1 1 1 1 1 1 1 1 1 1 1 1 1 1 1 1 1 1 1 1 1 1 1 1 1 1 1 1 1 1 1 1 1 1 1 1 1 1 1 1 1 1 1 1 1 1 1 1 1 1 1 1 1 1 1 1 1 1 1 1 1 1 1 1 1 1 1 1 1 1 1 1 1 1 1 1 1 1 1 1 1 1 1 1 1 1 1 1 1 1 1 1 1 1 1 1 1 1 1 1 1 1 1 1 1 1 1 1 1 1 1 1 1 1 1 1 1 1 1 1 1 }
                      2.3022385001e+00 stress_1
                     -2.3889923185e+02 stress_2
                     -4.7794476018e+02 stress_3
                     -4.8288247310e+02 stress_4
                     -1.7151187043e+02 stress_5
                      2.1228798064e+02 stress_6
                      3.5719761773e+02 stress_7
                      3.5813794578e+02 stress_8
                      1.2159433861e+02 stress_9
                     -2.2262669642e+02 stress_10
                     -4.1092219655e+02 stress_11
                     -4.6809378420e+02 stress_12
                     -4.8687735852e+02 stress_13
                     -4.8825377319e+02 stress_14
                     -1.7272165493e+02 stress_15
                     -3.3155411694e+02 stress_16
                     -4.6922099413e+02 stress_17
                     -2.8391090338e+02 stress_18
                      3.9977561188e+01 stress_19
                      3.1001948789e+02 stress_20
                      4.2340963815e+02 stress_21
                      4.6488039856e+02 stress_22
                      4.8227946196e+02 stress_23
                      4.8814157029e+02 stress_24
                      1.7192566144e+02 stress_25
                      2.9358154188e+02 stress_26
                      4.1994543730e+02 stress_27
                      4.4567472023e+02 stress_28
                      3.2882753150e+02 stress_29
                      1.2392227183e+02 stress_30
                     -1.2693329367e+02 stress_31
                     -3.2476501744e+02 stress_32
                     -4.2665648882e+02 stress_33
                     -4.7352146285e+02 stress_34
                     -4.9897600889e+02 stress_35
                     -5.1622782751e+02 stress_36
                     -5.2970883632e+02 stress_37
                     -5.4082227015e+02 stress_38
                     -5.4992424018e+02 stress_39
                     -5.5700176156e+02 stress_40
                     -5.6194113423e+02 stress_41
                     -5.6462236680e+02 stress_42
                     -5.4992039119e+02 stress_43
                     -1.7631067369e+02 stress_44
                      9.9587271546e+01 stress_45
                     -9.6010793512e+01 stress_46
                     -4.0366639922e+02 stress_47
                     -1.1972921922e+02 stress_48
                     -2.1757503172e+02 stress_49
                     -3.7025444952e+02 stress_50
                     -5.5770085302e+02 stress_51
                     -3.9584262372e+02 stress_52
                     -6.3926877158e+01 stress_53
                      2.3598502567e+02 stress_54
                      3.6849775857e+02 stress_55
                      4.1440024004e+02 stress_56
                      4.2784926290e+02 stress_57
                      3.4574352561e+02 stress_58
                      4.3904829724e+01 stress_59
                     -2.9732604825e+02 stress_60
                     -4.6417963564e+02 stress_61
                     -5.1817560538e+02 stress_62
                     -5.3004671999e+02 stress_63
                     -2.7332536971e+02 stress_64
                      1.0921342368e+02 stress_65
                      2.0176723422e+02 stress_66
                     -5.6118701779e+01 stress_67
                     -4.0166321576e+02 stress_68
                     -5.0536987771e+02 stress_69
                     -5.0672251027e+02 stress_70
                     -4.1600155127e+02 stress_71
                     -2.5088747197e+02 stress_72
                     -2.9970946588e+01 stress_73
                      1.8652260755e+02 stress_74
                      3.3025233724e+02 stress_75
                      4.0364799082e+02 stress_76
                      4.4119245829e+02 stress_77
                      4.6398207029e+02 stress_78
                      4.8069878122e+02 stress_79
                      4.9460326316e+02 stress_80
                      5.0687255061e+02 stress_81
                      5.1787192670e+02 stress_82
                      5.2763964869e+02 stress_83
                      5.3608581007e+02 stress_84
                      5.4307494078e+02 stress_85
                      5.4847221132e+02 stress_86
                      5.5216330780e+02 stress_87
                      5.5406296600e+02 stress_88
                      4.8396455122e+02 stress_89
                      5.9666133884e+01 stress_90
                     -1.5400627068e+02 stress_91
                      1.1987291954e+02 stress_92
                      4.2340627494e+02 stress_93
                      4.2964008775e+02 stress_94
                      3.7240374430e+02 stress_95
                      2.6927117607e+02 stress_96
                      1.2380055015e+02 stress_97
                     -4.9697752620e+01 stress_98
                     -2.1652774432e+02 stress_99
                     -3.3951791250e+02 stress_100
                     -4.1315919343e+02 stress_101
                     -4.5468259991e+02 stress_102
                     -4.7993538427e+02 stress_103
                     -4.9763995777e+02 stress_104
                     -5.1190380819e+02 stress_105
                     -5.2459559542e+02 stress_106
                     -5.3655780332e+02 stress_107
                     -5.4815848986e+02 stress_108
                     -5.5953860087e+02 stress_109
                     -5.7072644443e+02 stress_110
                     -5.8169191606e+02 stress_111
                     -5.9237346178e+02 stress_112
                     -6.0269514235e+02 stress_113
                     -6.1257376847e+02 stress_114
                     -6.2192350523e+02 stress_115
                     -6.3066008896e+02 stress_116
                     -6.3870183494e+02 stress_117
                     -6.4597410485e+02 stress_118
                     -6.5240787096e+02 stress_119
                     -6.5794015293e+02 stress_120
                     -6.6251906525e+02 stress_121
                     -6.6609983515e+02 stress_122
                     -6.6864731287e+02 stress_123
                     -6.7013775179e+02 stress_124
                     -6.7053816289e+02 stress_125
                     -5.7297909603e+02 stress_126
                     -3.3067538655e+02 stress_127
                     -1.5240381062e+01 stress_128
                      2.2029510817e+02 stress_129
                      3.3079821806e+02 stress_130
                      3.7795427951e+02 stress_131
                      4.0004346213e+02 stress_132
                      4.1002808912e+02 stress_133
                      4.1058651595e+02 stress_134
                      2.2170906852e+01 stress_135
                      6.5494071076e-01 stress_136
                      1.7918663748e+02 stress_137
                      1.4483275354e+02 stress_138
                     -1.9673610393e+01 stress_139
                     -3.0575050300e+02 stress_140
                     -5.3147244529e+02 stress_141
                     -6.2203882274e+02 stress_142
                     -6.5586312527e+02 stress_143
                     -6.7118236281e+02 stress_144
                     -6.7757801503e+02 stress_145
                     -6.5818592495e+02 stress_146
                     -4.3058792422e+02 stress_147
                     -7.6936048405e+01 stress_148
                      1.9401706105e+02 stress_149
                      3.0986943196e+02 stress_150
                      3.4970822177e+02 stress_151
                      3.5448188713e+02 stress_152
                      1.4856503938e+02 stress_153
                     -2.0926822875e+02 stress_154
                     -4.8189815335e+02 stress_155
                     -5.8874037777e+02 stress_156
                     -6.1904310504e+02 stress_157
                     -5.0227269467e+02 stress_158
                     -1.0266947760e+02 stress_159
                      9.0994707395e+01 stress_160
                     -6.7408285835e+01 stress_161
                     -4.3410344119e+02 stress_162
                     -5.9467371121e+02 stress_163
                     -6.0851787813e+02 stress_164
                     -5.6881760233e+02 stress_165
                     -4.9048962493e+02 stress_166
                     -3.7467452849e+02 stress_167
                     -2.2575029131e+02 stress_168
                     -5.7668429303e+01 stress_169
                      1.0226966989e+02 stress_170
                      2.2644419874e+02 stress_171
                      3.0785318311e+02 stress_172
                      3.5740599901e+02 stress_173
                      3.8833118705e+02 stress_174
                      4.0947092310e+02 stress_175
                      4.2565666537e+02 stress_176
                      4.3936227565e+02 stress_177
                      4.5183779070e+02 stress_178
                      4.6371157497e+02 stress_179
                      4.7529462783e+02 stress_180
                      4.8673126374e+02 stress_181
                      4.9807404260e+02 stress_182
                      5.0932553537e+02 stress_183
                      5.2045864050e+02 stress_184
                      5.3142996510e+02 stress_185
                      5.4218608413e+02 stress_186
                      5.5266831155e+02 stress_187
                      5.6281582455e+02 stress_188
                      5.7256661801e+02 stress_189
                      5.8185998390e+02 stress_190
                      5.9063706004e+02 stress_191
                      5.9884037840e+02 stress_192
                      6.0641782877e+02 stress_193
                      6.1331960346e+02 stress_194
                      6.1949943844e+02 stress_195
                      6.2491778316e+02 stress_196
                      6.2953768394e+02 stress_197
                      6.3332945217e+02 stress_198
                      6.3626800810e+02 stress_199
                      6.3833293183e+02 stress_200
                      6.3951125815e+02 stress_201
                      6.3956897718e+02 stress_202
                      2.9149816679e+02 stress_203
                     -6.3401517120e+01 stress_204
                      4.0124809892e+01 stress_205
                      4.3550753626e+02 stress_206
                      4.5146890009e+02 stress_207
                      3.8983324629e+02 stress_208
                      2.7803776973e+02 stress_209
                      1.2073842800e+02 stress_210
                     -6.2921598210e+01 stress_211
                     -2.3039128933e+02 stress_212
                     -3.4522505013e+02 stress_213
                     -4.1036227368e+02 stress_214
                     -4.4669072522e+02 stress_215
                     -4.6940102378e+02 stress_216
                     -4.8603920099e+02 stress_217
                     -4.9997692841e+02 stress_218
                     -5.1268920364e+02 stress_219
                     -5.2481039798e+02 stress_220
                     -5.3659321171e+02 stress_221
                     -5.4810863742e+02 stress_222
                     -5.5933861279e+02 stress_223
                     -5.7021971228e+02 stress_224
                     -5.8066686698e+02 stress_225
                     -5.9058477078e+02 stress_226
                     -5.9987526020e+02 stress_227
                     -6.0844340674e+02 stress_228
                     -6.1619665976e+02 stress_229
                     -6.2305231006e+02 stress_230
                     -6.2893556077e+02 stress_231
                     -6.3377995942e+02 stress_232
                     -6.3753363511e+02 stress_233
                     -6.4015449854e+02 stress_234
                     -6.4161222533e+02 stress_235
                     -6.3544058161e+02 stress_236
                     -2.8474453528e+02 stress_237
                      1.7655818257e+01 stress_238
                     -1.9334041826e+02 stress_239
                     -4.4935786129e+02 stress_240
                     -1.3037906460e+02 stress_241
                      5.0198865509e+01 stress_242
                     -2.7187469311e+02 stress_243
                     -3.9948062474e+02 stress_244
                     -5.1388530077e+02 stress_245
                     -3.3747077724e+02 stress_246
                     -3.1945320086e+00 stress_247
                      2.7927610663e+02 stress_248
                      3.9838014773e+02 stress_249
                      4.3938713983e+02 stress_250
                      4.5077036926e+02 stress_251
                      3.5051342071e+02 stress_252
                      3.8659492428e+01 stress_253
                     -3.1085344246e+02 stress_254
                     -4.9501750145e+02 stress_255
                     -5.5850016644e+02 stress_256
                     -5.7081041725e+02 stress_257
                     -3.0533638890e+02 stress_258
                      8.3896045805e+01 stress_259
                      2.1343575395e+02 stress_260
                      8.4639670938e+00 stress_261
                     -3.6261039991e+02 stress_262
                     -5.3137314164e+02 stress_263
                     -5.5400927919e+02 stress_264
                     -5.1404031045e+02 stress_265
                     -4.2431122527e+02 stress_266
                     -2.8681744666e+02 stress_267
                     -1.0993918215e+02 stress_268
                      8.0897720344e+01 stress_269
                      2.4383678720e+02 stress_270
                      3.5329014561e+02 stress_271
                      4.1722180430e+02 stress_272
                      4.5453666637e+02 stress_273
                      4.7859768995e+02 stress_274
                      4.9635640020e+02 stress_275
                      5.1110703866e+02 stress_276
                      5.2437988487e+02 stress_277
                      5.3687539131e+02 stress_278
                      5.4889771523e+02 stress_279
                      5.6055517993e+02 stress_280
                      5.7185611537e+02 stress_281
                      5.8275690287e+02 stress_282
                      5.9318674554e+02 stress_283
                      6.0306266218e+02 stress_284
                      6.1229586595e+02 stress_285
                      6.2079908546e+02 stress_286
                      6.2848844321e+02 stress_287
                      6.3528513447e+02 stress_288
                      6.4112003560e+02 stress_289
                      6.4593235455e+02 stress_290
                      6.4967101271e+02 stress_291
                      6.5229751616e+02 stress_292
                      6.5378343982e+02 stress_293
                      6.5380538299e+02 stress_294
                      2.9409724495e+02 stress_295
                     -5.3257289782e+01 stress_296
                      7.0855462096e+01 stress_297
                      4.4988305095e+02 stress_298
                      4.6242623658e+02 stress_299
                      4.2105523102e+02 stress_300
                      3.4645834005e+02 stress_301
                      2.3961976454e+02 stress_302
                      1.0468798354e+02 stress_303
                     -4.6011952198e+01 stress_304
                     -1.8874964818e+02 stress_305
                     -3.0002520492e+02 stress_306
                     -3.7375654195e+02 stress_307
                     -4.1912862796e+02 stress_308
                     -4.4764910538e+02 stress_309
                     -4.6718796310e+02 stress_310
                     -4.8214304271e+02 stress_311
                     -4.9480954020e+02 stress_312
                     -5.0636589773e+02 stress_313
                     -5.1741964501e+02 stress_314
                     -5.2828171092e+02 stress_315
                     -5.3910536272e+02 stress_316
                     -5.4995829995e+02 stress_317
                     -5.6085930315e+02 stress_318
                     -5.7179890423e+02 stress_319
                     -5.8275112648e+02 stress_320
                     -5.9367922505e+02 stress_321
                     -6.0454074117e+02 stress_322
                     -6.1528886786e+02 stress_323
                     -6.2587509228e+02 stress_324
                     -6.3625040315e+02 stress_325
                     -6.4636449677e+02 stress_326
                     -6.5616902303e+02 stress_327
                     -6.6561467242e+02 stress_328
                     -6.7465566263e+02 stress_329
                     -6.8324704474e+02 stress_330
                     -6.9134529826e+02 stress_331
                     -6.9891052901e+02 stress_332
                     -7.0590413892e+02 stress_333
                     -7.1229132489e+02 stress_334
                     -7.1804058445e+02 stress_335
                     -7.2312121832e+02 stress_336
                     -7.2750919118e+02 stress_337
                     -7.3118164781e+02 stress_338
                     -7.3411988018e+02 stress_339
                     -7.3630964032e+02 stress_340
                     -7.3773957636e+02 stress_341
                     -7.3840220197e+02 stress_342


Active response data for evaluation 69:
Active set vector = { 1 1 1 1 1 1 1 1 1 1 1 1 1 1 1 1 1 1 1 1 1 1 1 1 1 1 1 1 1 1 1 1 1 1 1 1 1 1 1 1 1 1 1 1 1 1 1 1 1 1 1 1 1 1 1 1 1 1 1 1 1 1 1 1 1 1 1 1 1 1 1 1 1 1 1 1 1 1 1 1 1 1 1 1 1 1 1 1 1 1 1 1 1 1 1 1 1 1 1 1 1 1 1 1 1 1 1 1 1 1 1 1 1 1 1 1 1 1 1 1 1 1 1 1 1 1 1 1 1 1 1 1 1 1 1 1 1 1 1 1 1 1 1 1 1 1 1 1 1 1 1 1 1 1 1 1 1 1 1 1 1 1 1 1 1 1 1 1 1 1 1 1 1 1 1 1 1 1 1 1 1 1 1 1 1 1 1 1 1 1 1 1 1 1 1 1 1 1 1 1 1 1 1 1 1 1 1 1 1 1 1 1 1 1 1 1 1 1 1 1 1 1 1 1 1 1 1 1 1 1 1 1 1 1 1 1 1 1 1 1 1 1 1 1 1 1 1 1 1 1 1 1 1 1 1 1 1 1 1 1 1 1 1 1 1 1 1 1 1 1 1 1 1 1 1 1 1 1 1 1 1 1 1 1 1 1 1 1 1 1 1 1 1 1 1 1 1 1 1 1 1 1 1 1 1 1 1 1 1 1 1 1 1 1 1 1 1 1 1 1 1 1 1 1 1 1 1 1 1 1 1 1 1 1 1 1 1 1 1 1 1 1 }
                      2.3022385001e+00 stress_1
                     -2.3890003373e+02 stress_2
                     -4.7794607649e+02 stress_3
                     -4.8288018225e+02 stress_4
                     -1.7150944460e+02 stress_5
                      2.1229406104e+02 stress_6
                      3.5720801153e+02 stress_7
                      3.5814837493e+02 stress_8
                      1.2160476715e+02 stress_9
                     -2.2261629310e+02 stress_10
                     -4.1091184732e+02 stress_11
                     -4.6808345769e+02 stress_12
                     -4.8686703852e+02 stress_13
                     -4.8824345360e+02 stress_14
                     -1.7271120207e+02 stress_15
                     -3.3154389393e+02 stress_16
                     -4.6921154013e+02 stress_17
                     -2.8390143254e+02 stress_18
                      3.9988178680e+01 stress_19
                      3.1003572225e+02 stress_20
                      4.2343062985e+02 stress_21
                      4.6490327729e+02 stress_22
                      4.8230301147e+02 stress_23
                      4.8816531246e+02 stress_24
                      1.7194934330e+02 stress_25
                      2.9360516296e+02 stress_26
                      4.1996758311e+02 stress_27
                      4.4569655850e+02 stress_28
                      3.2884936897e+02 stress_29
                      1.2394405431e+02 stress_30
                     -1.2691207598e+02 stress_31
                     -3.2474528985e+02 stress_32
                     -4.2663808637e+02 stress_33
                     -4.7350372756e+02 stress_34
                     -4.9895856603e+02 stress_35
                     -5.1621051737e+02 stress_36
                     -5.2969159114e+02 stress_37
                     -5.4080505916e+02 stress_38
                     -5.4990704822e+02 stress_39
                     -5.5698458047e+02 stress_40
                     -5.6192395922e+02 stress_41
                     -5.6460519466e+02 stress_42
                     -5.4990321906e+02 stress_43
                     -1.7629291873e+02 stress_44
                      9.9609890222e+01 stress_45
                     -9.5988099101e+01 stress_46
                     -4.0364015717e+02 stress_47
                     -1.1970274552e+02 stress_48
                     -2.1754855801e+02 stress_49
                     -3.7022782530e+02 stress_50
                     -5.5765926269e+02 stress_51
                     -3.9580102984e+02 stress_52
                     -6.3884912940e+01 stress_53
                      2.3602928470e+02 stress_54
                      3.6854428066e+02 stress_55
                      4.1444770070e+02 stress_56
                      4.2789699016e+02 stress_57
                      3.4579125234e+02 stress_58
                      4.3952216703e+01 stress_59
                     -2.9728315817e+02 stress_60
                     -4.6414310047e+02 stress_61
                     -5.1814181718e+02 stress_62
                     -5.3001354167e+02 stress_63
                     -2.7329213290e+02 stress_64
                      1.0924922600e+02 stress_65
                      2.0180499770e+02 stress_66
                     -5.6081018067e+01 stress_67
                     -4.0162821186e+02 stress_68
                     -5.0533729557e+02 stress_69
                     -5.0668996573e+02 stress_70
                     -4.1596900584e+02 stress_71
                     -2.5085485967e+02 stress_72
                     -2.9937491700e+01 stress_73
                      1.8655945553e+02 stress_74
                      3.3029412394e+02 stress_75
                      4.0369323636e+02 stress_76
                      4.4123945019e+02 stress_77
                      4.6402988741e+02 stress_78
                      4.8074700197e+02 stress_79
                      4.9465169372e+02 stress_80
                      5.0692109719e+02 stress_81
                      5.1792054103e+02 stress_82
                      5.2768830440e+02 stress_83
                      5.3613449187e+02 stress_84
                      5.4312363928e+02 stress_85
                      5.4852092042e+02 stress_86
                      5.5221202319e+02 stress_87
                      5.5411168436e+02 stress_88
                      4.8401326941e+02 stress_89
                      5.9714255413e+01 stress_90
                     -1.5396020538e+02 stress_91
                      1.1991934409e+02 stress_92
                      4.2345916538e+02 stress_93
                      4.2969323781e+02 stress_94
                      3.7245689418e+02 stress_95
                      2.6932431355e+02 stress_96
                      1.2385351404e+02 stress_97
                     -4.9645814454e+01 stress_98
                     -2.1647877494e+02 stress_99
                     -3.3947327100e+02 stress_100
                     -4.1311819940e+02 stress_101
                     -4.5464384983e+02 stress_102
                     -4.7989785665e+02 stress_103
                     -4.9760308401e+02 stress_104
                     -5.1186729262e+02 stress_105
                     -5.2455928371e+02 stress_106
                     -5.3652161244e+02 stress_107
                     -5.4812237344e+02 stress_108
                     -5.5950253201e+02 stress_109
                     -5.7069040694e+02 stress_110
                     -5.8165589987e+02 stress_111
                     -5.9233746042e+02 stress_112
                     -6.0265915155e+02 stress_113
                     -6.1253778535e+02 stress_114
                     -6.2188752778e+02 stress_115
                     -6.3062411576e+02 stress_116
                     -6.3866586496e+02 stress_117
                     -6.4593813733e+02 stress_118
                     -6.5237190530e+02 stress_119
                     -6.5790418870e+02 stress_120
                     -6.6248310208e+02 stress_121
                     -6.6606387274e+02 stress_122
                     -6.6861135097e+02 stress_123
                     -6.7010179018e+02 stress_124
                     -6.7050220136e+02 stress_125
                     -5.7294313217e+02 stress_126
                     -3.3063899916e+02 stress_127
                     -1.5197866861e+01 stress_128
                      2.2035420839e+02 stress_129
                      3.3087073683e+02 stress_130
                      3.7803313986e+02 stress_131
                      4.0012501209e+02 stress_132
                      4.1011069908e+02 stress_133
                      4.1066918141e+02 stress_134
                      2.2253142076e+01 stress_135
                      7.3706705347e-01 stress_136
                      1.7926887964e+02 stress_137
                      1.4491499566e+02 stress_138
                     -1.9591439751e+01 stress_139
                     -3.0567123985e+02 stress_140
                     -5.3140461523e+02 stress_141
                     -6.2197943101e+02 stress_142
                     -6.5580690639e+02 stress_143
                     -6.7112727301e+02 stress_144
                     -6.7752329953e+02 stress_145
                     -6.5813120944e+02 stress_146
                     -4.3053313988e+02 stress_147
                     -7.6878537926e+01 stress_148
                      1.9408475685e+02 stress_149
                      3.0994544489e+02 stress_150
                      3.4978758839e+02 stress_151
                      3.5456165966e+02 stress_152
                      1.4864478027e+02 stress_153
                     -2.0919061530e+02 stress_154
                     -4.8182945994e+02 stress_155
                     -5.8867847288e+02 stress_156
                     -6.1898343189e+02 stress_157
                     -5.0221301834e+02 stress_158
                     -1.0260823252e+02 stress_159
                      9.1060270495e+01 stress_160
                     -6.7342739659e+01 stress_161
                     -4.3404040727e+02 stress_162
                     -5.9461554584e+02 stress_163
                     -6.0846029786e+02 stress_164
                     -5.6876002203e+02 stress_165
                     -4.9043204084e+02 stress_166
                     -3.7461688191e+02 stress_167
                     -2.2569219306e+02 stress_168
                     -5.7608490650e+01 stress_169
                      1.0233402991e+02 stress_170
                      2.2651487047e+02 stress_171
                      3.0792968010e+02 stress_172
                      3.5748655309e+02 stress_173
                      3.8841420602e+02 stress_174
                      4.0955537477e+02 stress_175
                      4.2574195128e+02 stress_176
                      4.3944805796e+02 stress_177
                      4.5192387707e+02 stress_178
                      4.6379785331e+02 stress_179
                      4.7538103098e+02 stress_180
                      4.8681775031e+02 stress_181
                      4.9816058635e+02 stress_182
                      5.0941211922e+02 stress_183
                      5.2054525308e+02 stress_184
                      5.3151659864e+02 stress_185
                      5.4227273325e+02 stress_186
                      5.5275497243e+02 stress_187
                      5.6290249441e+02 stress_188
                      5.7265329484e+02 stress_189
                      5.8194666616e+02 stress_190
                      5.9072374661e+02 stress_191
                      5.9892706838e+02 stress_192
                      6.0650452149e+02 stress_193
                      6.1340629836e+02 stress_194
                      6.1958613509e+02 stress_195
                      6.2500448120e+02 stress_196
                      6.2962438307e+02 stress_197
                      6.3341615214e+02 stress_198
                      6.3635470868e+02 stress_199
                      6.3841963283e+02 stress_200
                      6.3959795937e+02 stress_201
                      6.3965567842e+02 stress_202
                      2.9158466263e+02 stress_203
                     -6.3318643541e+01 stress_204
                      4.0207693001e+01 stress_205
                      4.3559816344e+02 stress_206
                      4.5156047104e+02 stress_207
                      3.8992481686e+02 stress_208
                      2.7812931120e+02 stress_209
                      1.2082956354e+02 stress_210
                     -6.2832765384e+01 stress_211
                     -2.3030849682e+02 stress_212
                     -3.4514995306e+02 stress_213
                     -4.1029293343e+02 stress_214
                     -4.4662467059e+02 stress_215
                     -4.6933669154e+02 stress_216
                     -4.8597577397e+02 stress_217
                     -4.9991399405e+02 stress_218
                     -5.1262654938e+02 stress_219
                     -5.2474791008e+02 stress_220
                     -5.3653082671e+02 stress_221
                     -5.4804631844e+02 stress_222
                     -5.5927633756e+02 stress_223
                     -5.7015746689e+02 stress_224
                     -5.8060464247e+02 stress_225
                     -5.9052256119e+02 stress_226
                     -5.9981306147e+02 stress_227
                     -6.0838121602e+02 stress_228
                     -6.1613447501e+02 stress_229
                     -6.2299012978e+02 stress_230
                     -6.2887338382e+02 stress_231
                     -6.3371778492e+02 stress_232
                     -6.3747146235e+02 stress_233
                     -6.4009232690e+02 stress_234
                     -6.4155005430e+02 stress_235
                     -6.3537841058e+02 stress_236
                     -2.8468202200e+02 stress_237
                      1.7722398529e+01 stress_238
                     -1.9327387595e+02 stress_239
                     -4.4929232208e+02 stress_240
                     -1.3031309173e+02 stress_241
                      5.0267214392e+01 stress_242
                     -2.7180659694e+02 stress_243
                     -3.9941329026e+02 stress_244
                     -5.1381953076e+02 stress_245
                     -3.3740497951e+02 stress_246
                     -3.1264294363e+00 stress_247
                      2.7935624564e+02 stress_248
                      3.9847087835e+02 stress_249
                      4.3948209201e+02 stress_250
                      4.5086644977e+02 stress_251
                      3.5060949954e+02 stress_252
                      3.8754954628e+01 stress_253
                     -3.1076532420e+02 stress_254
                     -4.9494063347e+02 stress_255
                     -5.5842874617e+02 stress_256
                     -5.7074010988e+02 stress_257
                     -3.0526597878e+02 stress_258
                      8.3970765407e+01 stress_259
                      2.1351535425e+02 stress_260
                      8.5435217165e+00 stress_261
                     -3.6253420170e+02 stress_262
                     -5.3130325369e+02 stress_263
                     -5.5394060187e+02 stress_264
                     -5.1397163309e+02 stress_265
                     -4.2424254201e+02 stress_266
                     -2.8674864802e+02 stress_267
                     -1.0986949560e+02 stress_268
                      8.0970860085e+01 stress_269
                      2.4391690340e+02 stress_270
                      3.5337800040e+02 stress_271
                      4.1731529235e+02 stress_272
                      4.5463347361e+02 stress_273
                      4.7869632367e+02 stress_274
                      4.9645604015e+02 stress_275
                      5.1120724905e+02 stress_276
                      5.2448043093e+02 stress_277
                      5.3697614258e+02 stress_278
                      5.4899859657e+02 stress_279
                      5.6065614646e+02 stress_280
                      5.7195713937e+02 stress_281
                      5.8285796667e+02 stress_282
                      5.9328783755e+02 stress_283
                      6.0316377459e+02 stress_284
                      6.1239699334e+02 stress_285
                      6.2090022400e+02 stress_286
                      6.2858959013e+02 stress_287
                      6.3538628770e+02 stress_288
                      6.4122119357e+02 stress_289
                      6.4603351601e+02 stress_290
                      6.4977217666e+02 stress_291
                      6.5239868174e+02 stress_292
                      6.5388460630e+02 stress_293
                      6.5390654948e+02 stress_294
                      2.9419805729e+02 stress_295
                     -5.3162019577e+01 stress_296
                      7.0950738917e+01 stress_297
                      4.4998052031e+02 stress_298
                      4.6252391578e+02 stress_299
                      4.2115291014e+02 stress_300
                      3.4655601294e+02 stress_301
                      2.3971734751e+02 stress_302
                      1.0478496955e+02 stress_303
                     -4.5917267856e+01 stress_304
                     -1.8866031294e+02 stress_305
                     -2.9994342280e+02 stress_306
                     -3.7368177278e+02 stress_307
                     -4.1905880658e+02 stress_308
                     -4.4758232962e+02 stress_309
                     -4.6712297531e+02 stress_310
                     -4.8207910305e+02 stress_311
                     -4.9474622678e+02 stress_312
                     -5.0630296856e+02 stress_313
                     -5.1735695846e+02 stress_314
                     -5.2821918191e+02 stress_315
                     -5.3904293875e+02 stress_316
                     -5.4989594773e+02 stress_317
                     -5.6079700105e+02 stress_318
                     -5.7173663788e+02 stress_319
                     -5.8268888610e+02 stress_320
                     -5.9361700387e+02 stress_321
                     -6.0447853441e+02 stress_322
                     -6.1522667207e+02 stress_323
                     -6.2581290497e+02 stress_324
                     -6.3618822245e+02 stress_325
                     -6.4630232129e+02 stress_326
                     -6.5610685172e+02 stress_327
                     -6.6555250445e+02 stress_328
                     -6.7459349737e+02 stress_329
                     -6.8318488170e+02 stress_330
                     -6.9128313702e+02 stress_331
                     -6.9884836926e+02 stress_332
                     -7.0584198041e+02 stress_333
                     -7.1222916738e+02 stress_334
                     -7.1797842778e+02 stress_335
                     -7.2305906233e+02 stress_336
                     -7.2744703574e+02 stress_337
                     -7.3111949279e+02 stress_338
                     -7.3405772550e+02 stress_339
                     -7.3624748587e+02 stress_340
                     -7.3767742206e+02 stress_341
                     -7.3834004774e+02 stress_342

>>>>> Total response returned to iterator:

Active set vector = { 2 2 2 2 2 2 2 2 2 2 2 2 2 2 2 2 2 2 2 2 2 2 2 2 2 2 2 2 2 2 2 2 2 2 2 2 2 2 2 2 2 2 2 2 2 2 2 2 2 2 2 2 2 2 2 2 2 2 2 2 2 2 2 2 2 2 2 2 2 2 2 2 2 2 2 2 2 2 2 2 2 2 2 2 2 2 2 2 2 2 2 2 2 2 2 2 2 2 2 2 2 2 2 2 2 2 2 2 2 2 2 2 2 2 2 2 2 2 2 2 2 2 2 2 2 2 2 2 2 2 2 2 2 2 2 2 2 2 2 2 2 2 2 2 2 2 2 2 2 2 2 2 2 2 2 2 2 2 2 2 2 2 2 2 2 2 2 2 2 2 2 2 2 2 2 2 2 2 2 2 2 2 2 2 2 2 2 2 2 2 2 2 2 2 2 2 2 2 2 2 2 2 2 2 2 2 2 2 2 2 2 2 2 2 2 2 2 2 2 2 2 2 2 2 2 2 2 2 2 2 2 2 2 2 2 2 2 2 2 2 2 2 2 2 2 2 2 2 2 2 2 2 2 2 2 2 2 2 2 2 2 2 2 2 2 2 2 2 2 2 2 2 2 2 2 2 2 2 2 2 2 2 2 2 2 2 2 2 2 2 2 2 2 2 2 2 2 2 2 2 2 2 2 2 2 2 2 2 2 2 2 2 2 2 2 2 2 2 2 2 2 2 2 2 2 2 2 2 2 2 2 2 2 2 2 2 2 2 2 2 2 2 } Deriv vars vector = { 1 2 3 4 5 6 7 }
 [  0.0000000000e+00  1.1653236999e-05  0.0000000000e+00  0.0000000000e+00 
    0.0000000000e+00  0.0000000000e+00  0.0000000000e+00 ] stress_1 gradient
 [ -5.0851092390e-03 -1.1970143358e-03 -3.7654478399e-01  4.9385146609e+00 
   -1.8093700000e+02  4.4264898642e+01  0.0000000000e+00 ] stress_2 gradient
 [ -8.9212297915e-01 -2.8893753884e-04 -2.0904286317e+02  5.1357619728e+01 
   -1.8879520000e+03  7.2662154852e+01  0.0000000000e+00 ] stress_3 gradient
 [ -9.4038507345e-01 -1.9939032329e-04 -2.8046840251e+02  3.2684767252e+01 
   -1.2003010000e+03 -1.2645812722e+02  0.0000000000e+00 ] stress_4 gradient
 [ -9.2312063876e-01  1.3353134516e-03 -2.7820478069e+02 -3.0137651955e+01 
   -1.0968630000e+03 -1.2528123337e+02  5.2979006647e+00 ] stress_5 gradient
 [ -4.4427386672e-01  2.1323915044e-03 -1.8969760285e+02 -7.6181010340e+02 
    2.8196900000e+02 -9.3407945006e+01  1.4874356077e+02 ] stress_6 gradient
 [  1.2902880571e-01  1.4970827013e-03 -6.5601501657e-01 -9.7309934676e+02 
    9.3917700000e+02 -5.5790398954e+01  3.1804792489e+02 ] stress_7 gradient
 [  1.3375380040e-01  1.4905716362e-03  1.5610284329e+00 -9.7269597547e+02 
    9.4137200001e+02 -5.5482375139e+01  3.1943527661e+02 ] stress_8 gradient
 [  1.2757494161e-01  3.0805106890e-04  4.5968935444e-01 -9.3402566314e+02 
    8.8939700000e+02 -5.8100577543e+01  3.1780692633e+02 ] stress_9 gradient
 [ -1.1868053448e-01 -8.4514505468e-04 -6.2600026109e+01 -1.3398482646e+02 
   -1.5024500000e+02 -1.6713714292e+02  2.4999956010e+02 ] stress_10 gradient
 [ -6.3175766074e-01 -5.7250770329e-04 -3.5737277727e+02  4.8593928094e+02 
   -8.3208100000e+02 -4.0090955184e+02  1.0462116618e+02 ] stress_11 gradient
 [ -8.4239779357e-01 -3.5917148972e-04 -7.4106886443e+02  3.8813143435e+02 
   -6.0875400000e+02 -4.9912774684e+02  4.3541421985e+01 ] stress_12 gradient
 [ -9.0175577275e-01 -3.1260634440e-04 -1.0121858969e+03  2.9529532752e+02 
   -4.5290700000e+02 -5.2722636347e+02  2.6067162680e+01 ] stress_13 gradient
 [ -9.0556502822e-01 -3.1048341746e-04 -1.0374009028e+03  2.8770195364e+02 
   -4.4058500000e+02 -5.2904028148e+02  2.4939452155e+01 ] stress_14 gradient
 [ -8.8759814001e-01  1.2436036760e-03 -1.0345805170e+03  2.0728605813e+02 
   -4.0645100000e+02 -5.2407988368e+02  3.2502603627e+01 ] stress_15 gradient
 [ -8.8503671740e-01  4.3348754852e-04 -1.0354245868e+03  2.3185764976e+02 
   -6.8082500000e+02 -5.0875321496e+02  3.4122818928e+01 ] stress_16 gradient
 [ -8.9287262915e-01 -2.4496636212e-04 -1.0827290591e+03  4.0504897707e+02 
   -3.2578800000e+03 -4.5747111435e+02  3.9545794792e+01 ] stress_17 gradient
 [ -8.9077570488e-01  6.8799374429e-04 -1.0824117167e+03  3.9243041331e+02 
   -3.2498250000e+03 -4.5696933362e+02  4.0424710751e+01 ] stress_18 gradient
 [ -7.4885499788e-01  1.9876191799e-03 -1.0583666116e+03 -1.8732996330e+01 
   -2.8646737000e+03 -4.2275131059e+02  1.0030244501e+02 ] stress_19 gradient
 [ -5.5510415021e-02  1.6976531090e-03 -8.7340411381e+02 -7.9454603921e+02 
   -1.4366500000e+03 -2.5514142288e+02  3.9360893652e+02 ] stress_20 gradient
 [  5.3091330669e-01  8.7348783257e-04 -4.9961920773e+02 -7.3062239084e+02 
   -4.9673400000e+02 -1.1318329455e+02  6.4202997306e+02 ] stress_21 gradient
 [  7.6325635968e-01  5.3017074652e-04 -1.0595404301e+02 -5.0508667250e+02 
   -1.9863700000e+02 -5.6875658476e+01  7.4056719688e+02 ] stress_22 gradient
 [  8.4577502612e-01  4.2184528782e-04  1.8556823428e+02 -3.8081303504e+02 
   -1.0904800000e+02 -3.6860734859e+01  7.7559367564e+02 ] stress_23 gradient
 [  8.6946548075e-01  3.9514265207e-04  3.0997993667e+02 -3.3876142679e+02 
   -8.5667999997e+01 -3.1112061060e+01  7.8565392463e+02 ] stress_24 gradient
 [  8.5234802336e-01 -1.1644375990e-03  3.0718218716e+02 -2.5806667095e+02 
   -1.0739000000e+02 -3.9465136913e+01  7.7848057391e+02 ] stress_25 gradient
 [  8.5093268008e-01 -5.4527652499e-04  3.0730581574e+02 -2.6443961645e+02 
   -5.3735000000e+01 -4.0033159321e+01  7.7607160526e+02 ] stress_26 gradient
 [  8.2022831751e-01  1.6800683131e-04  3.1866919727e+02 -4.3373054721e+02 
    1.6119760000e+03 -5.3814188831e+01  7.1760420402e+02 ] stress_27 gradient
 [  8.1708604926e-01  3.0593780980e-04  3.3063156796e+02 -4.8402414371e+02 
    2.2871610000e+03 -5.6687421703e+01  7.0541564292e+02 ] stress_28 gradient
 [  8.1677334332e-01 -2.8475819568e-04  3.3058281303e+02 -4.8162490151e+02 
    2.2861160000e+03 -5.6838673537e+01  7.0529565208e+02 ] stress_29 gradient
 [  7.9548848864e-01 -1.2709401883e-03  3.2713775475e+02 -3.8608521481e+02 
    2.2336800000e+03 -6.7240825357e+01  6.9704441754e+02 ] stress_30 gradient
 [  5.7806731218e-01 -2.0202839953e-03  2.8611309176e+02  1.4930067205e+02 
    1.8216340000e+03 -1.7406105452e+02  6.1230885202e+02 ] stress_31 gradient
 [  6.2582125403e-03 -1.6554033147e-03  1.1851279099e+02  7.4588366930e+02 
    9.6871300000e+02 -4.5588517813e+02  3.8875032436e+02 ] stress_32 gradient
 [ -5.0114421952e-01 -9.6113726553e-04 -2.0405331831e+02  7.2540562188e+02 
    3.6955100000e+02 -7.0650174225e+02  1.8994583928e+02 ] stress_33 gradient
 [ -7.5612610444e-01 -5.9102759735e-04 -6.2195577835e+02  4.9574741215e+02 
    1.3120600000e+02 -8.3267723830e+02  8.9855513670e+01 ] stress_34 gradient
 [ -8.6770446824e-01 -4.5425276139e-04 -1.0813687094e+03  3.1909139344e+02 
    4.8544000003e+01 -8.8798296896e+02  4.5983608440e+01 ] stress_35 gradient
 [ -9.1827323015e-01 -4.2122193966e-04 -1.5485402043e+03  2.1144354521e+02 
    1.8872999999e+01 -9.1308359756e+02  2.6072247034e+01 ] stress_36 gradient
 [ -9.4299155015e-01 -4.3063472467e-04 -1.9986979693e+03  1.4798666438e+02 
    7.4180000070e+00 -9.2536756511e+02  1.6327567179e+01 ] stress_37 gradient
 [ -9.5599033400e-01 -4.5595475749e-04 -2.4110802393e+03  1.1005388755e+02 
    2.6749999961e+00 -9.3183330509e+02  1.1198467185e+01 ] stress_38 gradient
 [ -9.6322000945e-01 -4.8482238289e-04 -2.7677151629e+03  8.6960064369e+01 
    5.9600000668e-01 -9.3543243637e+02  8.3434308948e+00 ] stress_39 gradient
 [ -9.6735234347e-01 -5.1081339445e-04 -3.0532166415e+03  7.2893950848e+01 
   -3.4999999343e-01 -9.3749089657e+02  6.7110131339e+00 ] stress_40 gradient
 [ -9.6965841714e-01 -5.3032755794e-04 -3.2556353637e+03  6.4701788362e+01 
   -7.8299999586e-01 -9.3864018972e+02  5.7992183272e+00 ] stress_41 gradient
 [ -9.7074792432e-01 -5.4130653368e-04 -3.3664026502e+03  6.0732172841e+01 
   -9.5899999906e-01 -9.3918281949e+02  5.3687427110e+00 ] stress_42 gradient
 [ -9.7074788189e-01 -4.6688969646e-04 -3.3664026502e+03  6.0731554921e+01 
   -9.5899999906e-01 -9.3918281949e+02  5.3684037574e+00 ] stress_43 gradient
 [ -9.3422371448e-01  1.3367228815e-03 -3.3603452853e+03 -8.6471170526e+01 
    1.4815000000e+01 -9.2179824258e+02  3.5798623209e+01 ] stress_44 gradient
 [ -6.2994867326e-01  2.0050923451e-03 -3.2996167956e+03 -6.9177941373e+02 
    7.9645400000e+01 -7.7672587207e+02  2.8973761141e+02 ] stress_45 gradient
 [ -6.3456491450e-01  1.0260735264e-03 -3.3000443589e+03 -6.7227898288e+02 
   -8.6331999995e+00 -7.8582781011e+02  2.8671577428e+02 ] stress_46 gradient
 [ -8.3826094142e-01 -4.5099176218e-05 -3.3515737508e+03  5.1720588530e+01 
   -2.8550150000e+03 -1.2121708550e+03  1.4517501961e+02 ] stress_47 gradient
 [ -8.1924720318e-01  1.3465632788e-03 -3.3487638125e+03 -2.5207479219e+01 
   -2.8172510000e+03 -1.1996451053e+03  1.6071823989e+02 ] stress_48 gradient
 [ -8.1924756379e-01  8.5129830838e-04 -3.3487638125e+03 -2.5207407920e+01 
   -2.8172470000e+03 -1.1996462093e+03  1.6071790093e+02 ] stress_49 gradient
 [ -8.2684944457e-01  9.7805730857e-05 -3.3488073437e+03 -2.3732645893e+01 
   -2.7180840000e+03 -1.2195507302e+03  1.5359742753e+02 ] stress_50 gradient
 [ -1.6013704723e+00  9.9256479429e-04 -3.3885038701e+03  1.1689169930e+02 
    7.2944310000e+03 -3.1951078181e+03 -5.5218123853e+02 ] stress_51 gradient
 [ -1.6000843095e+00  1.8087599710e-03 -3.3883480285e+03  1.1024156898e+02 
    7.2915330000e+03 -3.1935312661e+03 -5.5109284704e+02 ] stress_52 gradient
 [ -1.4662279050e+00  3.1682038854e-03 -3.3709143532e+03 -2.1295597780e+02 
    6.9499666000e+03 -3.0290260707e+03 -4.3752765174e+02 ] stress_53 gradient
 [ -6.3726314755e-01  2.7051302742e-03 -3.2138576111e+03 -9.8614336058e+02 
    4.7021320000e+03 -2.0097361388e+03  2.6613866709e+02 ] stress_54 gradient
 [  1.8044939538e-01  1.4272455876e-03 -2.8881076307e+03 -9.6204333726e+02 
    2.4008370000e+03 -1.0046284953e+03  9.6002027522e+02 ] stress_55 gradient
 [  5.1962290862e-01  8.5274413192e-04 -2.5854626993e+03 -7.4120365925e+02 
    1.4237540000e+03 -5.8779720367e+02  1.2477837322e+03 ] stress_56 gradient
 [  6.1596187485e-01  6.9178399469e-04 -2.4437369019e+03 -6.4836404691e+02 
    1.1429810000e+03 -4.6939572078e+02  1.3295232553e+03 ] stress_57 gradient
 [  6.1591236626e-01  2.7630819633e-04 -2.4437456081e+03 -6.4785373975e+02 
    1.1427420000e+03 -4.6943049766e+02  1.3294839363e+03 ] stress_58 gradient
 [  5.8466649552e-01 -1.1766355937e-03 -2.4497156930e+03 -4.9348582003e+02 
    1.0607049000e+03 -4.9207074466e+02  1.3040658766e+03 ] stress_59 gradient
 [  1.7552248454e-01 -1.9245510299e-03 -2.5551088367e+03  4.3321223085e+02 
    4.4558600000e+02 -7.9172387164e+02  9.6764206629e+02 ] stress_60 gradient
 [ -3.9911723802e-01 -1.3962200589e-03 -2.8468992661e+03  7.8393723769e+02 
   -1.4149999998e+01 -1.2151666350e+03  4.9222818799e+02 ] stress_61 gradient
 [ -6.4652649337e-01 -1.0791901950e-03 -3.1278495588e+03  6.6887997761e+02 
   -9.8512000000e+01 -1.3981968130e+03  2.8673031555e+02 ] stress_62 gradient
 [ -7.0135290924e-01 -1.0085131937e-03 -3.2276173846e+03  6.1620383464e+02 
   -1.0563800000e+02 -1.4388327716e+03  2.4110600171e+02 ] stress_63 gradient
 [ -6.9495331934e-01  2.7560563258e-04 -3.2264559725e+03  5.7626781938e+02 
   -1.0104200000e+02 -1.4334395948e+03  2.4640017385e+02 ] stress_64 gradient
 [ -4.1522210261e-01  1.5425283002e-03 -3.1650186644e+03 -1.9455692228e+02 
   -8.2200000008e+00 -1.1968877954e+03  4.7861160030e+02 ] stress_65 gradient
 [ -2.0157967890e-01  1.5003411697e-03 -3.1033832895e+03 -5.1344145499e+02 
    3.2393999999e+01 -1.0160667774e+03  6.5611737226e+02 ] stress_66 gradient
 [ -2.1044213877e-01  2.1620431363e-04 -3.1054608154e+03 -4.5207694047e+02 
   -5.0777200000e+01 -1.0225796042e+03  6.4941446020e+02 ] stress_67 gradient
 [ -4.9076052441e-01 -8.6264420664e-04 -3.2148488163e+03  3.9851225891e+02 
   -1.0671790000e+03 -1.2413823319e+03  4.2422727721e+02 ] stress_68 gradient
 [ -7.3547073430e-01 -8.0309788015e-04 -3.4238498895e+03  5.7349871619e+02 
   -1.1009130000e+03 -1.4391104346e+03  2.2072755732e+02 ] stress_69 gradient
 [ -7.3921643888e-01 -8.0100127404e-04 -3.4289456505e+03  5.7252280603e+02 
   -1.0959090000e+03 -1.4421801845e+03  2.1756813748e+02 ] stress_70 gradient
 [ -7.3912041258e-01 -3.4202913688e-04 -3.4289295439e+03  5.7162059476e+02 
   -1.0957570000e+03 -1.4421012465e+03  2.1764677555e+02 ] stress_71 gradient
 [ -7.3193903664e-01  4.7652985297e-04 -3.4276880344e+03  5.3007066656e+02 
   -1.0871050000e+03 -1.4361615758e+03  2.2356056140e+02 ] stress_72 gradient
 [ -6.4165477592e-01  1.3786036325e-03 -3.4108750704e+03  2.1539228097e+02 
   -9.9994570000e+02 -1.3613289571e+03  2.9807070410e+02 ] stress_73 gradient
 [ -2.7850529578e-01  1.6060591957e-03 -3.3232632421e+03 -4.5898333662e+02 
   -7.1166000000e+02 -1.0599855633e+03  5.9811807088e+02 ] stress_74 gradient
 [  2.4980571296e-01  1.0724554028e-03 -3.1031786929e+03 -7.9443048810e+02 
   -3.6108400000e+02 -6.2139277572e+02  1.0348318525e+03 ] stress_75 gradient
 [  6.1967915548e-01  5.6235631524e-04 -2.7629593806e+03 -6.6987225077e+02 
   -1.5409300000e+02 -3.1423728166e+02  1.3406766412e+03 ] stress_76 gradient
 [  8.0634643956e-01  3.0784303309e-04 -2.3489281491e+03 -4.6014449218e+02 
   -6.5264000000e+01 -1.5915722853e+02  1.4950957009e+03 ] stress_77 gradient
 [  8.9450976413e-01  2.1331829516e-04 -1.8948064341e+03 -3.0437357594e+02 
   -2.9308000001e+01 -8.5877370015e+01  1.5680636901e+03 ] stress_78 gradient
 [  9.3761125602e-01  1.9534632995e-04 -1.4222270596e+03 -2.0524106255e+02 
   -1.4147999997e+01 -5.0035652999e+01  1.6037531691e+03 ] stress_79 gradient
 [  9.6000659646e-01  2.1242779055e-04 -9.4760607237e+02 -1.4373230640e+02 
   -7.3180000015e+00 -3.1404076469e+01  1.6223053123e+03 ] stress_80 gradient
 [  9.7238586535e-01  2.4507103804e-04 -4.8520167798e+02 -1.0508170811e+02 
   -4.0300000023e+00 -2.1102391197e+01  1.6325635122e+03 ] stress_81 gradient
 [  9.7961337719e-01  2.8354698187e-04 -4.8075844955e+01 -8.0234880491e+01 
   -2.3479999982e+00 -1.5085438595e+01  1.6385545803e+03 ] stress_82 gradient
 [  9.8402539020e-01  3.2248905750e-04  3.5173287644e+02 -6.3907035819e+01 
   -1.4409999949e+00 -1.1411233414e+01  1.6422132841e+03 ] stress_83 gradient
 [  9.8680716210e-01  3.5862118186e-04  7.0341569202e+02 -5.3012196583e+01 
   -9.3300000117e-01 -9.0944306560e+00  1.6445202266e+03 ] stress_84 gradient
 [  9.8858853804e-01  3.8975902962e-04  9.9743056518e+02 -4.5728495872e+01 
   -6.3800000589e-01 -7.6100650057e+00  1.6459977410e+03 ] stress_85 gradient
 [  9.8971726603e-01  4.1439239243e-04  1.2259005273e+03 -4.0964698196e+01 
   -4.6800000746e-01 -6.6699851645e+00  1.6469342796e+03 ] stress_86 gradient
 [  9.9038785926e-01  4.3147982584e-04  1.3827303413e+03 -3.8071951517e+01 
   -3.7300000031e-01 -6.1113469988e+00  1.6474905084e+03 ] stress_87 gradient
 [  9.9070495606e-01  4.4034073388e-04  1.4636051958e+03 -3.6686360152e+01 
   -3.3000000030e-01 -5.8469322900e+00  1.6477535391e+03 ] stress_88 gradient
 [  9.9067818663e-01  8.5587853805e-05  1.4636008427e+03 -3.6424861004e+01 
   -3.5000000480e-01 -5.8734289642e+00  1.6477315069e+03 ] stress_89 gradient
 [  8.9792497872e-01 -1.8399593386e-03  1.4474312697e+03  2.7272828503e+02 
   -2.5389700000e+01 -9.8329646629e+01  1.5707356896e+03 ] stress_90 gradient
 [  5.7854850429e-01 -2.1574572881e-03  1.3787829331e+03  8.1319358071e+02 
   -6.9124000001e+01 -4.1694279847e+02  1.3053979783e+03 ] stress_91 gradient
 [  5.9341234505e-01 -8.0668748482e-04  1.3810482962e+03  7.3686493137e+02 
    2.0359600000e+02 -4.0494091008e+02  1.3249446217e+03 ] stress_92 gradient
 [  8.3913864770e-01  1.4283611859e-04  1.4798431999e+03 -1.9599504876e+02 
    2.8961720000e+03 -1.8892237544e+02  1.6767540372e+03 ] stress_93 gradient
 [  8.4838892699e-01  1.5229147249e-04  1.4869339952e+03 -2.2137094693e+02 
    2.9419960000e+03 -1.8024913146e+02  1.6908797386e+03 ] stress_94 gradient
 [  8.4837062111e-01 -1.3737778548e-04  1.4869309481e+03 -2.2119552884e+02 
    2.9419530000e+03 -1.8026679591e+02  1.6908627907e+03 ] stress_95 gradient
 [  8.4703978607e-01 -6.5621635094e-04  1.4867254809e+03 -2.1276877051e+02 
    2.9391680000e+03 -1.8156734090e+02  1.6896439007e+03 ] stress_96 gradient
 [  8.2843598915e-01 -1.3479937654e-03  1.4837901728e+03 -1.3417746314e+02 
    2.9033000000e+03 -1.9977773075e+02  1.6725780848e+03 ] stress_97 gradient
 [  7.1862545749e-01 -1.9633510540e-03  1.4649450423e+03  1.6033727886e+02 
    2.7049923000e+03 -3.0736984109e+02  1.5717448668e+03 ] stress_98 gradient
 [  4.0093329544e-01 -2.0482350989e-03  1.3965989428e+03  6.3645143341e+02 
    2.1614780000e+03 -6.1876905318e+02  1.2799050090e+03 ] stress_99 gradient
 [ -6.2185696075e-02 -1.5653156110e-03  1.2431044884e+03  8.9534159020e+02 
    1.4046700000e+03 -1.0727028618e+03  8.5447612865e+02 ] stress_100 gradient
 [ -4.5252150159e-01 -1.0077589500e-03  1.0015438272e+03  8.1199211774e+02 
    7.9153500000e+02 -1.4552551881e+03  4.9594112489e+02 ] stress_101 gradient
 [ -6.9264533659e-01 -6.4622850636e-04  6.9270092520e+02  6.0492514802e+02 
    4.2705000000e+02 -1.6905964208e+03  2.7537253849e+02 ] stress_102 gradient
 [ -8.2343659723e-01 -4.6283036617e-04  3.3627669253e+02  4.1989299292e+02 
    2.3435200000e+02 -1.8188044324e+03  1.5521188056e+02 ] stress_103 gradient
 [ -8.9337679376e-01 -3.8607234157e-04 -5.5075660118e+01  2.8757889243e+02 
    1.3397800000e+02 -1.8873789236e+03  9.0941532465e+01 ] stress_104 gradient
 [ -9.3168066138e-01 -3.6716947941e-04 -4.7306953565e+02  1.9911073398e+02 
    8.0279999997e+01 -1.9249445803e+03  5.5733711613e+01 ] stress_105 gradient
 [ -9.5347438971e-01 -3.7958167506e-04 -9.1154352960e+02  1.4071055696e+02 
    5.0365999994e+01 -1.9463235305e+03  3.5696258139e+01 ] stress_106 gradient
 [ -9.6638925926e-01 -4.0941810954e-04 -1.3651833544e+03  1.0183465540e+02 
    3.2977000001e+01 -1.9589955639e+03  2.3819537642e+01 ] stress_107 gradient
 [ -9.7434637585e-01 -4.4921525788e-04 -1.8290103481e+03  7.5520088653e+01 
    2.2449000005e+01 -1.9668049060e+03  1.6500435337e+01 ] stress_108 gradient
 [ -9.7942730634e-01 -4.9473576988e-04 -2.2981803598e+03  5.7356806587e+01 
    1.5832000008e+01 -1.9717923525e+03  1.1825876923e+01 ] stress_109 gradient
 [ -9.8277810886e-01 -5.4339721760e-04 -2.7679349954e+03  4.4567471029e+01 
    1.1532999997e+01 -1.9750823559e+03  8.7423834878e+00 ] stress_110 gradient
 [ -9.8505259800e-01 -5.9349259387e-04 -3.2335672275e+03  3.5388335233e+01 
    8.6539999984e+00 -1.9773152525e+03  6.6493229252e+00 ] stress_111 gradient
 [ -9.8663642746e-01 -6.4379312078e-04 -3.6903996297e+03  2.8682960456e+01 
    6.6740000079e+00 -1.9788708280e+03  5.1914681137e+00 ] stress_112 gradient
 [ -9.8776460394e-01 -6.9335570267e-04 -4.1339132294e+03  2.3705160320e+01 
    5.2780000033e+00 -1.9799792721e+03  4.1529033227e+00 ] stress_113 gradient
 [ -9.8858418960e-01 -7.4140939226e-04 -4.5597283536e+03  1.9957021719e+01 
    4.2750000034e+00 -1.9807846605e+03  3.3980456897e+00 ] stress_114 gradient
 [ -9.8918970469e-01 -7.8729510580e-04 -4.9636207358e+03  1.7100637277e+01 
    3.5410000010e+00 -1.9813791796e+03  2.8408000931e+00 ] stress_115 gradient
 [ -9.8964330011e-01 -8.3043849236e-04 -5.3416033545e+03  1.4902670755e+01 
    2.9949999998e+00 -1.9818252069e+03  2.4228658947e+00 ] stress_116 gradient
 [ -9.8998663604e-01 -8.7032695375e-04 -5.6899055379e+03  1.3199967409e+01 
    2.5849999929e+00 -1.9821624875e+03  2.1066188489e+00 ] stress_117 gradient
 [ -9.9024828491e-01 -9.0651480741e-04 -6.0051314181e+03  1.1876453276e+01 
    2.2749999971e+00 -1.9824191740e+03  1.8656202981e+00 ] stress_118 gradient
 [ -9.9044797380e-01 -9.3860572237e-04 -6.2841746095e+03  1.0849184427e+01 
    2.0400000039e+00 -1.9826156910e+03  1.6819055093e+00 ] stress_119 gradient
 [ -9.9059953288e-01 -9.6624806243e-04 -6.5242225620e+03  1.0058590963e+01 
    1.8619999992e+00 -1.9827641827e+03  1.5422551537e+00 ] stress_120 gradient
 [ -9.9071271961e-01 -9.8915599348e-04 -6.7229663812e+03  9.4614184575e+00 
    1.7289999960e+00 -1.9828756896e+03  1.4378563415e+00 ] stress_121 gradient
 [ -9.9079434303e-01 -1.0070867565e-03 -6.8784223509e+03  9.0269847883e+00 
    1.6340000002e+00 -1.9829562836e+03  1.3626078503e+00 ] stress_122 gradient
 [ -9.9084900612e-01 -1.0198512463e-03 -6.9890359723e+03  8.7340073514e+00 
    1.5709999957e+00 -1.9830098289e+03  1.3124421870e+00 ] stress_123 gradient
 [ -9.9087978459e-01 -1.0273222626e-03 -7.0537585792e+03  8.5684641077e+00 
    1.5350000012e+00 -1.9830401897e+03  1.2839697847e+00 ] stress_124 gradient
 [ -9.9088788754e-01 -1.0293297322e-03 -7.0711471126e+03  8.5247105923e+00 
    1.5260000055e+00 -1.9830479179e+03  1.2765127286e+00 ] stress_125 gradient
 [ -9.9079563696e-01 -5.3573613456e-04 -7.0711318767e+03  7.6876899188e+00 
    1.5640000015e+00 -1.9829568356e+03  1.4114176800e+00 ] stress_126 gradient
 [ -9.7405793634e-01  6.5064205431e-04 -7.0682736188e+03 -7.2905097180e+01 
    5.2630000027e+00 -1.9664074559e+03  2.5929207108e+01 ] stress_127 gradient
 [ -7.3211430851e-01  1.6682102469e-03 -7.0204746758e+03 -6.5023655240e+02 
    3.1838300000e+01 -1.7269988736e+03  3.8060765780e+02 ] stress_128 gradient
 [ -7.7119133104e-02  1.2954800109e-03 -6.8177220258e+03 -1.1820714244e+03 
    5.5971999998e+01 -1.0789444841e+03  1.3407322301e+03 ] stress_129 gradient
 [  4.5294196401e-01  5.9070906467e-04 -6.4692918607e+03 -1.0150792881e+03 
    4.7635000004e+01 -5.5469402811e+02  2.1174729369e+03 ] stress_130 gradient
 [  7.0347325146e-01  2.3257137624e-04 -6.0961307565e+03 -7.3494323467e+02 
    3.4335999999e+01 -3.0694683276e+02  2.4845513563e+03 ] stress_131 gradient
 [  8.0972511452e-01  9.1381018274e-05 -5.7901361002e+03 -5.5931718227e+02 
    2.6067000005e+01 -2.0187372790e+02  2.6402364210e+03 ] stress_132 gradient
 [  8.5159720670e-01  4.2236482055e-05 -5.6057919630e+03 -4.7685165678e+02 
    2.2197999999e+01 -1.6046384567e+02  2.7015930932e+03 ] stress_133 gradient
 [  8.5378960577e-01  3.9844019675e-05 -5.5944695007e+03 -4.7228055519e+02 
    2.1984000000e+01 -1.5829553468e+02  2.7048057294e+03 ] stress_134 gradient
 [  8.2638964891e-01 -1.8605748366e-03 -5.5994404143e+03 -3.3959739938e+02 
   -1.2077600000e+01 -1.9897548880e+02  2.6652435629e+03 ] stress_135 gradient
 [  8.1947245198e-01 -1.9529174589e-03 -5.6007322284e+03 -3.1264611702e+02 
   -1.8940860000e+01 -2.0927022146e+02  2.6552316038e+03 ] stress_136 gradient
 [  8.2441709641e-01 -1.0610356544e-03 -5.5971649520e+03 -3.8483242880e+02 
   -1.3982999999e+01 -2.0399125361e+02  2.6623987970e+03 ] stress_137 gradient
 [  8.2441416917e-01 -1.2349175484e-03 -5.5971649520e+03 -3.8480331524e+02 
   -1.3988999999e+01 -2.0399511771e+02  2.6623950685e+03 ] stress_138 gradient
 [  8.1986789328e-01 -2.0567003391e-03 -5.5978079076e+03 -3.6178137284e+02 
   -1.9864000000e+01 -2.1073951436e+02  2.6558309594e+03 ] stress_139 gradient
 [  6.3614186494e-01 -3.0646262694e-03 -5.6274696244e+03  8.9061742261e+01 
   -1.2982700000e+02 -4.8508064658e+02  2.3888237485e+03 ] stress_140 gradient
 [ -8.4000042385e-02 -2.4860093492e-03 -5.8218185348e+03  7.2515725354e+02 
   -2.5582400000e+02 -1.5637585079e+03  1.3389425363e+03 ] stress_141 gradient
 [ -6.1447352018e-01 -1.6797171831e-03 -6.1904528306e+03  6.0015052486e+02 
   -1.8727500000e+02 -2.3597991291e+03  5.6412066610e+02 ] stress_142 gradient
 [ -8.1361612067e-01 -1.3767458322e-03 -6.5807012323e+03  3.9444926611e+02 
   -1.1851100001e+02 -2.6590961518e+03  2.7279510812e+02 ] stress_143 gradient
 [ -8.8439915111e-01 -1.2858193545e-03 -6.8865117517e+03  2.8510526212e+02 
   -8.4306999997e+01 -2.7656006290e+03  1.6912641160e+02 ] stress_144 gradient
 [ -9.0784851121e-01 -1.2623895623e-03 -7.0477094852e+03  2.4227459889e+02 
   -7.1201000003e+01 -2.8009074444e+03  1.3475954350e+02 ] stress_145 gradient
 [ -9.0784840515e-01 -1.1642328533e-03 -7.0477094852e+03  2.4227301844e+02 
   -7.1201000003e+01 -2.8009074444e+03  1.3475988246e+02 ] stress_146 gradient
 [ -9.0370947423e-01 -2.2114408587e-05 -7.0469759847e+03  2.1591888102e+02 
   -6.9857000000e+01 -2.7948816596e+03  1.4079298124e+02 ] stress_147 gradient
 [ -7.4000020188e-01  1.3760451869e-03 -7.0146284806e+03 -2.8772181978e+02 
   -4.1337700000e+01 -2.5562497610e+03  3.7972630135e+02 ] stress_148 gradient
 [ -1.2846488716e-01  1.2858222397e-03 -6.8337615277e+03 -1.0264983971e+03 
    1.2229000001e+01 -1.6647422931e+03  1.2723838883e+03 ] stress_149 gradient
 [  3.7100024023e-01  6.8051812188e-04 -6.5429239960e+03 -1.0217267804e+03 
    2.7537000000e+01 -9.3681523144e+02  2.0012733325e+03 ] stress_150 gradient
 [  5.7241531473e-01  4.0207211722e-04 -6.3235241924e+03 -8.7421861216e+02 
    2.6905000004e+01 -6.4330883555e+02  2.2951729313e+03 ] stress_151 gradient
 [  5.9679343817e-01  3.6814421067e-04 -6.2882217042e+03 -8.4959427153e+02 
    2.6511999999e+01 -6.0778563061e+02  2.3307441142e+03 ] stress_152 gradient
 [  5.9482189748e-01 -6.6942277769e-04 -6.2885891074e+03 -8.3466640863e+02 
    1.9419000000e+01 -6.1056722916e+02  2.3279636485e+03 ] stress_153 gradient
 [  4.6475177805e-01 -2.1692827317e-03 -6.3164460211e+03 -3.3673765440e+02 
   -2.0306900000e+02 -7.9759454054e+02  2.1410108011e+03 ] stress_154 gradient
 [ -7.5120547232e-02 -2.2586466125e-03 -6.4949770034e+03  5.9484068759e+02 
   -5.4536700000e+02 -1.5817254596e+03  1.3571740259e+03 ] stress_155 gradient
 [ -4.8337905655e-01 -1.8250032143e-03 -6.7679946076e+03  7.3818703142e+02 
   -5.1396599999e+02 -2.1784382414e+03  7.6066837431e+02 ] stress_156 gradient
 [ -6.1712263282e-01 -1.6594105601e-03 -6.9281058026e+03  6.8410046144e+02 
   -4.5132900000e+02 -2.3746019365e+03  5.6457012332e+02 ] stress_157 gradient
 [ -6.1692979537e-01 -1.0688156873e-03 -6.9280674952e+03  6.8214067946e+02 
   -4.5118800000e+02 -2.3743215134e+03  5.6485010195e+02 ] stress_158 gradient
 [ -5.2227456668e-01  7.2725511186e-04 -6.9078733767e+03  2.8410856845e+02 
   -4.0814200000e+02 -2.2365620035e+03  7.0261348395e+02 ] stress_159 gradient
 [ -2.6186022967e-01  1.0846497581e-03 -6.8389121379e+03 -3.2408818631e+02 
   -3.1245490000e+02 -1.8573886102e+03  1.0818024704e+03 ] stress_160 gradient
 [ -2.6302969089e-01  2.8565748234e-04 -6.8391499053e+03 -3.1484725134e+02 
   -3.2785260000e+02 -1.8588756255e+03  1.0803157364e+03 ] stress_161 gradient
 [ -4.2291807942e-01 -1.1883487081e-03 -6.8910368188e+03  2.7684713664e+02 
   -1.2213310000e+03 -2.0796012387e+03  8.5962726086e+02 ] stress_162 gradient
 [ -7.1878960583e-01 -1.2946483232e-03 -7.0888229518e+03  6.3852719430e+02 
   -1.5250020000e+03 -2.5073309427e+03  4.3196227997e+02 ] stress_163 gradient
 [ -7.5346557980e-01 -1.2819640613e-03 -7.1303312463e+03  6.3282582129e+02 
   -1.4714560000e+03 -2.5587344864e+03  3.8056620334e+02 ] stress_164 gradient
 [ -7.5346311921e-01 -1.0810191891e-03 -7.1303312463e+03  6.3279346365e+02 
   -1.4714540000e+03 -2.5587311744e+03  3.8056925395e+02 ] stress_165 gradient
 [ -7.5323311851e-01 -6.8509744045e-04 -7.1302898917e+03  6.3070340742e+02 
   -1.4711710000e+03 -2.5583988619e+03  3.8090177094e+02 ] stress_166 gradient
 [ -7.4943773563e-01 -1.0796547071e-04 -7.1296060167e+03  6.0602409564e+02 
   -1.4669500000e+03 -2.5529096347e+03  3.8639050450e+02 ] stress_167 gradient
 [ -7.2202989431e-01  5.8021788480e-04 -7.1245233151e+03  4.7986217670e+02 
   -1.4388010000e+03 -2.5132408046e+03  4.2605832387e+02 ] stress_168 gradient
 [ -6.1040164859e-01  1.1638291272e-03 -7.1018859651e+03  1.3077938950e+02 
   -1.3316046000e+03 -2.3516008379e+03  5.8769307007e+02 ] stress_169 gradient
 [ -3.4226922136e-01  1.3322159959e-03 -7.0350305911e+03 -3.9093773160e+02 
   -1.0886100000e+03 -1.9632957530e+03  9.7599227632e+02 ] stress_170 gradient
 [  4.0534214787e-02  1.0464963812e-03 -6.8972487194e+03 -7.6551628283e+02 
   -7.5883800000e+02 -1.4090030390e+03  1.5302886076e+03 ] stress_171 gradient
 [  3.9388591511e-01  6.1566683173e-04 -6.6831527558e+03 -8.2504491315e+02 
   -4.6777200000e+02 -8.9745828927e+02  2.0418475234e+03 ] stress_172 gradient
 [  6.3999997142e-01  2.7992660207e-04 -6.4058743189e+03 -6.9656530563e+02 
   -2.7293700000e+02 -5.4119894185e+02  2.3981220217e+03 ] stress_173 gradient
 [  7.8952181254e-01  8.0307085068e-05 -6.0812056531e+03 -5.2932653595e+02 
   -1.5868700000e+02 -3.2475922052e+02  2.6145732953e+03 ] stress_174 gradient
 [  8.7642188321e-01 -1.9613878945e-05 -5.7205593305e+03 -3.8678487892e+02 
   -9.4365999996e+01 -1.9895743794e+02  2.7403826746e+03 ] stress_175 gradient
 [  9.2701612062e-01 -5.8137503968e-05 -5.3314418690e+03 -2.8041311944e+02 
   -5.7982999999e+01 -1.2570518013e+02  2.8136394553e+03 ] stress_176 gradient
 [  9.5711740746e-01 -6.0418963301e-05 -4.9191244605e+03 -2.0467385919e+02 
   -3.6903000000e+01 -8.2117050647e+01  2.8572300261e+03 ] stress_177 gradient
 [  9.7555216670e-01 -4.1152114400e-05 -4.4877255907e+03 -1.5140403734e+02 
   -2.4303999999e+01 -5.5419445543e+01  2.8839296829e+03 ] stress_178 gradient
 [  9.8718948551e-01 -8.7499556066e-06 -4.0408875141e+03 -1.1382638647e+02 
   -1.6528999998e+01 -3.8563698048e+01  2.9007867012e+03 ] stress_179 gradient
 [  9.9475494545e-01  3.1872958222e-05 -3.5820134992e+03 -8.7051991907e+01 
   -1.1580000000e+01 -2.7604012090e+01  2.9117468815e+03 ] stress_180 gradient
 [  9.9981059135e-01  7.7728757122e-05 -3.1143892799e+03 -6.7723763580e+01 
   -8.3380000035e+00 -2.0279338326e+01  2.9190720850e+03 ] stress_181 gradient
 [  1.0032754079e+00  1.2689586852e-04 -2.6413036377e+03 -5.3573054383e+01 
   -6.1560000006e+00 -1.5259323008e+01  2.9240927187e+03 ] stress_182 gradient
 [  1.0057055288e+00  1.7806366683e-04 -2.1660000815e+03 -4.3064557976e+01 
   -4.6519999955e+00 -1.1737473683e+01  2.9276144837e+03 ] stress_183 gradient
 [  1.0074460506e+00  2.3027351700e-04 -1.6917303909e+03 -3.5153097702e+01 
   -3.5919999959e+00 -9.2153217175e+00  2.9301370030e+03 ] stress_184 gradient
 [  1.0087166438e+00  2.8278291849e-04 -1.2217002029e+03 -2.9118796329e+01 
   -2.8300000054e+00 -7.3738030144e+00  2.9319782184e+03 ] stress_185 gradient
 [  1.0096602979e+00  3.3498122799e-04 -7.5908903536e+02 -2.4460259011e+01 
   -2.2719999947e+00 -6.0059123164e+00  2.9333462496e+03 ] stress_186 gradient
 [  1.0103720634e+00  3.8634506588e-04 -3.0701981582e+02 -2.0823726336e+01 
   -1.8559999944e+00 -4.9741981538e+00  2.9343783742e+03 ] stress_187 gradient
 [  1.0109164246e+00  4.3641310898e-04  1.3147507309e+02 -1.7956326275e+01 
   -1.5419999954e+00 -4.1848181350e+00  2.9351674665e+03 ] stress_188 gradient
 [  1.0113378840e+00  4.8476559063e-04  5.5343202806e+02 -1.5675332645e+01 
   -1.3020000097e+00 -3.5742906560e+00  2.9357786063e+03 ] stress_189 gradient
 [  1.0116676655e+00  5.3102096001e-04  9.5602239242e+02 -1.3846965686e+01 
   -1.1159999985e+00 -3.0956945148e+00  2.9362565359e+03 ] stress_190 gradient
 [  1.0119279992e+00  5.7482823893e-04  1.3365507150e+03 -1.2372298723e+01 
   -9.7099999721e-01 -2.7186689485e+00  2.9366341342e+03 ] stress_191 gradient
 [  1.0121349426e+00  6.1585836640e-04  1.6924203603e+03 -1.1177620987e+01 
   -8.5600000830e-01 -2.4183733390e+00  2.9369341113e+03 ] stress_192 gradient
 [  1.0123002894e+00  6.5381968735e-04  2.0212928329e+03 -1.0207153279e+01 
   -7.6499999295e-01 -2.1787992549e+00  2.9371740930e+03 ] stress_193 gradient
 [  1.0124326517e+00  6.8843932560e-04  2.3209480422e+03 -9.4187938351e+00 
   -6.9299999268e-01 -1.9866983810e+00  2.9373659428e+03 ] stress_194 gradient
 [  1.0125384779e+00  7.1946794191e-04  2.5893347986e+03 -8.7804820931e+00 
   -6.3500000351e-01 -1.8332384991e+00  2.9375194903e+03 ] stress_195 gradient
 [  1.0126225831e+00  7.4669375481e-04  2.8247014069e+03 -8.2675725368e+00 
   -5.9000000192e-01 -1.7117954168e+00  2.9376411760e+03 ] stress_196 gradient
 [  1.0126886158e+00  7.6992123088e-04  3.0254189302e+03 -7.8613849583e+00 
   -5.5399999610e-01 -1.6151929655e+00  2.9377374398e+03 ] stress_197 gradient
 [  1.0127392062e+00  7.8899355871e-04  3.1901779503e+03 -7.5477428381e+00 
   -5.2699999742e-01 -1.5423271161e+00  2.9378106546e+03 ] stress_198 gradient
 [  1.0127763695e+00  8.0377918476e-04  3.3178758222e+03 -7.3160821149e+00 
   -5.0700000429e-01 -1.4882297451e+00  2.9378645488e+03 ] stress_199 gradient
 [  1.0128014632e+00  8.1417150965e-04  3.4076153680e+03 -7.1589402115e+00 
   -4.9299999318e-01 -1.4517968173e+00  2.9379011561e+03 ] stress_200 gradient
 [  1.0128154206e+00  8.2010260540e-04  3.4588263291e+03 -7.0713024668e+00 
   -4.8599999900e-01 -1.4313723019e+00  2.9379211546e+03 ] stress_201 gradient
 [  1.0128160994e+00  8.2039314689e-04  3.4613345962e+03 -7.0670483227e+00 
   -4.8599999900e-01 -1.4308202875e+00  2.9379221715e+03 ] stress_202 gradient
 [  9.9594779703e-01 -9.0103506331e-04  3.4583971116e+03  7.6229140395e+01 
   -3.5850000017e+00 -3.0115123776e+01  2.9133467593e+03 ] stress_203 gradient
 [  6.9864413388e-01 -1.9859650017e-03  3.3968892830e+03  7.5399980500e+02 
   -2.8931800000e+01 -5.3597611659e+02  2.4799501143e+03 ] stress_204 gradient
 [  6.9885617870e-01 -1.4624539773e-03  3.3969038224e+03  7.5298569667e+02 
   -2.4343600000e+01 -5.3569757032e+02  2.4804441783e+03 ] stress_205 gradient
 [  8.6067087565e-01  1.5265768637e-04  3.4340131162e+03  8.9624655835e+01 
    2.6153620000e+03 -3.0933539734e+02  2.8819298355e+03 ] stress_206 gradient
 [  8.7965052635e-01  1.8817375142e-04  3.4412523529e+03  1.9013778157e+01 
    2.8616710000e+03 -2.8174849769e+02  2.9308589818e+03 ] stress_207 gradient
 [  8.7962532661e-01 -1.2374693531e-04  3.4412484351e+03  1.9243799015e+01 
    2.8616240000e+03 -2.8179100276e+02  2.9308200018e+03 ] stress_208 gradient
 [  8.7776311209e-01 -6.8516142032e-04  3.4409646117e+03  3.0208332538e+01 
    2.8583860000e+03 -2.8490380971e+02  2.9279222569e+03 ] stress_209 gradient
 [  8.5179373502e-01 -1.4191688379e-03  3.4369027165e+03  1.2898189360e+02 
    2.8151920000e+03 -3.2834896756e+02  2.8874860216e+03 ] stress_210 gradient
 [  7.0452548083e-01 -1.9963195612e-03  3.4113333668e+03  4.6592349738e+02 
    2.5784813000e+03 -5.7478369442e+02  2.6581137682e+03 ] stress_211 gradient
 [  3.1817187993e-01 -1.9205023292e-03  3.3231753091e+03  9.0397602919e+02 
    1.9743230000e+03 -1.2211730993e+03  2.0564657295e+03 ] stress_212 gradient
 [ -1.7423977932e-01 -1.3267989156e-03  3.1380271508e+03  1.0118454969e+03 
    1.2217030000e+03 -2.0446118313e+03  1.2900011875e+03 ] stress_213 gradient
 [ -5.4273086307e-01 -7.7854449217e-04  2.8623850512e+03  8.1540947881e+02 
    6.6920900000e+02 -2.6605667171e+03  7.1665037853e+02 ] stress_214 gradient
 [ -7.5307388072e-01 -4.6173319242e-04  2.5215193007e+03  5.7075519728e+02 
    3.5888700000e+02 -3.0120975126e+03  3.8942891663e+02 ] stress_215 gradient
 [ -8.6334187897e-01 -3.1433628107e-04  2.1352553087e+03  3.8351497504e+02 
    1.9842300000e+02 -3.1963746902e+03  2.1789421429e+02 ] stress_216 gradient
 [ -9.2129002998e-01 -2.6071846887e-04  1.7160016406e+03  2.5840302164e+02 
    1.1508700000e+02 -3.2932205784e+03  1.2774414683e+02 ] stress_217 gradient
 [ -9.5282481749e-01 -2.5626847669e-04  1.2721611217e+03  1.7761915455e+02 
    7.0204000002e+01 -3.3459279792e+03  7.8680773487e+01 ] stress_218 gradient
 [ -9.7075267578e-01 -2.7797987285e-04  8.1044452008e+02  1.2531860022e+02 
    4.4921000006e+01 -3.3758951632e+03  5.0785614754e+01 ] stress_219 gradient
 [ -9.8139933490e-01 -3.1401587556e-04  3.3691703632e+02  9.0892141228e+01 
    3.0029000004e+01 -3.3936937506e+03  3.4217726939e+01 ] stress_220 gradient
 [ -9.8798385021e-01 -3.5799935221e-04 -1.4264517615e+02  6.7739413602e+01 
    2.0886999994e+01 -3.4047020138e+03  2.3970373586e+01 ] stress_221 gradient
 [ -9.9220781966e-01 -4.0624270364e-04 -6.2257087404e+02  5.1816473135e+01 
    1.5060999999e+01 -3.4117644809e+03  1.7395960194e+01 ] stress_222 gradient
 [ -9.9500728229e-01 -4.5642863370e-04 -1.0972915477e+03  4.0626921532e+01 
    1.1224000002e+01 -3.4164455596e+03  1.3038665698e+01 ] stress_223 gradient
 [ -9.9691671452e-01 -5.0696513699e-04 -1.5613270557e+03  3.2605578380e+01 
    8.6200000055e+00 -3.4196389606e+03  1.0066350220e+01 ] stress_224 gradient
 [ -9.9825219497e-01 -5.5666995261e-04 -2.0093718168e+03  2.6751614691e+01 
    6.8069999998e+00 -3.4218724093e+03  7.9871868974e+00 ] stress_225 gradient
 [ -9.9920660351e-01 -6.0460190835e-04 -2.4363004689e+03  2.2412732333e+01 
    5.5180000004e+00 -3.4234688338e+03  6.5011986373e+00 ] stress_226 gradient
 [ -9.9990103892e-01 -6.4997633973e-04 -2.8372279418e+03  1.9155495817e+01 
    4.5829999976e+00 -3.4246302712e+03  5.4199252467e+00 ] stress_227 gradient
 [ -1.0004135822e+00 -6.9212687414e-04 -3.2076278627e+03  1.6686369201e+01 
    3.8959999983e+00 -3.4254869970e+03  4.6223590104e+00 ] stress_228 gradient
 [ -1.0007955238e+00 -7.3046341879e-04 -3.5432128446e+03  1.4804266936e+01 
    3.3840000015e+00 -3.4261262292e+03  4.0274891682e+00 ] stress_229 gradient
 [ -1.0010813118e+00 -7.6448496676e-04 -3.8402078630e+03  1.3368671553e+01 
    3.0040000070e+00 -3.4266042733e+03  3.5824383973e+00 ] stress_230 gradient
 [ -1.0012944703e+00 -7.9375737618e-04 -4.0952396859e+03  1.2281084170e+01 
    2.7199999977e+00 -3.4269608743e+03  3.2505993206e+00 ] stress_231 gradient
 [ -1.0014509293e+00 -8.1790618260e-04 -4.3053342626e+03  1.1472475951e+01 
    2.5120000032e+00 -3.4272225290e+03  3.0068891102e+00 ] stress_232 gradient
 [ -1.0015617615e+00 -8.3664266674e-04 -4.4681779104e+03  1.0894114367e+01 
    2.3650000003e+00 -3.4274074537e+03  2.8343599055e+00 ] stress_233 gradient
 [ -1.0016342426e+00 -8.4973636947e-04 -4.5819027059e+03  1.0513178343e+01 
    2.2690000037e+00 -3.4275294488e+03  2.7214871688e+00 ] stress_234 gradient
 [ -1.0016729331e+00 -8.5702298807e-04 -4.6451644061e+03  1.0308967543e+01 
    2.2170000079e+00 -3.4275940344e+03  2.6611527898e+00 ] stress_235 gradient
 [ -1.0016729331e+00 -8.2578395695e-04 -4.6451644061e+03  1.0308955660e+01 
    2.2169999966e+00 -3.4275940344e+03  2.6611527898e+00 ] stress_236 gradient
 [ -9.8393250325e-01  9.0684523509e-04 -4.6420423492e+03 -7.7444138205e+01 
    6.4420000001e+00 -3.3975363201e+03  3.2718519348e+01 ] stress_237 gradient
 [ -7.7329927490e-01  1.9333643479e-03 -4.5998497444e+03 -6.1653820205e+02 
    3.2431500000e+01 -3.0403657079e+03  3.8988820360e+02 ] stress_238 gradient
 [ -7.7534754966e-01  8.7027036396e-04 -4.6016475825e+03 -5.6060130398e+02 
    2.4058000000e+01 -3.0437036262e+03  3.8655184811e+02 ] stress_239 gradient
 [ -8.2819703702e-01 -2.9906822455e-04 -4.6626513199e+03  1.0098102217e+02 
   -6.7524999997e+01 -3.1319154634e+03  2.9838569701e+02 ] stress_240 gradient
 [ -8.0571765500e-01  1.2616637148e-03 -4.6590539025e+03  4.8590168287e+00 
   -6.2116999999e+01 -3.0938281534e+03  3.3647194220e+02 ] stress_241 gradient
 [ -6.8262520721e-01  1.8810195882e-03 -4.6374392307e+03 -3.1027725013e+02 
   -4.2627900000e+01 -2.8851526746e+03  5.4514313172e+02 ] stress_242 gradient
 [ -6.9598345439e-01  2.8277962839e-04 -4.6468194619e+03 -1.1211885859e+02 
   -7.1148000001e+01 -2.9073638964e+03  5.2293872502e+02 ] stress_243 gradient
 [ -7.3584327902e-01 -2.6765739939e-04 -4.6802392262e+03  2.3095899153e+02 
   -1.1593200000e+02 -2.9743077382e+03  4.5601468119e+02 ] stress_244 gradient
 [ -8.1713574875e-01 -6.5210554317e-04 -4.7793462485e+03  5.7005243169e+02 
   -1.4808500000e+02 -3.1118078014e+03  3.1855568274e+02 ] stress_245 gradient
 [ -8.1569596936e-01  2.3740357726e-04 -4.7791042151e+03  5.5986105915e+02 
   -1.4750900000e+02 -3.1093723157e+03  3.2099075109e+02 ] stress_246 gradient
 [ -6.9619720529e-01  1.6433653445e-03 -4.7571675257e+03  1.5385771440e+02 
   -1.2023736000e+02 -2.9069379568e+03  5.2341727832e+02 ] stress_247 gradient
 [ -7.2290051582e-02  1.5822338318e-03 -4.5847248329e+03 -7.2613107228e+02 
   -3.6912999997e+01 -1.8498728843e+03  1.5804783357e+03 ] stress_248 gradient
 [  4.7685495276e-01  8.7554698211e-04 -4.2567403965e+03 -7.8608733915e+02 
    2.0199999994e+00 -9.1979608780e+02  2.5105903855e+03 ] stress_249 gradient
 [  6.9575112037e-01  5.6171980666e-04 -3.9666742375e+03 -6.2896495976e+02 
    8.8220000009e+00 -5.4911427060e+02  2.8812956467e+03 ] stress_250 gradient
 [  7.5425629605e-01  4.8003993836e-04 -3.8426342914e+03 -5.6344481905e+02 
    9.5119999969e+00 -4.5003990188e+02  2.9803765578e+03 ] stress_251 gradient
 [  7.5416820300e-01 -2.7219485771e-05 -3.8426512686e+03 -5.6251998238e+02 
    9.4030000014e+00 -4.5018784163e+02  2.9802287725e+03 ] stress_252 gradient
 [  7.2208867463e-01 -1.5289002441e-03 -3.8489779610e+03 -3.9957467792e+02 
   -9.4583999996e+00 -5.0435222814e+02  2.9260687034e+03 ] stress_253 gradient
 [  3.4111052095e-01 -2.3865267789e-03 -3.9452059611e+03  5.0499085919e+02 
   -1.0801600000e+02 -1.1493991350e+03  2.2810577376e+03 ] stress_254 gradient
 [ -2.4176483055e-01 -1.9265387083e-03 -4.2074482901e+03  9.3391366508e+02 
   -1.4112000000e+02 -2.1374655542e+03  1.2930118051e+03 ] stress_255 gradient
 [ -5.2380708453e-01 -1.5750873210e-03 -4.4590468082e+03  8.5300374223e+02 
   -1.2142300000e+02 -2.6158828398e+03  8.1459171564e+02 ] stress_256 gradient
 [ -5.8140447544e-01 -1.5000696096e-03 -4.5349112229e+03  8.1071225017e+02 
   -1.1421500001e+02 -2.7136147105e+03  7.1685815928e+02 ] stress_257 gradient
 [ -5.7606855662e-01 -1.6909828534e-04 -4.5338107544e+03  7.7161348136e+02 
   -1.1205500000e+02 -2.7045898336e+03  7.2588255514e+02 ] stress_258 gradient
 [ -3.5263023670e-01  1.2663657390e-03 -4.4795100365e+03  1.0440146096e+01 
   -6.4126700001e+01 -2.3260706320e+03  1.1043804418e+03 ] stress_259 gradient
 [ -9.9660750855e-02  1.3172816065e-03 -4.3979956218e+03 -4.5843689300e+02 
   -2.9171000000e+01 -1.8974034978e+03  1.5330328049e+03 ] stress_260 gradient
 [ -1.0205794961e-01  2.8551204962e-04 -4.3986970529e+03 -4.3326251352e+02 
   -3.2627510000e+01 -1.9014144867e+03  1.5290216433e+03 ] stress_261 gradient
 [ -2.7666232045e-01 -1.1752334931e-03 -4.4626790506e+03  2.9943378979e+02 
   -1.2303200000e+02 -2.1962108841e+03  1.2342376477e+03 ] stress_262 gradient
 [ -6.0369712904e-01 -1.2483431467e-03 -4.6773352606e+03  7.3056588677e+02 
   -1.5220100000e+02 -2.7504119637e+03  6.8004673202e+02 ] stress_263 gradient
 [ -6.6633084180e-01 -1.2134329670e-03 -4.7468201795e+03  7.2681900778e+02 
   -1.4485000000e+02 -2.8567326202e+03  5.7372671248e+02 ] stress_264 gradient
 [ -6.6632855092e-01 -1.0111275609e-03 -4.7468193089e+03  7.2678710170e+02 
   -1.4484800000e+02 -2.8567282041e+03  5.7373077996e+02 ] stress_265 gradient
 [ -6.6602182674e-01 -5.5768041946e-04 -4.7467609771e+03  7.2389884682e+02 
   -1.4469100000e+02 -2.8562098630e+03  5.7424904548e+02 ] stress_266 gradient
 [ -6.6003152059e-01  1.2392718239e-04 -4.7456104478e+03  6.8479836685e+02 
   -1.4243700000e+02 -2.8460754380e+03  5.8438284818e+02 ] stress_267 gradient
 [ -6.1397438280e-01  9.0896730154e-04 -4.7363544111e+03  4.8062338330e+02 
   -1.2964700000e+02 -2.7680857960e+03  6.6236774259e+02 ] stress_268 gradient
 [ -4.3493951405e-01  1.4465678267e-03 -4.6949924684e+03 -2.6314321951e+01 
   -9.3566900000e+01 -2.4647806548e+03  9.6565679410e+02 ] stress_269 gradient
 [ -7.3286014249e-02  1.4069898853e-03 -4.5812863043e+03 -5.9407142426e+02 
   -4.2585000000e+01 -1.8520533396e+03  1.5783662935e+03 ] stress_270 gradient
 [  3.2789647867e-01  1.0034587841e-03 -4.3721433194e+03 -8.1302081256e+02 
   -5.8910000007e+00 -1.1724352312e+03  2.2579822110e+03 ] stress_271 gradient
 [  6.1994290433e-01  6.3073100305e-04 -4.0791405463e+03 -7.2325625717e+02 
    8.7589999964e+00 -6.7773905277e+02  2.7526874980e+03 ] stress_272 gradient
 [  7.9200825106e-01  4.0961946390e-04 -3.7256033021e+03 -5.4619653445e+02 
    1.1398999999e+01 -3.8626848451e+02  3.0441676204e+03 ] stress_273 gradient
 [  8.8667862506e-01  3.0591594327e-04 -3.3294612128e+03 -3.9022588733e+02 
    1.0040000001e+01 -2.2588136879e+02  3.2045611394e+03 ] stress_274 gradient
 [  9.3882498012e-01  2.7162339196e-04 -2.9023867312e+03 -2.7629653394e+02 
    7.9509999978e+00 -1.3752269584e+02  3.2929235467e+03 ] stress_275 gradient
 [  9.6838139671e-01  2.7590842338e-04 -2.4526316297e+03 -1.9776164745e+02 
    6.1029999983e+00 -8.7432393454e+01  3.3430163330e+03 ] stress_276 gradient
 [  9.8577125741e-01  3.0168618559e-04 -1.9868130842e+03 -1.4426818596e+02 
    4.6670000074e+00 -5.7956501889e+01  3.3724934048e+03 ] stress_277 gradient
 [  9.9640071367e-01  3.3962685481e-04 -1.5108770197e+03 -1.0759381584e+02 
    3.6030000047e+00 -3.9936004849e+01  3.3905144021e+03 ] stress_278 gradient
 [  1.0031364274e+00  3.8444338578e-04 -1.0304624666e+03 -8.2094250416e+01 
    2.8199999974e+00 -2.8515939217e+01  3.4019355641e+03 ] stress_279 gradient
 [  1.0075476980e+00  4.3294741468e-04 -5.5104869547e+02 -6.4064498565e+01 
    2.2449999960e+00 -2.1035597503e+01  3.4094163490e+03 ] stress_280 gradient
 [  1.0105234316e+00  4.8306480934e-04 -7.7997007605e+01 -5.1095419479e+01 
    1.8200000000e+00 -1.5988533500e+01  3.4144634213e+03 ] stress_281 gradient
 [  1.0125841472e+00  5.3333506729e-04  3.8345753624e+02 -4.1612112380e+01 
    1.4999999962e+00 -1.2493180852e+01  3.4179587477e+03 ] stress_282 gradient
 [  1.0140444173e+00  5.8265119509e-04  8.2822614010e+02 -3.4573155668e+01 
    1.2589999983e+00 -1.0016294033e+01  3.4204358468e+03 ] stress_283 gradient
 [  1.0150999430e+00  6.3012714242e-04  1.2514498527e+03 -2.9279431859e+01 
    1.0759999896e+00 -8.2255606208e+00  3.4222268965e+03 ] stress_284 gradient
 [  1.0158755139e+00  6.7501641001e-04  1.6484712720e+03 -2.5255391814e+01 
    9.3499999139e-01 -6.9095592423e+00  3.4235427283e+03 ] stress_285 gradient
 [  1.0164527960e+00  7.1668274235e-04  2.0149712337e+03 -2.2172099882e+01 
    8.2500000644e-01 -5.9302864011e+00  3.4245219755e+03 ] stress_286 gradient
 [  1.0168861976e+00  7.5457208594e-04  2.3469544450e+03 -1.9799511440e+01 
    7.4000000723e-01 -5.1950037533e+00  3.4252575126e+03 ] stress_287 gradient
 [  1.0172126489e+00  7.8819780910e-04  2.6407564507e+03 -1.7975291677e+01 
    6.7500000114e-01 -4.6407816968e+00  3.4258117076e+03 ] stress_288 gradient
 [  1.0174574555e+00  8.1714935745e-04  2.8932068741e+03 -1.6583437927e+01 
    6.2500000695e-01 -4.2256671657e+00  3.4262272691e+03 ] stress_289 gradient
 [  1.0176382446e+00  8.4107752444e-04  3.1015488852e+03 -1.5541517236e+01 
    5.8699999954e-01 -3.9187473892e+00  3.4265340253e+03 ] stress_290 gradient
 [  1.0177670009e+00  8.5969495743e-04  3.2634822958e+03 -1.4791456971e+01 
    5.6000000086e-01 -3.7001498412e+00  3.4267526527e+03 ] stress_291 gradient
 [  1.0178518697e+00  8.7278744536e-04  3.3772797884e+03 -1.4293139842e+01 
    5.4099999716e-01 -3.5560741921e+00  3.4268963706e+03 ] stress_292 gradient
 [  1.0178979632e+00  8.8019893605e-04  3.4416719935e+03 -1.4021100399e+01 
    5.3100000059e-01 -3.4782402128e+00  3.4269746697e+03 ] stress_293 gradient
 [  1.0178986632e+00  8.8030847120e-04  3.4426235853e+03 -1.4017119566e+01 
    5.3199999002e-01 -3.4765841758e+00  3.4269760255e+03 ] stress_294 gradient
 [  9.9954858187e-01 -8.9647730758e-04  3.4393887827e+03  7.6377857192e+01 
   -2.8460000010e+00 -3.4583677109e+01  3.3958709423e+03 ] stress_295 gradient
 [  7.1255488972e-01 -1.9678948395e-03  3.3796121460e+03  7.4359041946e+02 
   -2.7951300000e+01 -5.2137242061e+02  2.9091098624e+03 ] stress_296 gradient
 [  7.1301272116e-01 -1.3407690109e-03  3.3796656893e+03  7.4066876480e+02 
   -1.6245600001e+01 -5.2079131547e+02  2.9096909367e+03 ] stress_297 gradient
 [  8.4992727812e-01  2.5068658751e-04  3.4267699617e+03  5.2955621220e+01 
    2.3533740000e+03 -3.2822310837e+02  3.1022526780e+03 ] stress_298 gradient
 [  8.6231119242e-01  2.8459743614e-04  3.4337332106e+03  1.3367281232e-01 
    2.5071850000e+03 -3.0979301695e+02  3.1206821186e+03 ] stress_299 gradient
 [  8.6230669549e-01  7.5200691841e-05  3.4337327753e+03  1.8154975785e-01 
    2.5071780000e+03 -3.0980019313e+02  3.1206750005e+03 ] stress_300 gradient
 [  8.6197952304e-01 -3.0160266757e-04  3.4336818438e+03  2.5785341713e+00 
    2.5066490000e+03 -3.1034723900e+02  3.1201279236e+03 ] stress_301 gradient
 [  8.5725751922e-01 -8.3107697500e-04  3.4329435549e+03  2.7033707223e+01 
    2.4993900000e+03 -3.1824545532e+02  3.1122302214e+03 ] stress_302 gradient
 [  8.2592388422e-01 -1.4390233500e-03  3.4278908898e+03  1.3961700427e+02 
    2.4530390000e+03 -3.7068071318e+02  3.0597986306e+03 ] stress_303 gradient
 [  7.0514087219e-01 -1.9127208992e-03  3.4065512916e+03  4.2400621789e+02 
    2.2799013000e+03 -5.7284794693e+02  2.8576437233e+03 ] stress_304 gradient
 [  4.2442425208e-01 -1.9639931507e-03  3.3455934360e+03  8.0526663678e+02 
    1.8880390000e+03 -1.0426617079e+03  2.3878489076e+03 ] stress_305 gradient
 [  2.7934490548e-02 -1.5805111333e-03  3.2219914137e+03  1.0186160980e+03 
    1.3470350000e+03 -1.7060047876e+03  1.7245131033e+03 ] stress_306 gradient
 [ -3.4031496838e-01 -1.0756269618e-03  3.0307040519e+03  9.6250633786e+02 
    8.5439000000e+02 -2.3218641749e+03  1.1086435062e+03 ] stress_307 gradient
 [ -6.0017692824e-01 -6.8628516799e-04  2.7825370974e+03  7.6918494736e+02 
    5.1265100000e+02 -2.7563428022e+03  6.7414853820e+02 ] stress_308 gradient
 [ -7.6014900622e-01 -4.4983683445e-04  2.4907257730e+03  5.6803285403e+02 
    3.0539099999e+02 -3.0237792329e+03  4.0669912371e+02 ] stress_309 gradient
 [ -8.5406122424e-01 -3.2526641143e-04  2.1649731807e+03  4.0756133435e+02 
    1.8530900000e+02 -3.1807758786e+03  2.4969280386e+02 ] stress_310 gradient
 [ -9.0911144694e-01 -2.6999802998e-04  1.8115351876e+03  2.9139062929e+02 
    1.1574000000e+02 -3.2728098608e+03  1.5765338910e+02 ] stress_311 gradient
 [ -9.4200010562e-01 -2.5587892838e-04  1.4346025413e+03  2.1011016812e+02 
    7.4615000005e+01 -3.3277981834e+03  1.0266165475e+02 ] stress_312 gradient
 [ -9.6217818664e-01 -2.6637921930e-04  1.0373913259e+03  1.5363066586e+02 
    4.9627999999e+01 -3.3615372791e+03  6.8920162640e+01 ] stress_313 gradient
 [ -9.7491776098e-01 -2.9202983165e-04  6.2258654527e+02  1.1415781757e+02 
    3.3991999999e+01 -3.3828406034e+03  4.7615348286e+01 ] stress_314 gradient
 [ -9.8318942894e-01 -3.2733740534e-04  1.9266338275e+02  8.6253234765e+01 
    2.3922000003e+01 -3.3966740742e+03  3.3781150097e+01 ] stress_315 gradient
 [ -9.8870348536e-01 -3.6900925493e-04 -2.4997306348e+02  6.6252091155e+01 
    1.7261000005e+01 -3.4058960201e+03  2.4558125333e+01 ] stress_316 gradient
 [ -9.9247016853e-01 -4.1498537041e-04 -7.0296079109e+02  5.1704570133e+01 
    1.2743000002e+01 -3.4121961559e+03  1.8257589342e+01 ] stress_317 gradient
 [ -9.9510144195e-01 -4.6390511660e-04 -1.1639216913e+03  4.0968690912e+01 
    9.6070000041e+00 -3.4165984675e+03  1.3855552493e+01 ] stress_318 gradient
 [ -9.9697765633e-01 -5.1481608434e-04 -1.6304659017e+03  3.2933622798e+01 
    7.3850000035e+00 -3.4197372191e+03  1.0716470084e+01 ] stress_319 gradient
 [ -9.9834077589e-01 -5.6701100250e-04 -2.1002074780e+03  2.6838872177e+01 
    5.7809999930e+00 -3.4220170370e+03  8.4363051577e+00 ] stress_320 gradient
 [ -9.9934829905e-01 -6.1992974353e-04 -2.5707339216e+03  2.2157459922e+01 
    4.5999999998e+00 -3.4237028877e+03  6.7503321667e+00 ] stress_321 gradient
 [ -1.0001046732e+00 -6.7310850402e-04 -3.0396549349e+03  1.8519097252e+01 
    3.7189999944e+00 -3.4249681038e+03  5.4846660686e+00 ] stress_322 gradient
 [ -1.0006807674e+00 -7.2614224684e-04 -3.5045689024e+03  1.5660395608e+01 
    3.0509999988e+00 -3.4259324722e+03  4.5206718616e+00 ] stress_323 gradient
 [ -1.0011252841e+00 -7.7866936427e-04 -3.9631129509e+03  1.3391546490e+01 
    2.5380000011e+00 -3.4266760351e+03  3.7766608592e+00 ] stress_324 gradient
 [ -1.0014724382e+00 -8.3036049159e-04 -4.4129764451e+03  1.1574005021e+01 
    2.1380000021e+00 -3.4272573059e+03  3.1956882568e+00 ] stress_325 gradient
 [ -1.0017464324e+00 -8.8090332200e-04 -4.8518452669e+03  1.0105802456e+01 
    1.8249999926e+00 -3.4277160295e+03  2.7370791958e+00 ] stress_326 gradient
 [ -1.0019648726e+00 -9.3001146461e-04 -5.2775245739e+03  8.9106969279e+00 
    1.5749999989e+00 -3.4280814628e+03  2.3713444054e+00 ] stress_327 gradient
 [ -1.0021404436e+00 -9.7740485564e-04 -5.6878016756e+03  7.9314951541e+00 
    1.3760000002e+00 -3.4283751342e+03  2.0778074892e+00 ] stress_328 gradient
 [ -1.0022827118e+00 -1.0228293472e-03 -6.0806349593e+03  7.1244555017e+00 
    1.2139999967e+00 -3.4286136043e+03  1.8395205941e+00 ] stress_329 gradient
 [ -1.0023986773e+00 -1.0660405099e-03 -6.4540315671e+03  6.4561865048e+00 
    1.0829999951e+00 -3.4288073612e+03  1.6452981322e+00 ] stress_330 gradient
 [ -1.0024937279e+00 -1.1068054044e-03 -6.8060695972e+03  5.9008899878e+00 
    9.7600000117e-01 -3.4289668932e+03  1.4863272176e+00 ] stress_331 gradient
 [ -1.0025718938e+00 -1.1449124516e-03 -7.1349908248e+03  5.4384003571e+00 
    8.8799999958e-01 -3.4290977205e+03  1.3554897478e+00 ] stress_332 gradient
 [ -1.0026362719e+00 -1.1801587788e-03 -7.4390997100e+03  5.0530200586e+00 
    8.1599999930e-01 -3.4292048112e+03  1.2477013651e+00 ] stress_333 gradient
 [ -1.0026893441e+00 -1.2123626202e-03 -7.7168687435e+03  4.7323193867e+00 
    7.5599999718e-01 -3.4292942375e+03  1.1588945838e+00 ] stress_334 gradient
 [ -1.0027329558e+00 -1.2413599769e-03 -7.9669166806e+03  4.4665423291e+00 
    7.0700000379e-01 -3.4293671034e+03  1.0856798373e+00 ] stress_335 gradient
 [ -1.0027685069e+00 -1.2669920129e-03 -8.1878992782e+03  4.2480480629e+00 
    6.6799999558e-01 -3.4294261689e+03  1.0263623307e+00 ] stress_336 gradient
 [ -1.0027971854e+00 -1.2891344126e-03 -8.3787656935e+03  4.0707049167e+00 
    6.3599999294e-01 -3.4294741941e+03  9.7823040816e-01 ] stress_337 gradient
 [ -1.0028198397e+00 -1.3076693399e-03 -8.5385155797e+03  3.9298190724e+00 
    6.1100000721e-01 -3.4295122830e+03  9.4060616644e-01 ] stress_338 gradient
 [ -1.0028371487e+00 -1.3225006225e-03 -8.6663309857e+03  3.8217661894e+00 
    5.9100000271e-01 -3.4295409878e+03  9.1145584928e-01 ] stress_339 gradient
 [ -1.0028496213e+00 -1.3335549669e-03 -8.7615902863e+03  3.7438012749e+00 
    5.7700000298e-01 -3.4295625163e+03  8.9044050310e-01 ] stress_340 gradient
 [ -1.0028575545e+00 -1.3407740119e-03 -8.8237963551e+03  3.6940230358e+00 
    5.6799999584e-01 -3.4295757647e+03  8.7722117045e-01 ] stress_341 gradient
 [ -1.0028611605e+00 -1.3441193896e-03 -8.8526222731e+03  3.6712788130e+00 
    5.6499999346e-01 -3.4295812848e+03  8.7145889773e-01 ] stress_342 gradient



---------------------
Begin Evaluation   70
---------------------
Parameters for evaluation 70:
                      4.7896230959e+02 fy
                      1.9834264383e+05 E
                      2.2097210061e-02 b
                      8.4726287403e-01 cR1
                      1.0950943606e-02 cR2
                      1.7350024381e-02 a1
                      2.6457776108e-02 a3

blocking fork: workflow_driver1 paramsDakota.in results.out

Active response data for evaluation 70:
Active set vector = { 1 1 1 1 1 1 1 1 1 1 1 1 1 1 1 1 1 1 1 1 1 1 1 1 1 1 1 1 1 1 1 1 1 1 1 1 1 1 1 1 1 1 1 1 1 1 1 1 1 1 1 1 1 1 1 1 1 1 1 1 1 1 1 1 1 1 1 1 1 1 1 1 1 1 1 1 1 1 1 1 1 1 1 1 1 1 1 1 1 1 1 1 1 1 1 1 1 1 1 1 1 1 1 1 1 1 1 1 1 1 1 1 1 1 1 1 1 1 1 1 1 1 1 1 1 1 1 1 1 1 1 1 1 1 1 1 1 1 1 1 1 1 1 1 1 1 1 1 1 1 1 1 1 1 1 1 1 1 1 1 1 1 1 1 1 1 1 1 1 1 1 1 1 1 1 1 1 1 1 1 1 1 1 1 1 1 1 1 1 1 1 1 1 1 1 1 1 1 1 1 1 1 1 1 1 1 1 1 1 1 1 1 1 1 1 1 1 1 1 1 1 1 1 1 1 1 1 1 1 1 1 1 1 1 1 1 1 1 1 1 1 1 1 1 1 1 1 1 1 1 1 1 1 1 1 1 1 1 1 1 1 1 1 1 1 1 1 1 1 1 1 1 1 1 1 1 1 1 1 1 1 1 1 1 1 1 1 1 1 1 1 1 1 1 1 1 1 1 1 1 1 1 1 1 1 1 1 1 1 1 1 1 1 1 1 1 1 1 1 1 1 1 1 1 1 1 1 1 1 1 1 1 1 1 1 1 1 1 1 1 1 1 }
                      2.3113338357e+00 stress_1
                     -2.4018448835e+02 stress_2
                     -4.8976425115e+02 stress_3
                     -4.9259484616e+02 stress_4
                     -1.7966705741e+02 stress_5
                      2.1129437329e+02 stress_6
                      3.6100503439e+02 stress_7
                      3.6197489878e+02 stress_8
                      1.2434862078e+02 stress_9
                     -2.2486442823e+02 stress_10
                     -4.1778740337e+02 stress_11
                     -4.7527695745e+02 stress_12
                     -4.9378286734e+02 stress_13
                     -4.9512948418e+02 stress_14
                     -1.7852422970e+02 stress_15
                     -3.3866687286e+02 stress_16
                     -4.8755966236e+02 stress_17
                     -3.0153599505e+02 stress_18
                      2.3845127767e+01 stress_19
                      2.9998726806e+02 stress_20
                      4.2044574815e+02 stress_21
                      4.6525189058e+02 stress_22
                      4.8388521517e+02 stress_23
                      4.9009428980e+02 stress_24
                      1.7289272509e+02 stress_25
                      2.9513367787e+02 stress_26
                      4.2746288507e+02 stress_27
                      4.5618286806e+02 stress_28
                      3.3888103278e+02 stress_29
                      1.3336065761e+02 stress_30
                     -1.1822544350e+02 stress_31
                     -3.1923285144e+02 stress_32
                     -4.2570422249e+02 stress_33
                     -4.7555902755e+02 stress_34
                     -5.0243185704e+02 stress_35
                     -5.2024404624e+02 stress_36
                     -5.3387260775e+02 stress_37
                     -5.4494580102e+02 stress_38
                     -5.5393417837e+02 stress_39
                     -5.6088639813e+02 stress_40
                     -5.6572346848e+02 stress_41
                     -5.6834490278e+02 stress_42
                     -5.5358484849e+02 stress_43
                     -1.7918186006e+02 stress_44
                      9.5456305245e+01 stress_45
                     -1.0117411916e+02 stress_46
                     -4.2080869832e+02 stress_47
                     -1.3595216159e+02 stress_48
                     -2.3418415339e+02 stress_49
                     -3.8685599955e+02 stress_50
                     -5.5388541372e+02 stress_51
                     -3.9142589609e+02 stress_52
                     -6.0018619238e+01 stress_53
                      2.3638804532e+02 stress_54
                      3.6866962493e+02 stress_55
                      4.1536610195e+02 stress_56
                      4.2914944931e+02 stress_57
                      3.4672083625e+02 stress_58
                      4.4092077547e+01 stress_59
                     -2.9655266718e+02 stress_60
                     -4.6406796972e+02 stress_61
                     -5.1894181583e+02 stress_62
                     -5.3105706288e+02 stress_63
                     -2.7351513804e+02 stress_64
                      1.0741966338e+02 stress_65
                      1.9934419071e+02 stress_66
                     -5.9743220792e+01 stress_67
                     -4.0850572414e+02 stress_68
                     -5.1197139669e+02 stress_69
                     -5.1330368692e+02 stress_70
                     -4.2222871930e+02 stress_71
                     -2.5663816692e+02 stress_72
                     -3.5920546318e+01 stress_73
                      1.8017448090e+02 stress_74
                      3.2584475805e+02 stress_75
                      4.0219946051e+02 stress_76
                      4.4182541168e+02 stress_77
                      4.6570980743e+02 stress_78
                      4.8289562496e+02 stress_79
                      4.9692155538e+02 stress_80
                      5.0912780088e+02 stress_81
                      5.1997229418e+02 stress_82
                      5.2954771031e+02 stress_83
                      5.3779780610e+02 stress_84
                      5.4460905848e+02 stress_85
                      5.4986131330e+02 stress_86
                      5.5345002593e+02 stress_87
                      5.5529609017e+02 stress_88
                      4.8492222997e+02 stress_89
                      6.0425287478e+01 stress_90
                     -1.5188765027e+02 stress_91
                      1.2398011499e+02 stress_92
                      4.3812119436e+02 stress_93
                      4.4447519464e+02 stress_94
                      3.8701353927e+02 stress_95
                      2.8350575161e+02 stress_96
                      1.3768765681e+02 stress_97
                     -3.6066497195e+01 stress_98
                     -2.0425750992e+02 stress_99
                     -3.3099404905e+02 stress_100
                     -4.0924600558e+02 stress_101
                     -4.5436562821e+02 stress_102
                     -4.8186386269e+02 stress_103
                     -5.0081795961e+02 stress_104
                     -5.1570668903e+02 stress_105
                     -5.2864748940e+02 stress_106
                     -5.4063216507e+02 stress_107
                     -5.5211690272e+02 stress_108
                     -5.6329566198e+02 stress_109
                     -5.7422980408e+02 stress_110
                     -5.8491079839e+02 stress_111
                     -5.9529193221e+02 stress_112
                     -6.0530797268e+02 stress_113
                     -6.1488385553e+02 stress_114
                     -6.2394019381e+02 stress_115
                     -6.3239799113e+02 stress_116
                     -6.4018000270e+02 stress_117
                     -6.4721530066e+02 stress_118
                     -6.5343803824e+02 stress_119
                     -6.5878797412e+02 stress_120
                     -6.6321541961e+02 stress_121
                     -6.6667743140e+02 stress_122
                     -6.6914026840e+02 stress_123
                     -6.7058113157e+02 stress_124
                     -6.7096821724e+02 stress_125
                     -5.7302889386e+02 stress_126
                     -3.3023397322e+02 stress_127
                     -1.6745160557e+01 stress_128
                      2.1684267432e+02 stress_129
                      3.2856559361e+02 stress_130
                      3.7721793458e+02 stress_131
                      4.0014660129e+02 stress_132
                      4.1048873022e+02 stress_133
                      4.1106604591e+02 stress_134
                      2.1687386839e+01 stress_135
                      2.0200191717e-01 stress_136
                      1.7903665680e+02 stress_137
                      1.4454718547e+02 stress_138
                     -2.0508584306e+01 stress_139
                     -3.0575285403e+02 stress_140
                     -5.2929580491e+02 stress_141
                     -6.2014064128e+02 stress_142
                     -6.5448952617e+02 stress_143
                     -6.7001098966e+02 stress_144
                     -6.7645387566e+02 stress_145
                     -6.5698518484e+02 stress_146
                     -4.2864421903e+02 stress_147
                     -7.6435159851e+01 stress_148
                      1.9149002018e+02 stress_149
                      3.0766646578e+02 stress_150
                      3.4832091914e+02 stress_151
                      3.5322333564e+02 stress_152
                      1.4653439064e+02 stress_153
                     -2.1123259484e+02 stress_154
                     -4.8158686314e+02 stress_155
                     -5.8756503063e+02 stress_156
                     -6.1774791271e+02 stress_157
                     -5.0052786471e+02 stress_158
                     -1.0145982960e+02 stress_159
                      8.9993339139e+01 stress_160
                     -6.9075495222e+01 stress_161
                     -4.3928369915e+02 stress_162
                     -5.9999713535e+02 stress_163
                     -6.1353948031e+02 stress_164
                     -5.7368255540e+02 stress_165
                     -4.9505655273e+02 stress_166
                     -3.7890855243e+02 stress_167
                     -2.2997611105e+02 stress_168
                     -6.2627503382e+01 stress_169
                      9.6359386169e+01 stress_170
                      2.2075710852e+02 stress_171
                      3.0373714362e+02 stress_172
                      3.5520154577e+02 stress_173
                      3.8767285795e+02 stress_174
                      4.0984339080e+02 stress_175
                      4.2662967462e+02 stress_176
                      4.4062692339e+02 stress_177
                      4.5318320859e+02 stress_178
                      4.6499554142e+02 stress_179
                      4.7642103160e+02 stress_180
                      4.8763486844e+02 stress_181
                      4.9871066139e+02 stress_182
                      5.0966572031e+02 stress_183
                      5.2048365010e+02 stress_184
                      5.3112911305e+02 stress_185
                      5.4155499894e+02 stress_186
                      5.5170774575e+02 stress_187
                      5.6153081008e+02 stress_188
                      5.7096588008e+02 stress_189
                      5.7995546562e+02 stress_190
                      5.8844355608e+02 stress_191
                      5.9637527018e+02 stress_192
                      6.0370074805e+02 stress_193
                      6.1037223793e+02 stress_194
                      6.1634532576e+02 stress_195
                      6.2158201929e+02 stress_196
                      6.2604678391e+02 stress_197
                      6.2971106500e+02 stress_198
                      6.3255072818e+02 stress_199
                      6.3454611420e+02 stress_200
                      6.3568474326e+02 stress_201
                      6.3574051748e+02 stress_202
                      2.8679246134e+02 stress_203
                     -6.5565719186e+01 stress_204
                      3.8380113980e+01 stress_205
                      4.4393492721e+02 stress_206
                      4.6076295113e+02 stress_207
                      3.9888503269e+02 stress_208
                      2.8669917026e+02 stress_209
                      1.2916165166e+02 stress_210
                     -5.4338830361e+01 stress_211
                     -2.2260352931e+02 stress_212
                     -3.4049412157e+02 stress_213
                     -4.0931964328e+02 stress_214
                     -4.4839516525e+02 stress_215
                     -4.7274966267e+02 stress_216
                     -4.9025285798e+02 stress_217
                     -5.0457440965e+02 stress_218
                     -5.1738221843e+02 stress_219
                     -5.2942573692e+02 stress_220
                     -5.4102608314e+02 stress_221
                     -5.5229609380e+02 stress_222
                     -5.6324444422e+02 stress_223
                     -5.7382571539e+02 stress_224
                     -5.8396761865e+02 stress_225
                     -5.9358441295e+02 stress_226
                     -6.0258541600e+02 stress_227
                     -6.1088170374e+02 stress_228
                     -6.1838576113e+02 stress_229
                     -6.2501900438e+02 stress_230
                     -6.3071009787e+02 stress_231
                     -6.3539549231e+02 stress_232
                     -6.3902553384e+02 stress_233
                     -6.4155987057e+02 stress_234
                     -6.4296940289e+02 stress_235
                     -6.3677337728e+02 stress_236
                     -2.8522329268e+02 stress_237
                      1.5118133220e+01 stress_238
                     -1.9642298286e+02 stress_239
                     -4.5005203940e+02 stress_240
                     -1.3039007334e+02 stress_241
                      4.9027893335e+01 stress_242
                     -2.7329693834e+02 stress_243
                     -3.9961653456e+02 stress_244
                     -5.1254001311e+02 stress_245
                     -3.3549083168e+02 stress_246
                     -2.2758817849e+00 stress_247
                      2.7604945933e+02 stress_248
                      3.9477089344e+02 stress_249
                      4.3645218240e+02 stress_250
                      4.4810796278e+02 stress_251
                      3.4746022957e+02 stress_252
                      3.5273085735e+01 stress_253
                     -3.1052568938e+02 stress_254
                     -4.9239474328e+02 stress_255
                     -5.5598521938e+02 stress_256
                     -5.6842163757e+02 stress_257
                     -3.0213464835e+02 stress_258
                      8.4180124090e+01 stress_259
                      2.1144381477e+02 stress_260
                      5.7970689646e+00 stress_261
                     -3.6279971716e+02 stress_262
                     -5.2943351470e+02 stress_263
                     -5.5201217675e+02 stress_264
                     -5.1188551350e+02 stress_265
                     -4.2181984391e+02 stress_266
                     -2.8401754570e+02 stress_267
                     -1.0763951127e+02 stress_268
                      8.1004192450e+01 stress_269
                      2.4121331569e+02 stress_270
                      3.4954163561e+02 stress_271
                      4.1382480712e+02 stress_272
                      4.5187304653e+02 stress_273
                      4.7650570332e+02 stress_274
                      4.9457553507e+02 stress_275
                      5.0942072242e+02 stress_276
                      5.2263413030e+02 stress_277
                      5.3496672438e+02 stress_278
                      5.4675878161e+02 stress_279
                      5.5814386980e+02 stress_280
                      5.6914823212e+02 stress_281
                      5.7974136877e+02 stress_282
                      5.8986246914e+02 stress_283
                      5.9943640886e+02 stress_284
                      6.0838082229e+02 stress_285
                      6.1661374918e+02 stress_286
                      6.2405579994e+02 stress_287
                      6.3063200446e+02 stress_288
                      6.3627641547e+02 stress_289
                      6.4093089657e+02 stress_290
                      6.4454652205e+02 stress_291
                      6.4708639474e+02 stress_292
                      6.4852323971e+02 stress_293
                      6.4854445776e+02 stress_294
                      2.8797003005e+02 stress_295
                     -5.6663544716e+01 stress_296
                      6.7972300728e+01 stress_297
                      4.5699602466e+02 stress_298
                      4.7012415110e+02 stress_299
                      4.2858997622e+02 stress_300
                      3.5371070082e+02 stress_301
                      2.4656286409e+02 stress_302
                      1.1154558721e+02 stress_303
                     -3.8888661461e+01 stress_304
                     -1.8173997614e+02 stress_305
                     -2.9457800343e+02 stress_306
                     -3.7100732565e+02 stress_307
                     -4.1905787523e+02 stress_308
                     -4.4960684143e+02 stress_309
                     -4.7047680760e+02 stress_310
                     -4.8622413944e+02 stress_311
                     -4.9930988339e+02 stress_312
                     -5.1103592016e+02 stress_313
                     -5.2209279962e+02 stress_314
                     -5.3284559652e+02 stress_315
                     -5.4348293685e+02 stress_316
                     -5.5409598934e+02 stress_317
                     -5.6471952752e+02 stress_318
                     -5.7535533453e+02 stress_319
                     -5.8598562982e+02 stress_320
                     -5.9657989374e+02 stress_321
                     -6.0710055760e+02 stress_322
                     -6.1750482871e+02 stress_323
                     -6.2774757498e+02 stress_324
                     -6.3778270626e+02 stress_325
                     -6.4756254946e+02 stress_326
                     -6.5704108437e+02 stress_327
                     -6.6617119322e+02 stress_328
                     -6.7490904402e+02 stress_329
                     -6.8321151863e+02 stress_330
                     -6.9103681120e+02 stress_331
                     -6.9834656858e+02 stress_332
                     -7.0510365055e+02 stress_333
                     -7.1127455308e+02 stress_334
                     -7.1682893715e+02 stress_335
                     -7.2173722075e+02 stress_336
                     -7.2597624452e+02 stress_337
                     -7.2952397659e+02 stress_338
                     -7.3236238095e+02 stress_339
                     -7.3447772115e+02 stress_340
                     -7.3585905057e+02 stress_341
                     -7.3649914957e+02 stress_342



------------------------------------------
Begin Dakota derivative estimation routine
------------------------------------------

>>>>> map at X performed previously and results retrieved

>>>>> Dakota finite difference gradient evaluation for x[1] + h:

---------------------
Begin Evaluation   71
---------------------
Parameters for evaluation 71:
                      4.7944127190e+02 fy
                      1.9834264383e+05 E
                      2.2097210061e-02 b
                      8.4726287403e-01 cR1
                      1.0950943606e-02 cR2
                      1.7350024381e-02 a1
                      2.6457776108e-02 a3

(Asynchronous job 71 added to queue)


>>>>> Dakota finite difference gradient evaluation for x[2] + h:

---------------------
Begin Evaluation   72
---------------------
Parameters for evaluation 72:
                      4.7896230959e+02 fy
                      1.9854098647e+05 E
                      2.2097210061e-02 b
                      8.4726287403e-01 cR1
                      1.0950943606e-02 cR2
                      1.7350024381e-02 a1
                      2.6457776108e-02 a3

(Asynchronous job 72 added to queue)


>>>>> Dakota finite difference gradient evaluation for x[3] + h:

---------------------
Begin Evaluation   73
---------------------
Parameters for evaluation 73:
                      4.7896230959e+02 fy
                      1.9834264383e+05 E
                      2.2119307271e-02 b
                      8.4726287403e-01 cR1
                      1.0950943606e-02 cR2
                      1.7350024381e-02 a1
                      2.6457776108e-02 a3

(Asynchronous job 73 added to queue)


>>>>> Dakota finite difference gradient evaluation for x[4] + h:

---------------------
Begin Evaluation   74
---------------------
Parameters for evaluation 74:
                      4.7896230959e+02 fy
                      1.9834264383e+05 E
                      2.2097210061e-02 b
                      8.4811013690e-01 cR1
                      1.0950943606e-02 cR2
                      1.7350024381e-02 a1
                      2.6457776108e-02 a3

(Asynchronous job 74 added to queue)


>>>>> Dakota finite difference gradient evaluation for x[5] + h:

---------------------
Begin Evaluation   75
---------------------
Parameters for evaluation 75:
                      4.7896230959e+02 fy
                      1.9834264383e+05 E
                      2.2097210061e-02 b
                      8.4726287403e-01 cR1
                      1.0961894550e-02 cR2
                      1.7350024381e-02 a1
                      2.6457776108e-02 a3

(Asynchronous job 75 added to queue)


>>>>> Dakota finite difference gradient evaluation for x[6] + h:

---------------------
Begin Evaluation   76
---------------------
Parameters for evaluation 76:
                      4.7896230959e+02 fy
                      1.9834264383e+05 E
                      2.2097210061e-02 b
                      8.4726287403e-01 cR1
                      1.0950943606e-02 cR2
                      1.7367374406e-02 a1
                      2.6457776108e-02 a3

(Asynchronous job 76 added to queue)


>>>>> Dakota finite difference gradient evaluation for x[7] + h:

---------------------
Begin Evaluation   77
---------------------
Parameters for evaluation 77:
                      4.7896230959e+02 fy
                      1.9834264383e+05 E
                      2.2097210061e-02 b
                      8.4726287403e-01 cR1
                      1.0950943606e-02 cR2
                      1.7350024381e-02 a1
                      2.6484233885e-02 a3

(Asynchronous job 77 added to queue)



Blocking synchronize of 7 asynchronous evaluations
First pass: initiating 7 local asynchronous jobs
Initiating evaluation 71
nonblocking fork: workflow_driver1 paramsDakota.in results.out
Initiating evaluation 72
nonblocking fork: workflow_driver1 paramsDakota.in results.out
Initiating evaluation 73
nonblocking fork: workflow_driver1 paramsDakota.in results.out
Initiating evaluation 74
nonblocking fork: workflow_driver1 paramsDakota.in results.out
Initiating evaluation 75
nonblocking fork: workflow_driver1 paramsDakota.in results.out
Initiating evaluation 76
nonblocking fork: workflow_driver1 paramsDakota.in results.out
Initiating evaluation 77
nonblocking fork: workflow_driver1 paramsDakota.in results.out
Waiting on completed jobs
Evaluation 71 has completed
Evaluation 72 has completed
Evaluation 73 has completed
Evaluation 74 has completed
Evaluation 75 has completed
Waiting on completed jobs
Evaluation 76 has completed
Waiting on completed jobs
Evaluation 77 has completed

Active response data for evaluation 71:
Active set vector = { 1 1 1 1 1 1 1 1 1 1 1 1 1 1 1 1 1 1 1 1 1 1 1 1 1 1 1 1 1 1 1 1 1 1 1 1 1 1 1 1 1 1 1 1 1 1 1 1 1 1 1 1 1 1 1 1 1 1 1 1 1 1 1 1 1 1 1 1 1 1 1 1 1 1 1 1 1 1 1 1 1 1 1 1 1 1 1 1 1 1 1 1 1 1 1 1 1 1 1 1 1 1 1 1 1 1 1 1 1 1 1 1 1 1 1 1 1 1 1 1 1 1 1 1 1 1 1 1 1 1 1 1 1 1 1 1 1 1 1 1 1 1 1 1 1 1 1 1 1 1 1 1 1 1 1 1 1 1 1 1 1 1 1 1 1 1 1 1 1 1 1 1 1 1 1 1 1 1 1 1 1 1 1 1 1 1 1 1 1 1 1 1 1 1 1 1 1 1 1 1 1 1 1 1 1 1 1 1 1 1 1 1 1 1 1 1 1 1 1 1 1 1 1 1 1 1 1 1 1 1 1 1 1 1 1 1 1 1 1 1 1 1 1 1 1 1 1 1 1 1 1 1 1 1 1 1 1 1 1 1 1 1 1 1 1 1 1 1 1 1 1 1 1 1 1 1 1 1 1 1 1 1 1 1 1 1 1 1 1 1 1 1 1 1 1 1 1 1 1 1 1 1 1 1 1 1 1 1 1 1 1 1 1 1 1 1 1 1 1 1 1 1 1 1 1 1 1 1 1 1 1 1 1 1 1 1 1 1 1 1 1 1 }
                      2.3113338357e+00 stress_1
                     -2.4018476246e+02 stress_2
                     -4.9022123545e+02 stress_3
                     -4.9306395744e+02 stress_4
                     -1.8012737717e+02 stress_5
                      2.1107811839e+02 stress_6
                      3.6107906743e+02 stress_7
                      3.6205129214e+02 stress_8
                      1.2442153821e+02 stress_9
                     -2.2492404684e+02 stress_10
                     -4.1810796876e+02 stress_11
                     -4.7569452257e+02 stress_12
                     -4.9422543800e+02 stress_13
                     -4.9557360057e+02 stress_14
                     -1.7895907684e+02 stress_15
                     -3.3910140009e+02 stress_16
                     -4.8799837258e+02 stress_17
                     -3.0197362750e+02 stress_18
                      2.3474333210e+01 stress_19
                      2.9993894480e+02 stress_20
                      4.2068155551e+02 stress_21
                      4.6560522728e+02 stress_22
                      4.8428128968e+02 stress_23
                      4.9050276018e+02 stress_24
                      1.7329228925e+02 stress_25
                      2.9553308788e+02 stress_26
                      4.2785050165e+02 stress_27
                      4.5656793710e+02 stress_28
                      3.3926592965e+02 stress_29
                      1.3373497016e+02 stress_30
                     -1.1795280121e+02 stress_31
                     -3.1922328846e+02 stress_32
                     -4.2593400794e+02 stress_33
                     -4.7591356255e+02 stress_34
                     -5.0284256799e+02 stress_35
                     -5.2068073032e+02 stress_36
                     -5.3432216885e+02 stress_37
                     -5.4540220447e+02 stress_38
                     -5.5439441676e+02 stress_39
                     -5.6134884084e+02 stress_40
                     -5.6618714609e+02 stress_41
                     -5.6880916520e+02 stress_42
                     -5.5404911088e+02 stress_43
                     -1.7962727732e+02 stress_44
                      9.5156215989e+01 stress_45
                     -1.0147570249e+02 stress_46
                     -4.2123143984e+02 stress_47
                     -1.3636537260e+02 stress_48
                     -2.3459737316e+02 stress_49
                     -3.8727613827e+02 stress_50
                     -5.5441024152e+02 stress_51
                     -3.9195011443e+02 stress_52
                     -6.0487424155e+01 stress_53
                      2.3623621689e+02 stress_54
                      3.6882468432e+02 stress_55
                      4.1565086532e+02 stress_56
                      4.2947165619e+02 stress_57
                      3.4704301197e+02 stress_58
                      4.4397281784e+01 stress_59
                     -2.9645328722e+02 stress_60
                     -4.6424956713e+02 stress_61
                     -5.1924468022e+02 stress_62
                     -5.3138694957e+02 stress_63
                     -2.7384155508e+02 stress_64
                      1.0722795967e+02 stress_65
                      1.9925154601e+02 stress_66
                     -5.9840980011e+01 stress_67
                     -4.0875454954e+02 stress_68
                     -5.1234100786e+02 stress_69
                     -5.1367504751e+02 stress_70
                     -4.2260002162e+02 stress_71
                     -2.5700558434e+02 stress_72
                     -3.6242831262e+01 stress_73
                      1.8002495352e+02 stress_74
                      3.2594501465e+02 stress_75
                      4.0247968377e+02 stress_76
                      4.4219990962e+02 stress_77
                      4.6613027446e+02 stress_78
                      4.8333913520e+02 stress_79
                      4.9737727705e+02 stress_80
                      5.0959037994e+02 stress_81
                      5.2043892840e+02 stress_82
                      5.3001684585e+02 stress_83
                      5.3826853199e+02 stress_84
                      5.4508080953e+02 stress_85
                      5.5033371719e+02 stress_86
                      5.5392281904e+02 stress_87
                      5.5576906773e+02 stress_88
                      4.8539519067e+02 stress_89
                      6.0851577548e+01 stress_90
                     -1.5161239117e+02 stress_91
                      1.2426254641e+02 stress_92
                      4.3855588675e+02 stress_93
                      4.4491533230e+02 stress_94
                      3.8745366565e+02 stress_95
                      2.8394514535e+02 stress_96
                      1.3811756010e+02 stress_97
                     -3.5689620944e+01 stress_98
                     -2.0402996191e+02 stress_99
                     -3.3098639915e+02 stress_100
                     -4.0943085387e+02 stress_101
                     -4.5467431228e+02 stress_102
                     -4.8224267589e+02 stress_103
                     -5.0123545535e+02 stress_104
                     -5.1614589876e+02 stress_105
                     -5.2909930465e+02 stress_106
                     -5.4109157726e+02 stress_107
                     -5.5258106365e+02 stress_108
                     -5.6376289359e+02 stress_109
                     -5.7469908336e+02 stress_110
                     -5.8538148138e+02 stress_111
                     -5.9576360131e+02 stress_112
                     -6.0578034971e+02 stress_113
                     -6.1535675049e+02 stress_114
                     -6.2441347381e+02 stress_115
                     -6.3287156115e+02 stress_116
                     -6.4065379334e+02 stress_117
                     -6.4768926013e+02 stress_118
                     -6.5391212704e+02 stress_119
                     -6.5926216137e+02 stress_120
                     -6.6368968057e+02 stress_121
                     -6.6715174562e+02 stress_122
                     -6.6961461836e+02 stress_123
                     -6.7105550166e+02 stress_124
                     -6.7144259264e+02 stress_125
                     -5.7350321186e+02 stress_126
                     -3.3069928276e+02 stress_127
                     -1.7092137631e+01 stress_128
                      2.1680034620e+02 stress_129
                      3.2877072351e+02 stress_130
                      3.7754345154e+02 stress_131
                      4.0052449897e+02 stress_132
                      4.1088760018e+02 stress_133
                      4.1146602034e+02 stress_134
                      2.2072824620e+01 stress_135
                      5.8388330776e-01 stress_136
                      1.7942134428e+02 stress_137
                      1.4493187102e+02 stress_138
                     -2.0126406082e+01 stress_139
                     -3.0546201948e+02 stress_140
                     -5.2934213474e+02 stress_141
                     -6.2043346000e+02 stress_142
                     -6.5487671719e+02 stress_143
                     -6.7043231131e+02 stress_144
                     -6.7688661581e+02 stress_145
                     -6.5741792491e+02 stress_146
                     -4.2907463044e+02 stress_147
                     -7.6783850840e+01 stress_148
                      1.9142718187e+02 stress_149
                      3.0783518582e+02 stress_150
                      3.4858474095e+02 stress_151
                      3.5349879084e+02 stress_152
                      1.4680871902e+02 stress_153
                     -2.1102497676e+02 stress_154
                     -4.8163816915e+02 stress_155
                     -5.8780596831e+02 stress_156
                     -6.1805048888e+02 stress_157
                     -5.0083032204e+02 stress_158
                     -1.0171366520e+02 stress_159
                      8.9864802384e+01 stress_160
                     -6.9204705874e+01 stress_161
                     -4.3950216272e+02 stress_162
                     -6.0036618941e+02 stress_163
                     -6.1392460443e+02 stress_164
                     -5.7406767782e+02 stress_165
                     -4.9544153510e+02 stress_166
                     -3.7929140453e+02 stress_167
                     -2.3034453550e+02 stress_168
                     -6.2940217358e+01 stress_169
                      9.6175514264e+01 stress_170
                      2.2075471458e+02 stress_171
                      3.0390412480e+02 stress_172
                      3.5548949301e+02 stress_173
                      3.8803640404e+02 stress_174
                      4.1025204091e+02 stress_175
                      4.2706519160e+02 stress_176
                      4.4107874285e+02 stress_177
                      4.5364518427e+02 stress_178
                      4.6546402548e+02 stress_179
                      4.7689380365e+02 stress_180
                      4.8811054045e+02 stress_181
                      4.9918834247e+02 stress_182
                      5.1014482440e+02 stress_183
                      5.2096378255e+02 stress_184
                      5.3161000238e+02 stress_185
                      5.4203645460e+02 stress_186
                      5.5218963151e+02 stress_187
                      5.6201302685e+02 stress_188
                      5.7144835457e+02 stress_189
                      5.8043814283e+02 stress_190
                      5.8892639407e+02 stress_191
                      5.9685823652e+02 stress_192
                      6.0418381732e+02 stress_193
                      6.1085538988e+02 stress_194
                      6.1682854400e+02 stress_195
                      6.2206529037e+02 stress_196
                      6.2653009654e+02 stress_197
                      6.3019440954e+02 stress_198
                      6.3303409618e+02 stress_199
                      6.3502949806e+02 stress_200
                      6.3616813596e+02 stress_201
                      6.3622391059e+02 stress_202
                      2.8726672812e+02 stress_203
                     -6.5236381427e+01 stress_204
                      3.8709497371e+01 stress_205
                      4.4435516073e+02 stress_206
                      4.6119542165e+02 stress_207
                      3.9931748769e+02 stress_208
                      2.8713060667e+02 stress_209
                      1.2957997739e+02 stress_210
                     -5.3990595820e+01 stress_211
                     -2.2243385196e+02 stress_212
                     -3.4055418452e+02 stress_213
                     -4.0955803003e+02 stress_214
                     -4.4873972626e+02 stress_215
                     -4.7315196003e+02 stress_216
                     -4.9068640918e+02 stress_217
                     -5.0502538240e+02 stress_218
                     -5.1784329484e+02 stress_219
                     -5.2989291582e+02 stress_220
                     -5.4149709167e+02 stress_221
                     -5.5276959058e+02 stress_222
                     -5.6371960875e+02 stress_223
                     -5.7430202879e+02 stress_224
                     -5.8444474269e+02 stress_225
                     -5.9406212085e+02 stress_226
                     -6.0306355166e+02 stress_227
                     -6.1136015702e+02 stress_228
                     -6.1886445231e+02 stress_229
                     -6.2549787440e+02 stress_230
                     -6.3118910176e+02 stress_231
                     -6.3587459478e+02 stress_232
                     -6.3950470629e+02 stress_233
                     -6.4203908886e+02 stress_234
                     -6.4344864568e+02 stress_235
                     -6.3725262007e+02 stress_236
                     -2.8569290930e+02 stress_237
                      1.4752663557e+01 stress_238
                     -1.9678967345e+02 stress_239
                     -4.5044622250e+02 stress_240
                     -1.3077220339e+02 stress_241
                      4.8707050754e+01 stress_242
                     -2.7362515866e+02 stress_243
                     -3.9996522499e+02 stress_244
                     -5.1292864786e+02 stress_245
                     -3.3587862375e+02 stress_246
                     -2.6027329150e+00 stress_247
                      2.7601617695e+02 stress_248
                      3.9499192959e+02 stress_249
                      4.3677675843e+02 stress_250
                      4.4846067444e+02 stress_251
                      3.4781288630e+02 stress_252
                      3.5608699443e+01 stress_253
                     -3.1037386529e+02 stress_254
                     -4.9251229986e+02 stress_255
                     -5.5623342798e+02 stress_256
                     -5.6869677927e+02 stress_257
                     -3.0240677881e+02 stress_258
                      8.4018787418e+01 stress_259
                      2.1140132788e+02 stress_260
                      5.7531992891e+00 stress_261
                     -3.6293105609e+02 stress_262
                     -5.2971990368e+02 stress_263
                     -5.5232812283e+02 stress_264
                     -5.1220145800e+02 stress_265
                     -4.2213560140e+02 stress_266
                     -2.8432995539e+02 stress_267
                     -1.0792794190e+02 stress_268
                      8.0803380659e+01 stress_269
                      2.4118185244e+02 stress_270
                      3.4969523162e+02 stress_271
                      4.1411455351e+02 stress_272
                      4.5224482978e+02 stress_273
                      4.7692373149e+02 stress_274
                      4.9501960922e+02 stress_275
                      5.0987985053e+02 stress_276
                      5.2310226762e+02 stress_277
                      5.3544045117e+02 stress_278
                      5.4723609714e+02 stress_279
                      5.5862356310e+02 stress_280
                      5.6962954604e+02 stress_281
                      5.8022381537e+02 stress_282
                      5.9034572497e+02 stress_283
                      5.9992025387e+02 stress_284
                      6.0886510302e+02 stress_285
                      6.1709835604e+02 stress_286
                      6.2454065287e+02 stress_287
                      6.3111704350e+02 stress_288
                      6.3676159459e+02 stress_289
                      6.4141617942e+02 stress_290
                      6.4503187894e+02 stress_291
                      6.4757180053e+02 stress_292
                      6.4900867209e+02 stress_293
                      6.4902989052e+02 stress_294
                      2.8844550924e+02 stress_295
                     -5.6328583825e+01 stress_296
                      6.8307412039e+01 stress_297
                      4.5741568614e+02 stress_298
                      4.7055203754e+02 stress_299
                      4.2901785973e+02 stress_300
                      3.5413839445e+02 stress_301
                      2.4698802378e+02 stress_302
                      1.1195492833e+02 stress_303
                     -3.8537429138e+01 stress_304
                     -1.8151987538e+02 stress_305
                     -2.9454254301e+02 stress_306
                     -3.7114693748e+02 stress_307
                     -4.1932508848e+02 stress_308
                     -4.4995525732e+02 stress_309
                     -4.7087431744e+02 stress_310
                     -4.8665115560e+02 stress_311
                     -4.9975490507e+02 stress_312
                     -5.1149219190e+02 stress_313
                     -5.2255628821e+02 stress_314
                     -5.3331383765e+02 stress_315
                     -5.4395438660e+02 stress_316
                     -5.5456965628e+02 stress_317
                     -5.6519475968e+02 stress_318
                     -5.7583169356e+02 stress_319
                     -5.8646281488e+02 stress_320
                     -5.9705769434e+02 stress_321
                     -6.0757882388e+02 stress_322
                     -6.1798345215e+02 stress_323
                     -6.2822647581e+02 stress_324
                     -6.3826182503e+02 stress_325
                     -6.4804184122e+02 stress_326
                     -6.5752051475e+02 stress_327
                     -6.6665073557e+02 stress_328
                     -6.7538867748e+02 stress_329
                     -6.8369122667e+02 stress_330
                     -6.9151658058e+02 stress_331
                     -6.9882638857e+02 stress_332
                     -7.0558351237e+02 stress_333
                     -7.1175444947e+02 stress_334
                     -7.1730886200e+02 stress_335
                     -7.2221716886e+02 stress_336
                     -7.2645621144e+02 stress_337
                     -7.3000395838e+02 stress_338
                     -7.3284237411e+02 stress_339
                     -7.3495772250e+02 stress_340
                     -7.3633905714e+02 stress_341
                     -7.3697915853e+02 stress_342


Active response data for evaluation 72:
Active set vector = { 1 1 1 1 1 1 1 1 1 1 1 1 1 1 1 1 1 1 1 1 1 1 1 1 1 1 1 1 1 1 1 1 1 1 1 1 1 1 1 1 1 1 1 1 1 1 1 1 1 1 1 1 1 1 1 1 1 1 1 1 1 1 1 1 1 1 1 1 1 1 1 1 1 1 1 1 1 1 1 1 1 1 1 1 1 1 1 1 1 1 1 1 1 1 1 1 1 1 1 1 1 1 1 1 1 1 1 1 1 1 1 1 1 1 1 1 1 1 1 1 1 1 1 1 1 1 1 1 1 1 1 1 1 1 1 1 1 1 1 1 1 1 1 1 1 1 1 1 1 1 1 1 1 1 1 1 1 1 1 1 1 1 1 1 1 1 1 1 1 1 1 1 1 1 1 1 1 1 1 1 1 1 1 1 1 1 1 1 1 1 1 1 1 1 1 1 1 1 1 1 1 1 1 1 1 1 1 1 1 1 1 1 1 1 1 1 1 1 1 1 1 1 1 1 1 1 1 1 1 1 1 1 1 1 1 1 1 1 1 1 1 1 1 1 1 1 1 1 1 1 1 1 1 1 1 1 1 1 1 1 1 1 1 1 1 1 1 1 1 1 1 1 1 1 1 1 1 1 1 1 1 1 1 1 1 1 1 1 1 1 1 1 1 1 1 1 1 1 1 1 1 1 1 1 1 1 1 1 1 1 1 1 1 1 1 1 1 1 1 1 1 1 1 1 1 1 1 1 1 1 1 1 1 1 1 1 1 1 1 1 1 1 }
                      2.3136451696e+00 stress_1
                     -2.4042439583e+02 stress_2
                     -4.8979685254e+02 stress_3
                     -4.9261826040e+02 stress_4
                     -1.7938636992e+02 stress_5
                      2.1172140589e+02 stress_6
                      3.6129144182e+02 stress_7
                      3.6225991747e+02 stress_8
                      1.2439949962e+02 stress_9
                     -2.2502995522e+02 stress_10
                     -4.1788472598e+02 stress_11
                     -4.7533474802e+02 stress_12
                     -4.9383414252e+02 stress_13
                     -4.9518055888e+02 stress_14
                     -1.7826800385e+02 stress_15
                     -3.3857111211e+02 stress_16
                     -4.8760866455e+02 stress_17
                     -3.0140005553e+02 stress_18
                      2.4239392601e+01 stress_19
                      3.0033475875e+02 stress_20
                      4.2062980315e+02 stress_21
                      4.6536346660e+02 stress_22
                      4.8397279482e+02 stress_23
                      4.9017571583e+02 stress_24
                      1.7266589026e+02 stress_25
                      2.9502923742e+02 stress_26
                      4.2750260641e+02 stress_27
                      4.5625389578e+02 stress_28
                      3.3883493151e+02 stress_29
                      1.3311966008e+02 stress_30
                     -1.1861605319e+02 stress_31
                     -3.1956104399e+02 stress_32
                     -4.2589966055e+02 stress_33
                     -4.7567977766e+02 stress_34
                     -5.0252342612e+02 stress_35
                     -5.2032751633e+02 stress_36
                     -5.3395686122e+02 stress_37
                     -5.4503430247e+02 stress_38
                     -5.5402784292e+02 stress_39
                     -5.6098481614e+02 stress_40
                     -5.6582549176e+02 stress_41
                     -5.6844896417e+02 stress_42
                     -5.5367414986e+02 stress_43
                     -1.7891567313e+02 stress_44
                      9.5851404074e+01 stress_45
                     -1.0097414719e+02 stress_46
                     -4.2080711336e+02 stress_47
                     -1.3567528688e+02 stress_48
                     -2.3400550169e+02 stress_49
                     -3.8682302343e+02 stress_50
                     -5.5391435976e+02 stress_51
                     -3.9129299469e+02 stress_52
                     -5.9609935042e+01 stress_53
                      2.3677551538e+02 stress_54
                      3.6888255281e+02 stress_55
                      4.1549622396e+02 stress_56
                      4.2925598742e+02 stress_57
                      3.4674497702e+02 stress_58
                      4.3830622768e+01 stress_59
                     -2.9694844151e+02 stress_60
                     -4.6435011760e+02 stress_61
                     -5.1915765083e+02 stress_62
                     -5.3125801973e+02 stress_63
                     -2.7346203527e+02 stress_64
                      1.0771861533e+02 stress_65
                      1.9963584065e+02 stress_66
                     -5.9705531466e+01 stress_67
                     -4.0866552279e+02 stress_68
                     -5.1211382062e+02 stress_69
                     -5.1344569329e+02 stress_70
                     -4.2227970918e+02 stress_71
                     -2.5652746498e+02 stress_72
                     -3.5634401566e+01 stress_73
                      1.8050361593e+02 stress_74
                      3.2606969664e+02 stress_75
                      4.0232098742e+02 stress_76
                      4.4189247389e+02 stress_77
                      4.6575489342e+02 stress_78
                      4.8293491239e+02 stress_79
                      4.9696268965e+02 stress_80
                      5.0917430250e+02 stress_81
                      5.2002559618e+02 stress_82
                      5.2960809326e+02 stress_83
                      5.3786485317e+02 stress_84
                      5.4468189445e+02 stress_85
                      5.4993875050e+02 stress_86
                      5.5353066368e+02 stress_87
                      5.5537839006e+02 stress_88
                      4.8493417291e+02 stress_89
                      6.0059564765e+01 stress_90
                     -1.5231428930e+02 stress_91
                      1.2382214680e+02 stress_92
                      4.3812500277e+02 stress_93
                      4.4447990986e+02 stress_94
                      3.8696080417e+02 stress_95
                      2.8335024407e+02 stress_96
                      1.3739585551e+02 stress_97
                     -3.6478862134e+01 stress_98
                     -2.0468844087e+02 stress_99
                     -3.3133172486e+02 stress_100
                     -4.0946963973e+02 stress_101
                     -4.5451080628e+02 stress_102
                     -4.8196659937e+02 stress_103
                     -5.0090108507e+02 stress_104
                     -5.1578305885e+02 stress_105
                     -5.2872423617e+02 stress_106
                     -5.4071332511e+02 stress_107
                     -5.5220481489e+02 stress_108
                     -5.6339169272e+02 stress_109
                     -5.7433472829e+02 stress_110
                     -5.8502500471e+02 stress_111
                     -5.9541553696e+02 stress_112
                     -6.0544088797e+02 stress_113
                     -6.1502583056e+02 stress_114
                     -6.2409084147e+02 stress_115
                     -6.3255680755e+02 stress_116
                     -6.4034638129e+02 stress_117
                     -6.4738854630e+02 stress_118
                     -6.5361737773e+02 stress_119
                     -6.5897256543e+02 stress_120
                     -6.6340436490e+02 stress_121
                     -6.6686978563e+02 stress_122
                     -6.6933504985e+02 stress_123
                     -6.7077733383e+02 stress_124
                     -6.7116480130e+02 stress_125
                     -5.7312759620e+02 stress_126
                     -3.3009892180e+02 stress_127
                     -1.6415292365e+01 stress_128
                      2.1710112156e+02 stress_129
                      3.2868844909e+02 stress_130
                      3.7726925010e+02 stress_131
                      4.0016857369e+02 stress_132
                      4.1050012008e+02 stress_133
                      4.1107691118e+02 stress_134
                      2.1323461694e+01 stress_135
                     -1.7984013585e-01 stress_136
                      1.7883084480e+02 stress_137
                      1.4430688592e+02 stress_138
                     -2.0911421006e+01 stress_139
                     -3.0634925467e+02 stress_140
                     -5.2977809512e+02 stress_141
                     -6.2046751234e+02 stress_142
                     -6.5475657235e+02 stress_143
                     -6.7025951251e+02 stress_144
                     -6.7669745317e+02 stress_145
                     -6.5720929373e+02 stress_146
                     -4.2864232414e+02 stress_147
                     -7.6163029349e+01 stress_148
                      1.9174377860e+02 stress_149
                      3.0780487464e+02 stress_150
                      3.4840498331e+02 stress_151
                      3.5330068479e+02 stress_152
                      1.4640618165e+02 stress_153
                     -2.1165165792e+02 stress_154
                     -4.8201693633e+02 stress_155
                     -5.8791142501e+02 stress_156
                     -6.1806288660e+02 stress_157
                     -5.0072573780e+02 stress_158
                     -1.0130740574e+02 stress_159
                      9.0211643007e+01 stress_160
                     -6.9015584760e+01 stress_161
                     -4.3950463782e+02 stress_162
                     -6.0022815248e+02 stress_163
                     -6.1376796878e+02 stress_164
                     -5.7387118865e+02 stress_165
                     -4.9516670053e+02 stress_166
                     -3.7890468984e+02 stress_167
                     -2.2983779119e+02 stress_168
                     -6.2377703321e+01 stress_169
                      9.6639079953e+01 stress_170
                      2.2097958594e+02 stress_171
                      3.0387329725e+02 stress_172
                      3.5526835556e+02 stress_173
                      3.8769668168e+02 stress_174
                      4.0984438060e+02 stress_175
                      4.2662064845e+02 stress_176
                      4.4061563307e+02 stress_177
                      4.5317434464e+02 stress_178
                      4.6499199857e+02 stress_179
                      4.7642463766e+02 stress_180
                      4.8764679614e+02 stress_181
                      4.9873166122e+02 stress_182
                      5.0969625603e+02 stress_183
                      5.2052397818e+02 stress_184
                      5.3117933176e+02 stress_185
                      5.4161507874e+02 stress_186
                      5.5177754937e+02 stress_187
                      5.6161010666e+02 stress_188
                      5.7105435469e+02 stress_189
                      5.8005272766e+02 stress_190
                      5.8854914586e+02 stress_191
                      5.9648866367e+02 stress_192
                      6.0382136437e+02 stress_193
                      6.1049944329e+02 stress_194
                      6.1647843809e+02 stress_195
                      6.2172031561e+02 stress_196
                      6.2618950356e+02 stress_197
                      6.2985741712e+02 stress_198
                      6.3269989656e+02 stress_199
                      6.3469726215e+02 stress_200
                      6.3583702104e+02 stress_201
                      6.3589285060e+02 stress_202
                      2.8660500529e+02 stress_203
                     -6.5960212780e+01 stress_204
                      3.8089520154e+01 stress_205
                      4.4395892118e+02 stress_206
                      4.6079153815e+02 stress_207
                      3.9885175737e+02 stress_208
                      2.8655473152e+02 stress_209
                      1.2887283334e+02 stress_210
                     -5.4740847186e+01 stress_211
                     -2.2299494214e+02 stress_212
                     -3.4077366251e+02 stress_213
                     -4.0948992308e+02 stress_214
                     -4.4849858474e+02 stress_215
                     -4.7281985910e+02 stress_216
                     -4.9030939808e+02 stress_217
                     -5.0462790484e+02 stress_218
                     -5.1743845052e+02 stress_219
                     -5.2948793011e+02 stress_220
                     -5.4109605976e+02 stress_221
                     -5.5237486046e+02 stress_222
                     -5.6333249707e+02 stress_223
                     -5.7392320449e+02 stress_224
                     -5.8407444173e+02 stress_225
                     -5.9370027092e+02 stress_226
                     -6.0270984867e+02 stress_227
                     -6.1101411615e+02 stress_228
                     -6.1852544048e+02 stress_229
                     -6.2516513874e+02 stress_230
                     -6.3086178991e+02 stress_231
                     -6.3555177150e+02 stress_232
                     -6.3918537333e+02 stress_233
                     -6.4172219870e+02 stress_234
                     -6.4313311614e+02 stress_235
                     -6.3693089451e+02 stress_236
                     -2.8503892001e+02 stress_237
                      1.5498402231e+01 stress_238
                     -1.9625302997e+02 stress_239
                     -4.5010813477e+02 stress_240
                     -1.3013860310e+02 stress_241
                      4.9397307529e+01 stress_242
                     -2.7324244436e+02 stress_243
                     -3.9966781890e+02 stress_244
                     -5.1266415037e+02 stress_245
                     -3.3543876535e+02 stress_246
                     -1.9517218362e+00 stress_247
                      2.7635799730e+02 stress_248
                      3.9494400893e+02 stress_249
                      4.3656362633e+02 stress_250
                      4.4820298863e+02 stress_251
                      3.4745466282e+02 stress_252
                      3.4972434856e+01 stress_253
                     -3.1098789188e+02 stress_254
                     -4.9276920859e+02 stress_255
                     -5.5629267239e+02 stress_256
                     -5.6871461592e+02 stress_257
                     -3.0216436124e+02 stress_258
                      8.4425631511e+01 stress_259
                      2.1169753245e+02 stress_260
                      5.8465263320e+00 stress_261
                     -3.6303121311e+02 stress_262
                     -5.2967646383e+02 stress_263
                     -5.5224814396e+02 stress_264
                     -5.1208135564e+02 stress_265
                     -4.2192580803e+02 stress_266
                     -2.8398906659e+02 stress_267
                     -1.0745870826e+02 stress_268
                      8.1285801346e+01 stress_269
                      2.4148554650e+02 stress_270
                      3.4973710425e+02 stress_271
                      4.1394852134e+02 stress_272
                      4.5195289188e+02 stress_273
                      4.7656402043e+02 stress_274
                      4.9462592846e+02 stress_275
                      5.0947093899e+02 stress_276
                      5.2268857075e+02 stress_277
                      5.3502792039e+02 stress_278
                      5.4682818899e+02 stress_279
                      5.5822228988e+02 stress_280
                      5.6923603962e+02 stress_281
                      5.7983863931e+02 stress_282
                      5.8996905340e+02 stress_283
                      5.9955197922e+02 stress_284
                      6.0850490235e+02 stress_285
                      6.1674573676e+02 stress_286
                      6.2419498406e+02 stress_287
                      6.3077757911e+02 stress_288
                      6.3642749477e+02 stress_289
                      6.4108652686e+02 stress_290
                      6.4470569409e+02 stress_291
                      6.4724805788e+02 stress_292
                      6.4868631316e+02 stress_293
                      6.4870755204e+02 stress_294
                      2.8778253859e+02 stress_295
                     -5.7054773181e+01 stress_296
                      6.7705556771e+01 stress_297
                      4.5703363665e+02 stress_298
                      4.7016666211e+02 stress_299
                      4.2859095601e+02 stress_300
                      3.5363699193e+02 stress_301
                      2.4638455068e+02 stress_302
                      1.1124813062e+02 stress_303
                     -3.9278269685e+01 stress_304
                     -1.8214104108e+02 stress_305
                     -2.9490714083e+02 stress_306
                     -3.7123793047e+02 stress_307
                     -4.1920913772e+02 stress_308
                     -4.4970763618e+02 stress_309
                     -4.7054951023e+02 stress_310
                     -4.8628316923e+02 stress_311
                     -4.9936404848e+02 stress_312
                     -5.1109059661e+02 stress_313
                     -5.2215133917e+02 stress_314
                     -5.3291015168e+02 stress_315
                     -5.4355493117e+02 stress_316
                     -5.5417638678e+02 stress_317
                     -5.6480898841e+02 stress_318
                     -5.7545430806e+02 stress_319
                     -5.8609441032e+02 stress_320
                     -5.9669865498e+02 stress_321
                     -6.0722937538e+02 stress_322
                     -6.1764369478e+02 stress_323
                     -6.2789640731e+02 stress_324
                     -6.3794135650e+02 stress_325
                     -6.4773080712e+02 stress_326
                     -6.5721868241e+02 stress_327
                     -6.6635780977e+02 stress_328
                     -6.7510430761e+02 stress_329
                     -6.8341501036e+02 stress_330
                     -6.9124806709e+02 stress_331
                     -6.9856508378e+02 stress_332
                     -7.0532888113e+02 stress_333
                     -7.1150592012e+02 stress_334
                     -7.1706583021e+02 stress_335
                     -7.2197899889e+02 stress_336
                     -7.2622224296e+02 stress_337
                     -7.2977350793e+02 stress_338
                     -7.3261473936e+02 stress_339
                     -7.3473218674e+02 stress_340
                     -7.3611489229e+02 stress_341
                     -7.3675562901e+02 stress_342


Active response data for evaluation 73:
Active set vector = { 1 1 1 1 1 1 1 1 1 1 1 1 1 1 1 1 1 1 1 1 1 1 1 1 1 1 1 1 1 1 1 1 1 1 1 1 1 1 1 1 1 1 1 1 1 1 1 1 1 1 1 1 1 1 1 1 1 1 1 1 1 1 1 1 1 1 1 1 1 1 1 1 1 1 1 1 1 1 1 1 1 1 1 1 1 1 1 1 1 1 1 1 1 1 1 1 1 1 1 1 1 1 1 1 1 1 1 1 1 1 1 1 1 1 1 1 1 1 1 1 1 1 1 1 1 1 1 1 1 1 1 1 1 1 1 1 1 1 1 1 1 1 1 1 1 1 1 1 1 1 1 1 1 1 1 1 1 1 1 1 1 1 1 1 1 1 1 1 1 1 1 1 1 1 1 1 1 1 1 1 1 1 1 1 1 1 1 1 1 1 1 1 1 1 1 1 1 1 1 1 1 1 1 1 1 1 1 1 1 1 1 1 1 1 1 1 1 1 1 1 1 1 1 1 1 1 1 1 1 1 1 1 1 1 1 1 1 1 1 1 1 1 1 1 1 1 1 1 1 1 1 1 1 1 1 1 1 1 1 1 1 1 1 1 1 1 1 1 1 1 1 1 1 1 1 1 1 1 1 1 1 1 1 1 1 1 1 1 1 1 1 1 1 1 1 1 1 1 1 1 1 1 1 1 1 1 1 1 1 1 1 1 1 1 1 1 1 1 1 1 1 1 1 1 1 1 1 1 1 1 1 1 1 1 1 1 1 1 1 1 1 1 }
                      2.3113338357e+00 stress_1
                     -2.4018448900e+02 stress_2
                     -4.8976866013e+02 stress_3
                     -4.9260088623e+02 stress_4
                     -1.7967305470e+02 stress_5
                      2.1129021014e+02 stress_6
                      3.6100496574e+02 stress_7
                      3.6197487867e+02 stress_8
                      1.2434857961e+02 stress_9
                     -2.2486578497e+02 stress_10
                     -4.1779520581e+02 stress_11
                     -4.7529326226e+02 stress_12
                     -4.9380518931e+02 stress_13
                     -4.9515236583e+02 stress_14
                     -1.7854704491e+02 stress_15
                     -3.3868969136e+02 stress_16
                     -4.8758328800e+02 stress_17
                     -3.0155961323e+02 stress_18
                      2.3822037709e+01 stress_19
                      2.9996816383e+02 stress_20
                      4.2043477907e+02 stress_21
                      4.6524957527e+02 stress_22
                      4.8388933501e+02 stress_23
                      4.9010115987e+02 stress_24
                      1.7289952719e+02 stress_25
                      2.9514048035e+02 stress_26
                      4.2746981591e+02 stress_27
                      4.5618999875e+02 stress_28
                      3.3888816223e+02 stress_29
                      1.3336770632e+02 stress_30
                     -1.1821930993e+02 stress_31
                     -3.1923037845e+02 stress_32
                     -4.2570880458e+02 stress_33
                     -4.7557280887e+02 stress_34
                     -5.0245579129e+02 stress_35
                     -5.2027832406e+02 stress_36
                     -5.3391686104e+02 stress_37
                     -5.4499919651e+02 stress_38
                     -5.5399548193e+02 stress_39
                     -5.6095403321e+02 stress_40
                     -5.6579559285e+02 stress_41
                     -5.6841948386e+02 stress_42
                     -5.5365942957e+02 stress_43
                     -1.7925629146e+02 stress_44
                      9.5383272907e+01 stress_45
                     -1.0124715510e+02 stress_46
                     -4.2088263300e+02 stress_47
                     -1.3602602943e+02 stress_48
                     -2.3425802123e+02 stress_49
                     -3.8692988214e+02 stress_50
                     -5.5396065345e+02 stress_51
                     -3.9150113152e+02 stress_52
                     -6.0093427190e+01 stress_53
                      2.3631682404e+02 stress_54
                      3.6860564043e+02 stress_55
                      4.1530881145e+02 stress_56
                      4.2909529372e+02 stress_57
                      3.4666668043e+02 stress_58
                      4.4037780317e+01 stress_59
                     -2.9660934400e+02 stress_60
                     -4.6413111374e+02 stress_61
                     -5.1901117193e+02 stress_62
                     -5.3112862582e+02 stress_63
                     -2.7358667088e+02 stress_64
                      1.0734956258e+02 stress_65
                      1.9927547844e+02 stress_66
                     -5.9811974970e+01 stress_67
                     -4.0857686091e+02 stress_68
                     -5.1204718052e+02 stress_69
                     -5.1337958428e+02 stress_70
                     -4.2230461619e+02 stress_71
                     -2.5671403233e+02 stress_72
                     -3.5996014887e+01 stress_73
                      1.8010098243e+02 stress_74
                      3.2577610647e+02 stress_75
                      4.0213828934e+02 stress_76
                      4.4177337363e+02 stress_77
                      4.6566781210e+02 stress_78
                      4.8286409507e+02 stress_79
                      4.9690054379e+02 stress_80
                      5.0911704085e+02 stress_81
                      5.1997122737e+02 stress_82
                      5.2955551034e+02 stress_83
                      5.3781340625e+02 stress_84
                      5.4463118000e+02 stress_85
                      5.4988850256e+02 stress_86
                      5.5348069390e+02 stress_87
                      5.5532855209e+02 stress_88
                      4.8495469176e+02 stress_89
                      6.0457357516e+01 stress_90
                     -1.5185715146e+02 stress_91
                      1.2401064352e+02 stress_92
                      4.3815369995e+02 stress_93
                      4.4450785523e+02 stress_94
                      3.8704619978e+02 stress_95
                      2.8353840684e+02 stress_96
                      1.3772024185e+02 stress_97
                     -3.6034339512e+01 stress_98
                     -2.0422685112e+02 stress_99
                     -3.3096671854e+02 stress_100
                     -4.0922393141e+02 stress_101
                     -4.5435032179e+02 stress_102
                     -4.8185640775e+02 stress_103
                     -5.0081915218e+02 stress_104
                     -5.1571713343e+02 stress_105
                     -5.2866764793e+02 stress_106
                     -5.4066237893e+02 stress_107
                     -5.5215740080e+02 stress_108
                     -5.6334656461e+02 stress_109
                     -5.7429112540e+02 stress_110
                     -5.8498244769e+02 stress_111
                     -5.9537371479e+02 stress_112
                     -6.0539959342e+02 stress_113
                     -6.1498492204e+02 stress_114
                     -6.2405021993e+02 stress_115
                     -6.3251640218e+02 stress_116
                     -6.4030614034e+02 stress_117
                     -6.4734843118e+02 stress_118
                     -6.5357735900e+02 stress_119
                     -6.5893262008e+02 stress_120
                     -6.6336447449e+02 stress_121
                     -6.6682993490e+02 stress_122
                     -6.6929522576e+02 stress_123
                     -6.7073752474e+02 stress_124
                     -6.7112499616e+02 stress_125
                     -5.7318567232e+02 stress_126
                     -3.3039067779e+02 stress_127
                     -1.6900733655e+01 stress_128
                      2.1669165994e+02 stress_129
                      3.2842228416e+02 stress_130
                      3.7708286641e+02 stress_131
                      4.0001829834e+02 stress_132
                      4.1036450598e+02 stress_133
                      4.1094207226e+02 stress_134
                      2.1563290120e+01 stress_135
                      7.7873958193e-02 stress_136
                      1.7891261700e+02 stress_137
                      1.4442314566e+02 stress_138
                     -2.0632640630e+01 stress_139
                     -3.0587761204e+02 stress_140
                     -5.2942493954e+02 stress_141
                     -6.2027794804e+02 stress_142
                     -6.5463547369e+02 stress_143
                     -6.7016371212e+02 stress_144
                     -6.7661017050e+02 stress_145
                     -6.5714147968e+02 stress_146
                     -4.2880049408e+02 stress_147
                     -7.6590653858e+01 stress_148
                      1.9133862727e+02 stress_149
                      3.0752152190e+02 stress_150
                      3.4818082319e+02 stress_151
                      3.5308401966e+02 stress_152
                      1.4639506558e+02 stress_153
                     -2.1137257071e+02 stress_154
                     -4.8173087152e+02 stress_155
                     -5.8771511916e+02 stress_156
                     -6.1790155538e+02 stress_157
                     -5.0068150628e+02 stress_158
                     -1.0161297587e+02 stress_159
                      8.9841788476e+01 stress_160
                     -6.9227050251e+01 stress_161
                     -4.3943635749e+02 stress_162
                     -6.0015418849e+02 stress_163
                     -6.1369746150e+02 stress_164
                     -5.7384053658e+02 stress_165
                     -4.9521453274e+02 stress_166
                     -3.7906651446e+02 stress_167
                     -2.3013394734e+02 stress_168
                     -6.2784806410e+01 stress_169
                      9.6203600581e+01 stress_170
                      2.2060438263e+02 stress_171
                      3.0358913465e+02 stress_172
                      3.5505964367e+02 stress_173
                      3.8753811975e+02 stress_174
                      4.0971662476e+02 stress_175
                      4.2651152108e+02 stress_176
                      4.4051790334e+02 stress_177
                      4.5308374963e+02 stress_178
                      4.6490598891e+02 stress_179
                      4.7634165447e+02 stress_180
                      4.8756586209e+02 stress_181
                      4.9865214786e+02 stress_182
                      5.0961774943e+02 stress_183
                      5.2044619936e+02 stress_184
                      5.3110208872e+02 stress_185
                      5.4153823665e+02 stress_186
                      5.5170101180e+02 stress_187
                      5.6153380347e+02 stress_188
                      5.7097823400e+02 stress_189
                      5.7997675052e+02 stress_190
                      5.8847328257e+02 stress_191
                      5.9641289127e+02 stress_192
                      6.0374566485e+02 stress_193
                      6.1042380232e+02 stress_194
                      6.1640284406e+02 stress_195
                      6.2164475900e+02 stress_196
                      6.2611397638e+02 stress_197
                      6.2978191252e+02 stress_198
                      6.3262440858e+02 stress_199
                      6.3462178540e+02 stress_200
                      6.3576155054e+02 stress_201
                      6.3581738040e+02 stress_202
                      2.8686924790e+02 stress_203
                     -6.5490384819e+01 stress_204
                      3.8455448433e+01 stress_205
                      4.4401088952e+02 stress_206
                      4.6083905573e+02 stress_207
                      3.9896113717e+02 stress_208
                      2.8677526730e+02 stress_209
                      1.2923765002e+02 stress_210
                     -5.4263418630e+01 stress_211
                     -2.2253006830e+02 stress_212
                     -3.4042470514e+02 stress_213
                     -4.0925625858e+02 stress_214
                     -4.4833927675e+02 stress_215
                     -4.7270230038e+02 stress_216
                     -4.9021477020e+02 stress_217
                     -5.0454615200e+02 stress_218
                     -5.1736419354e+02 stress_219
                     -5.2941821044e+02 stress_220
                     -5.4102919116e+02 stress_221
                     -5.5230984578e+02 stress_222
                     -5.6326872559e+02 stress_223
                     -5.7386028969e+02 stress_224
                     -5.8401213154e+02 stress_225
                     -5.9363839625e+02 stress_226
                     -6.0264829310e+02 stress_227
                     -6.1095279754e+02 stress_228
                     -6.1846429937e+02 stress_229
                     -6.2510413106e+02 stress_230
                     -6.3080088211e+02 stress_231
                     -6.3549093726e+02 stress_232
                     -6.3912459130e+02 stress_233
                     -6.4166145088e+02 stress_234
                     -6.4307238660e+02 stress_235
                     -6.3687636099e+02 stress_236
                     -2.8532619519e+02 stress_237
                      1.5016239272e+01 stress_238
                     -1.9652492318e+02 stress_239
                     -4.5015540864e+02 stress_240
                     -1.3049334982e+02 stress_241
                      4.8925138187e+01 stress_242
                     -2.7339992446e+02 stress_243
                     -3.9972030185e+02 stress_244
                     -5.1264602070e+02 stress_245
                     -3.3559683250e+02 stress_246
                     -2.3813426454e+00 stress_247
                      2.7594793906e+02 stress_248
                      3.9467666172e+02 stress_249
                      4.3636436818e+02 stress_250
                      4.4802289267e+02 stress_251
                      3.4737515897e+02 stress_252
                      3.5187854619e+01 stress_253
                     -3.1061316823e+02 stress_254
                     -4.9248810253e+02 stress_255
                     -5.5608415825e+02 stress_256
                     -5.6852225617e+02 stress_257
                     -3.0223523723e+02 stress_258
                      8.4080839289e+01 stress_259
                      2.1134639953e+02 stress_260
                      5.6996351296e+00 stress_261
                     -3.6289865813e+02 stress_262
                     -5.2953727639e+02 stress_263
                     -5.5211748182e+02 stress_264
                     -5.1199081856e+02 stress_265
                     -4.2192514727e+02 stress_266
                     -2.8412281825e+02 stress_267
                     -1.0774455161e+02 stress_268
                      8.0900135357e+01 stress_269
                      2.4111185484e+02 stress_270
                      3.4944484525e+02 stress_271
                      4.1373450864e+02 stress_272
                      4.5179057072e+02 stress_273
                      4.7643199703e+02 stress_274
                      4.9451128926e+02 stress_275
                      5.0936644443e+02 stress_276
                      5.2259017954e+02 stress_277
                      5.3493332737e+02 stress_278
                      5.4673603910e+02 stress_279
                      5.5813176053e+02 stress_280
                      5.6914661558e+02 stress_281
                      5.7974998815e+02 stress_282
                      5.8988095457e+02 stress_283
                      5.9946428261e+02 stress_284
                      6.0841750322e+02 stress_285
                      6.1665856033e+02 stress_286
                      6.2410797566e+02 stress_287
                      6.3069069780e+02 stress_288
                      6.3634070911e+02 stress_289
                      6.4099981204e+02 stress_290
                      6.4461902982e+02 stress_291
                      6.4716142700e+02 stress_292
                      6.4859970044e+02 stress_293
                      6.4862093959e+02 stress_294
                      2.8804642766e+02 stress_295
                     -5.6588564325e+01 stress_296
                      6.8047281565e+01 stress_297
                      4.5707185743e+02 stress_298
                      4.7020012610e+02 stress_299
                      4.2866595121e+02 stress_300
                      3.5378667440e+02 stress_301
                      2.4663881875e+02 stress_302
                      1.1162141980e+02 stress_303
                     -3.8813321236e+01 stress_304
                     -1.8166599701e+02 stress_305
                     -2.9450673825e+02 stress_306
                     -3.7094024565e+02 stress_307
                     -4.1899623912e+02 stress_308
                     -4.4955162981e+02 stress_309
                     -4.7042878779e+02 stress_310
                     -4.8618393685e+02 stress_311
                     -4.9927802701e+02 stress_312
                     -5.1101286503e+02 stress_313
                     -5.2207893940e+02 stress_314
                     -5.3284126883e+02 stress_315
                     -5.4348842523e+02 stress_316
                     -5.5411152443e+02 stress_317
                     -5.6474528689e+02 stress_318
                     -5.7539144254e+02 stress_319
                     -5.8603215774e+02 stress_320
                     -5.9663685923e+02 stress_321
                     -6.0716792525e+02 stress_322
                     -6.1758250975e+02 stress_323
                     -6.2783542819e+02 stress_324
                     -6.3788053916e+02 stress_325
                     -6.4767011819e+02 stress_326
                     -6.5715809638e+02 stress_327
                     -6.6629730686e+02 stress_328
                     -6.7504387234e+02 stress_329
                     -6.8335463045e+02 stress_330
                     -6.9118773271e+02 stress_331
                     -6.9850478697e+02 stress_332
                     -7.0526861538e+02 stress_333
                     -7.1144568002e+02 stress_334
                     -7.1700561124e+02 stress_335
                     -7.2191879719e+02 stress_336
                     -7.2616205521e+02 stress_337
                     -7.2971333122e+02 stress_338
                     -7.3255457109e+02 stress_339
                     -7.3467202455e+02 stress_340
                     -7.3605473397e+02 stress_341
                     -7.3669547247e+02 stress_342


Active response data for evaluation 74:
Active set vector = { 1 1 1 1 1 1 1 1 1 1 1 1 1 1 1 1 1 1 1 1 1 1 1 1 1 1 1 1 1 1 1 1 1 1 1 1 1 1 1 1 1 1 1 1 1 1 1 1 1 1 1 1 1 1 1 1 1 1 1 1 1 1 1 1 1 1 1 1 1 1 1 1 1 1 1 1 1 1 1 1 1 1 1 1 1 1 1 1 1 1 1 1 1 1 1 1 1 1 1 1 1 1 1 1 1 1 1 1 1 1 1 1 1 1 1 1 1 1 1 1 1 1 1 1 1 1 1 1 1 1 1 1 1 1 1 1 1 1 1 1 1 1 1 1 1 1 1 1 1 1 1 1 1 1 1 1 1 1 1 1 1 1 1 1 1 1 1 1 1 1 1 1 1 1 1 1 1 1 1 1 1 1 1 1 1 1 1 1 1 1 1 1 1 1 1 1 1 1 1 1 1 1 1 1 1 1 1 1 1 1 1 1 1 1 1 1 1 1 1 1 1 1 1 1 1 1 1 1 1 1 1 1 1 1 1 1 1 1 1 1 1 1 1 1 1 1 1 1 1 1 1 1 1 1 1 1 1 1 1 1 1 1 1 1 1 1 1 1 1 1 1 1 1 1 1 1 1 1 1 1 1 1 1 1 1 1 1 1 1 1 1 1 1 1 1 1 1 1 1 1 1 1 1 1 1 1 1 1 1 1 1 1 1 1 1 1 1 1 1 1 1 1 1 1 1 1 1 1 1 1 1 1 1 1 1 1 1 1 1 1 1 1 }
                      2.3113338357e+00 stress_1
                     -2.4018424598e+02 stress_2
                     -4.8975574136e+02 stress_3
                     -4.9259087504e+02 stress_4
                     -1.7970816514e+02 stress_5
                      2.1067231367e+02 stress_6
                      3.6020260752e+02 stress_7
                      3.6117279190e+02 stress_8
                      1.2357546438e+02 stress_9
                     -2.2498172903e+02 stress_10
                     -4.1737257729e+02 stress_11
                     -4.7495060843e+02 stress_12
                     -4.9353737077e+02 stress_13
                     -4.9489053942e+02 stress_14
                     -1.7835842581e+02 stress_15
                     -3.3849634429e+02 stress_16
                     -4.8729422710e+02 stress_17
                     -3.0128196164e+02 stress_18
                      2.3749346752e+01 stress_19
                      2.9922865521e+02 stress_20
                      4.1973832757e+02 stress_21
                      4.6475239688e+02 stress_22
                      4.8350400587e+02 stress_23
                      4.8975364847e+02 stress_24
                      1.7262821093e+02 stress_25
                      2.9486811808e+02 stress_26
                      4.2710312808e+02 stress_27
                      4.5578052948e+02 stress_28
                      3.3848104584e+02 stress_29
                      1.3304741366e+02 stress_30
                     -1.1807183275e+02 stress_31
                     -3.1855237584e+02 stress_32
                     -4.2502485739e+02 stress_33
                     -4.7508122253e+02 stress_34
                     -5.0211735100e+02 stress_35
                     -5.2003205828e+02 stress_36
                     -5.3372227892e+02 stress_37
                     -5.4483286557e+02 stress_38
                     -5.5384425054e+02 stress_39
                     -5.6081059201e+02 stress_40
                     -5.6565593052e+02 stress_41
                     -5.6828138408e+02 stress_42
                     -5.5352133061e+02 stress_43
                     -1.7925942998e+02 stress_44
                      9.4834825847e+01 stress_45
                     -1.0178761052e+02 stress_46
                     -4.2083131375e+02 stress_47
                     -1.3604582394e+02 stress_48
                     -2.3427779642e+02 stress_49
                     -3.8693491411e+02 stress_50
                     -5.5375980438e+02 stress_51
                     -3.9130739115e+02 stress_52
                     -6.0205945178e+01 stress_53
                      2.3551307023e+02 stress_54
                      3.6780191747e+02 stress_55
                      4.1468469964e+02 stress_56
                      4.2854844427e+02 stress_57
                      3.4612034286e+02 stress_58
                      4.3633128365e+01 stress_59
                     -2.9619345434e+02 stress_60
                     -4.6338707783e+02 stress_61
                     -5.1835051739e+02 stress_62
                     -5.3050955382e+02 stress_63
                     -2.7300761391e+02 stress_64
                      1.0723025767e+02 stress_65
                      1.9887550171e+02 stress_66
                     -6.0163857943e+01 stress_67
                     -4.0820598850e+02 stress_68
                     -5.1151678588e+02 stress_69
                     -5.1284982823e+02 stress_70
                     -4.2177584092e+02 stress_71
                     -2.5622583746e+02 stress_72
                     -3.5793587150e+01 stress_73
                      1.7971620547e+02 stress_74
                      3.2509384954e+02 stress_75
                      4.0155521793e+02 stress_76
                      4.4137188185e+02 stress_77
                      4.6540312005e+02 stress_78
                      4.8268494572e+02 stress_79
                      4.9677170558e+02 stress_80
                      5.0901681572e+02 stress_81
                      5.1988663107e+02 stress_82
                      5.2947886939e+02 stress_83
                      5.3774028859e+02 stress_84
                      5.4455916362e+02 stress_85
                      5.4981643007e+02 stress_86
                      5.5340819713e+02 stress_87
                      5.5525572764e+02 stress_88
                      4.8488216916e+02 stress_89
                      6.0676187748e+01 stress_90
                     -1.5115453643e+02 stress_91
                      1.2466766293e+02 stress_92
                      4.3799150873e+02 stress_93
                      4.4432150859e+02 stress_94
                      3.8686004755e+02 stress_95
                      2.8336065075e+02 stress_96
                      1.3761554015e+02 stress_97
                     -3.5877488268e+01 stress_98
                     -2.0365144253e+02 stress_99
                     -3.3014727087e+02 stress_100
                     -4.0845750790e+02 stress_101
                     -4.5376002023e+02 stress_102
                     -4.8143197819e+02 stress_103
                     -5.0051533437e+02 stress_104
                     -5.1549305987e+02 stress_105
                     -5.2849397575e+02 stress_106
                     -5.4051942992e+02 stress_107
                     -5.5203221220e+02 stress_108
                     -5.6323059592e+02 stress_109
                     -5.7417872279e+02 stress_110
                     -5.8486986094e+02 stress_111
                     -5.9525847477e+02 stress_112
                     -6.0528011470e+02 stress_113
                     -6.1486024525e+02 stress_114
                     -6.2391984212e+02 stress_115
                     -6.3238016159e+02 stress_116
                     -6.4016413710e+02 stress_117
                     -6.4720096848e+02 stress_118
                     -6.5342490084e+02 stress_119
                     -6.5877575921e+02 stress_120
                     -6.6320390337e+02 stress_121
                     -6.6666642449e+02 stress_122
                     -6.6912960551e+02 stress_123
                     -6.7057066327e+02 stress_124
                     -6.7095780039e+02 stress_125
                     -5.7301943569e+02 stress_126
                     -3.3030490787e+02 stress_127
                     -1.7343770720e+01 stress_128
                      2.1577260427e+02 stress_129
                      3.2762802569e+02 stress_130
                      3.7652293735e+02 stress_131
                      3.9960873209e+02 stress_132
                      4.1002600085e+02 stress_133
                      4.1060750868e+02 stress_134
                      2.1355772551e+01 stress_135
                     -1.0453635861e-01 stress_136
                      1.7866163293e+02 stress_137
                      1.4417219473e+02 stress_138
                     -2.0860747376e+01 stress_139
                     -3.0569235695e+02 stress_140
                     -5.2866963482e+02 stress_141
                     -6.1960743590e+02 stress_142
                     -6.5413096101e+02 stress_143
                     -6.6974809180e+02 stress_144
                     -6.7622899726e+02 stress_145
                     -6.5676030860e+02 stress_146
                     -4.2844677634e+02 stress_147
                     -7.6707072073e+01 stress_148
                      1.9056476387e+02 stress_149
                      3.0673376222e+02 stress_150
                      3.4751174605e+02 stress_151
                      3.5243521892e+02 stress_152
                      1.4576050516e+02 stress_153
                     -2.1155697238e+02 stress_154
                     -4.8109299437e+02 stress_155
                     -5.8693709341e+02 stress_156
                     -6.1716175463e+02 stress_157
                     -4.9994390283e+02 stress_158
                     -1.0125112437e+02 stress_159
                      8.9665616459e+01 stress_160
                     -6.9396644643e+01 stress_161
                     -4.3911604468e+02 stress_162
                     -5.9951197637e+02 stress_163
                     -6.1305812037e+02 stress_164
                     -5.7320123529e+02 stress_165
                     -4.9457751348e+02 stress_166
                     -3.7845435901e+02 stress_167
                     -2.2964108953e+02 stress_168
                     -6.2605099161e+01 stress_169
                      9.5932427052e+01 stress_170
                      2.2001328249e+02 stress_171
                      3.0294480906e+02 stress_172
                      3.5452509967e+02 stress_173
                      3.8715011670e+02 stress_174
                      4.0945478159e+02 stress_175
                      4.2634334540e+02 stress_176
                      4.4041481154e+02 stress_177
                      4.5302416839e+02 stress_178
                      4.6487449090e+02 stress_179
                      4.7632740454e+02 stress_180
                      4.8756127185e+02 stress_181
                      4.9865188631e+02 stress_182
                      5.0961805881e+02 stress_183
                      5.2044442980e+02 stress_184
                      5.3109638332e+02 stress_185
                      5.4152731717e+02 stress_186
                      5.5168403128e+02 stress_187
                      5.6151024325e+02 stress_188
                      5.7094783136e+02 stress_189
                      5.7993944576e+02 stress_190
                      5.8842918024e+02 stress_191
                      5.9636223182e+02 stress_192
                      6.0368880025e+02 stress_193
                      6.1036117902e+02 stress_194
                      6.1633498866e+02 stress_195
                      6.2157226369e+02 stress_196
                      6.2603748978e+02 stress_197
                      6.2970212785e+02 stress_198
                      6.3254205506e+02 stress_199
                      6.3453762035e+02 stress_200
                      6.3567634947e+02 stress_201
                      6.3573212854e+02 stress_202
                      2.8686762594e+02 stress_203
                     -6.4872782654e+01 stress_204
                      3.9072762134e+01 stress_205
                      4.4410264584e+02 stress_206
                      4.6086314206e+02 stress_207
                      3.9898548455e+02 stress_208
                      2.8681070475e+02 stress_209
                      1.2936552626e+02 stress_210
                     -5.3837128409e+01 stress_211
                     -2.2172395910e+02 stress_212
                     -3.3951727588e+02 stress_213
                     -4.0851529302e+02 stress_214
                     -4.4781713495e+02 stress_215
                     -4.7235176310e+02 stress_216
                     -4.8997907425e+02 stress_217
                     -5.0438275988e+02 stress_218
                     -5.1724482927e+02 stress_219
                     -5.2932467925e+02 stress_220
                     -5.4094982102e+02 stress_221
                     -5.5223710444e+02 stress_222
                     -5.6319773065e+02 stress_223
                     -5.7378789000e+02 stress_224
                     -5.8393633737e+02 stress_225
                     -5.9355802010e+02 stress_226
                     -6.0256271827e+02 stress_227
                     -6.1086182401e+02 stress_228
                     -6.1836804067e+02 stress_229
                     -6.2500293834e+02 stress_230
                     -6.3069528989e+02 stress_231
                     -6.3538162256e+02 stress_232
                     -6.3901233677e+02 stress_233
                     -6.4154711733e+02 stress_234
                     -6.4295688784e+02 stress_235
                     -6.3676086225e+02 stress_236
                     -2.8529876947e+02 stress_237
                      1.4547551075e+01 stress_238
                     -1.9693789216e+02 stress_239
                     -4.4996776151e+02 stress_240
                     -1.3040123202e+02 stress_241
                      4.8726092253e+01 stress_242
                     -2.7341004002e+02 stress_243
                     -3.9942072496e+02 stress_244
                     -5.1204397522e+02 stress_245
                     -3.3500575982e+02 stress_246
                     -2.1738683858e+00 stress_247
                      2.7538205368e+02 stress_248
                      3.9404906888e+02 stress_249
                      4.3586557949e+02 stress_250
                      4.4757887840e+02 stress_251
                      3.4693218990e+02 stress_252
                      3.4904447247e+01 stress_253
                     -3.1007926630e+02 stress_254
                     -4.9156748591e+02 stress_255
                     -5.5521940804e+02 stress_256
                     -5.6769068294e+02 stress_257
                     -3.0144436114e+02 stress_258
                      8.4168041152e+01 stress_259
                      2.1102172436e+02 stress_260
                      5.4006793141e+00 stress_261
                     -3.6252991690e+02 stress_262
                     -5.2878505147e+02 stress_263
                     -5.5136477410e+02 stress_264
                     -5.1123815147e+02 stress_265
                     -4.2117571489e+02 stress_266
                     -2.8341362479e+02 stress_267
                     -1.0723163977e+02 stress_268
                      8.0953070662e+01 stress_269
                      2.4066774763e+02 stress_270
                      3.4880458644e+02 stress_271
                      4.1316066215e+02 stress_272
                      4.5136178789e+02 stress_273
                      4.7613328070e+02 stress_274
                      4.9430707497e+02 stress_275
                      5.0922544399e+02 stress_276
                      5.2248960053e+02 stress_277
                      5.3485753153e+02 stress_278
                      5.4667449454e+02 stress_279
                      5.5807740494e+02 stress_280
                      5.6909472392e+02 stress_281
                      5.7969742462e+02 stress_282
                      5.8982568363e+02 stress_283
                      5.9940504727e+02 stress_284
                      6.0835361086e+02 stress_285
                      6.1658973605e+02 stress_286
                      6.2403426024e+02 stress_287
                      6.3061237470e+02 stress_288
                      6.3625824821e+02 stress_289
                      6.4091382736e+02 stress_290
                      6.4453024514e+02 stress_291
                      6.4707064511e+02 stress_292
                      6.4850777823e+02 stress_293
                      6.4852900048e+02 stress_294
                      2.8804532824e+02 stress_295
                     -5.5979307822e+01 stress_296
                      6.8655405438e+01 stress_297
                      4.5711785563e+02 stress_298
                      4.7019560592e+02 stress_299
                      4.2866148820e+02 stress_300
                      3.5378476439e+02 stress_301
                      2.4666103495e+02 stress_302
                      1.1174836663e+02 stress_303
                     -3.8433372283e+01 stress_304
                     -1.8095444434e+02 stress_305
                     -2.9360551952e+02 stress_306
                     -3.7007962620e+02 stress_307
                     -4.1830146085e+02 stress_308
                     -4.4903600764e+02 stress_309
                     -4.7005885944e+02 stress_310
                     -4.8591982525e+02 stress_311
                     -4.9908684065e+02 stress_312
                     -5.1087041647e+02 stress_313
                     -5.2196816745e+02 stress_314
                     -5.3275027499e+02 stress_315
                     -5.4340889574e+02 stress_316
                     -5.5403760704e+02 stress_317
                     -5.6467282422e+02 stress_318
                     -5.7531745745e+02 stress_319
                     -5.8595450774e+02 stress_320
                     -5.9655400322e+02 stress_321
                     -6.0707876425e+02 stress_322
                     -6.1748627739e+02 stress_323
                     -6.2773161369e+02 stress_324
                     -6.3776883244e+02 stress_325
                     -6.4755037142e+02 stress_326
                     -6.5703029388e+02 stress_327
                     -6.6616154510e+02 stress_328
                     -6.7490034157e+02 stress_329
                     -6.8320360243e+02 stress_330
                     -6.9102955076e+02 stress_331
                     -6.9833985613e+02 stress_332
                     -7.0509739613e+02 stress_333
                     -7.1126868083e+02 stress_334
                     -7.1682338241e+02 stress_335
                     -7.2173192756e+02 stress_336
                     -7.2597116403e+02 stress_337
                     -7.2951906530e+02 stress_338
                     -7.3235759961e+02 stress_339
                     -7.3447303366e+02 stress_340
                     -7.3585442301e+02 stress_341
                     -7.3649454944e+02 stress_342


Active response data for evaluation 75:
Active set vector = { 1 1 1 1 1 1 1 1 1 1 1 1 1 1 1 1 1 1 1 1 1 1 1 1 1 1 1 1 1 1 1 1 1 1 1 1 1 1 1 1 1 1 1 1 1 1 1 1 1 1 1 1 1 1 1 1 1 1 1 1 1 1 1 1 1 1 1 1 1 1 1 1 1 1 1 1 1 1 1 1 1 1 1 1 1 1 1 1 1 1 1 1 1 1 1 1 1 1 1 1 1 1 1 1 1 1 1 1 1 1 1 1 1 1 1 1 1 1 1 1 1 1 1 1 1 1 1 1 1 1 1 1 1 1 1 1 1 1 1 1 1 1 1 1 1 1 1 1 1 1 1 1 1 1 1 1 1 1 1 1 1 1 1 1 1 1 1 1 1 1 1 1 1 1 1 1 1 1 1 1 1 1 1 1 1 1 1 1 1 1 1 1 1 1 1 1 1 1 1 1 1 1 1 1 1 1 1 1 1 1 1 1 1 1 1 1 1 1 1 1 1 1 1 1 1 1 1 1 1 1 1 1 1 1 1 1 1 1 1 1 1 1 1 1 1 1 1 1 1 1 1 1 1 1 1 1 1 1 1 1 1 1 1 1 1 1 1 1 1 1 1 1 1 1 1 1 1 1 1 1 1 1 1 1 1 1 1 1 1 1 1 1 1 1 1 1 1 1 1 1 1 1 1 1 1 1 1 1 1 1 1 1 1 1 1 1 1 1 1 1 1 1 1 1 1 1 1 1 1 1 1 1 1 1 1 1 1 1 1 1 1 1 }
                      2.3113338357e+00 stress_1
                     -2.4018458155e+02 stress_2
                     -4.8976753194e+02 stress_3
                     -4.9259637599e+02 stress_4
                     -1.7966768471e+02 stress_5
                      2.1130566976e+02 stress_6
                      3.6102036556e+02 stress_7
                      3.6199022707e+02 stress_8
                      1.2436340524e+02 stress_9
                     -2.2486209858e+02 stress_10
                     -4.1779524837e+02 stress_11
                     -4.7528312920e+02 stress_12
                     -4.9378750555e+02 stress_13
                     -4.9513399819e+02 stress_14
                     -1.7852833918e+02 stress_15
                     -3.3867143232e+02 stress_16
                     -4.8757790230e+02 stress_17
                     -3.0155415969e+02 stress_18
                      2.3829915160e+01 stress_19
                      2.9998128701e+02 stress_20
                      4.2044476313e+02 stress_21
                      4.6525205132e+02 stress_22
                      4.8388558339e+02 stress_23
                      4.9009468763e+02 stress_24
                      1.7289284068e+02 stress_25
                      2.9513385180e+02 stress_26
                      4.2746945683e+02 stress_27
                      4.5619358810e+02 stress_28
                      3.3889174222e+02 stress_29
                      1.3337092757e+02 stress_30
                     -1.1821803077e+02 stress_31
                     -3.1923026268e+02 stress_32
                     -4.2570419580e+02 stress_33
                     -4.7555957344e+02 stress_34
                     -5.0243238713e+02 stress_35
                     -5.2024446764e+02 stress_36
                     -5.3387293476e+02 stress_37
                     -5.4494606061e+02 stress_38
                     -5.5393439255e+02 stress_39
                     -5.6088658287e+02 stress_40
                     -5.6572363540e+02 stress_41
                     -5.6834506089e+02 stress_42
                     -5.5358500659e+02 stress_43
                     -1.7918181634e+02 stress_44
                      9.5457137140e+01 stress_45
                     -1.0117360315e+02 stress_46
                     -4.2082827706e+02 stress_47
                     -1.3597143281e+02 stress_48
                     -2.3420342426e+02 stress_49
                     -3.8687490620e+02 stress_50
                     -5.5389154435e+02 stress_51
                     -3.9143201322e+02 stress_52
                     -6.0023976888e+01 stress_53
                      2.3638554394e+02 stress_54
                      3.6866893518e+02 stress_55
                      4.1536591833e+02 stress_56
                      4.2914937430e+02 stress_57
                      3.4672075854e+02 stress_58
                      4.4091280884e+01 stress_59
                     -2.9655718462e+02 stress_60
                     -4.6407308226e+02 stress_61
                     -5.1894589148e+02 stress_62
                     -5.3106077289e+02 stress_63
                     -2.7351877699e+02 stress_64
                      1.0741753953e+02 stress_65
                      1.9934283749e+02 stress_66
                     -5.9745375163e+01 stress_67
                     -4.0851794409e+02 stress_68
                     -5.1198332103e+02 stress_69
                     -5.1331554733e+02 stress_70
                     -4.2224057760e+02 stress_71
                     -2.5664991797e+02 stress_72
                     -3.5931304233e+01 stress_73
                      1.8016682541e+02 stress_74
                      3.2584081613e+02 stress_75
                      4.0219774972e+02 stress_76
                      4.4182468179e+02 stress_77
                      4.6570948129e+02 stress_78
                      4.8289547035e+02 stress_79
                      4.9692147803e+02 stress_80
                      5.0912776047e+02 stress_81
                      5.1997227242e+02 stress_82
                      5.2954769842e+02 stress_83
                      5.3779779963e+02 stress_84
                      5.4460905506e+02 stress_85
                      5.4986131162e+02 stress_86
                      5.5345002518e+02 stress_87
                      5.5529608985e+02 stress_88
                      4.8492222933e+02 stress_89
                      6.0424976679e+01 stress_90
                     -1.5188847439e+02 stress_91
                      1.2398085314e+02 stress_92
                      4.3814410715e+02 stress_93
                      4.4449849075e+02 stress_94
                      3.8703683490e+02 stress_95
                      2.8352902000e+02 stress_96
                      1.3771060891e+02 stress_97
                     -3.6045160684e+01 stress_98
                     -2.0424038959e+02 stress_99
                     -3.3098274110e+02 stress_100
                     -4.0923949890e+02 stress_101
                     -4.5436205587e+02 stress_102
                     -4.8186187820e+02 stress_103
                     -5.0081681601e+02 stress_104
                     -5.1570600034e+02 stress_105
                     -5.2864705606e+02 stress_106
                     -5.4063188091e+02 stress_107
                     -5.5211670919e+02 stress_108
                     -5.6329552552e+02 stress_109
                     -5.7422970475e+02 stress_110
                     -5.8491072395e+02 stress_111
                     -5.9529187489e+02 stress_112
                     -6.0530792742e+02 stress_113
                     -6.1488381894e+02 stress_114
                     -6.2394016356e+02 stress_115
                     -6.3239796558e+02 stress_116
                     -6.4017998069e+02 stress_117
                     -6.4721528132e+02 stress_118
                     -6.5343802093e+02 stress_119
                     -6.5878795834e+02 stress_120
                     -6.6321540496e+02 stress_121
                     -6.6667741757e+02 stress_122
                     -6.6914025512e+02 stress_123
                     -6.7058111860e+02 stress_124
                     -6.7096820435e+02 stress_125
                     -5.7302888039e+02 stress_126
                     -3.3023391113e+02 stress_127
                     -1.6744778305e+01 stress_128
                      2.1684333941e+02 stress_129
                      3.2856617186e+02 stress_130
                      3.7721836150e+02 stress_131
                      4.0014693094e+02 stress_132
                      4.1048901349e+02 stress_133
                      4.1106632660e+02 stress_134
                      2.1687242457e+01 stress_135
                      2.0177432922e-01 stress_136
                      1.7903649188e+02 stress_137
                      1.4454702044e+02 stress_138
                     -2.0508825310e+01 stress_139
                     -3.0575440141e+02 stress_140
                     -5.2929878365e+02 stress_141
                     -6.2014285789e+02 stress_142
                     -6.5449095593e+02 stress_143
                     -6.7001201977e+02 stress_144
                     -6.7645475085e+02 stress_145
                     -6.5698606003e+02 stress_146
                     -4.2864507571e+02 stress_147
                     -7.6435663738e+01 stress_148
                      1.9149014758e+02 stress_149
                      3.0766678350e+02 stress_150
                      3.4832123716e+02 stress_151
                      3.5322365005e+02 stress_152
                      1.4653461771e+02 stress_153
                     -2.1123494963e+02 stress_154
                     -4.8159303460e+02 stress_155
                     -5.8757084812e+02 stress_156
                     -6.1775303631e+02 stress_157
                     -5.0053298625e+02 stress_158
                     -1.0146442535e+02 stress_159
                      8.9989834610e+01 stress_160
                     -6.9079133610e+01 stress_161
                     -4.3929615782e+02 stress_162
                     -6.0001234147e+02 stress_163
                     -6.1355407113e+02 stress_164
                     -5.7369714617e+02 stress_165
                     -4.9507113986e+02 stress_166
                     -3.7892308974e+02 stress_167
                     -2.2999033972e+02 stress_168
                     -6.2640627359e+01 stress_169
                      9.6348653642e+01 stress_170
                      2.2074955358e+02 stress_171
                      3.0373240425e+02 stress_172
                      3.5519872605e+02 stress_173
                      3.8767118899e+02 stress_174
                      4.0984238300e+02 stress_175
                      4.2662904734e+02 stress_176
                      4.4062651979e+02 stress_177
                      4.5318294030e+02 stress_178
                      4.6499535750e+02 stress_179
                      4.7642090185e+02 stress_180
                      4.8763477446e+02 stress_181
                      4.9871059163e+02 stress_182
                      5.0966566735e+02 stress_183
                      5.2048360905e+02 stress_184
                      5.3112908060e+02 stress_185
                      5.4155497281e+02 stress_186
                      5.5170772434e+02 stress_187
                      5.6153079225e+02 stress_188
                      5.7096586499e+02 stress_189
                      5.7995545267e+02 stress_190
                      5.8844354480e+02 stress_191
                      5.9637526022e+02 stress_192
                      6.0370073914e+02 stress_193
                      6.1037222986e+02 stress_194
                      6.1634531835e+02 stress_195
                      6.2158201240e+02 stress_196
                      6.2604677744e+02 stress_197
                      6.2971105884e+02 stress_198
                      6.3255072225e+02 stress_199
                      6.3454610843e+02 stress_200
                      6.3568473758e+02 stress_201
                      6.3574051179e+02 stress_202
                      2.8679241474e+02 stress_203
                     -6.5566069755e+01 stress_204
                      3.8379774253e+01 stress_205
                      4.4395179846e+02 stress_206
                      4.6078176272e+02 stress_207
                      3.9890384384e+02 stress_208
                      2.8671795500e+02 stress_209
                      1.2918012039e+02 stress_210
                     -5.4321956756e+01 stress_211
                     -2.2259053265e+02 stress_212
                     -3.4048591975e+02 stress_213
                     -4.0931503963e+02 stress_214
                     -4.4839264293e+02 stress_215
                     -4.7274824428e+02 stress_216
                     -4.9025202427e+02 stress_217
                     -5.0457389563e+02 stress_218
                     -5.1738188664e+02 stress_219
                     -5.2942551349e+02 stress_220
                     -5.4102592677e+02 stress_221
                     -5.5229598044e+02 stress_222
                     -5.6324435936e+02 stress_223
                     -5.7382564995e+02 stress_224
                     -5.8396756679e+02 stress_225
                     -5.9358437079e+02 stress_226
                     -6.0258538089e+02 stress_227
                     -6.1088167383e+02 stress_228
                     -6.1838573509e+02 stress_229
                     -6.2501898124e+02 stress_230
                     -6.3071007689e+02 stress_231
                     -6.3539547292e+02 stress_232
                     -6.3902551557e+02 stress_233
                     -6.4155985303e+02 stress_234
                     -6.4296938574e+02 stress_235
                     -6.3677336014e+02 stress_236
                     -2.8522321973e+02 stress_237
                      1.5118521016e+01 stress_238
                     -1.9642270402e+02 stress_239
                     -4.5005284068e+02 stress_240
                     -1.3039080371e+02 stress_241
                      4.9027400805e+01 stress_242
                     -2.7329778512e+02 stress_243
                     -3.9961790447e+02 stress_244
                     -5.1254174863e+02 stress_245
                     -3.3549255901e+02 stress_246
                     -2.2772692591e+00 stress_247
                      2.7604903541e+02 stress_248
                      3.9477091679e+02 stress_249
                      4.3645228824e+02 stress_250
                      4.4810807794e+02 stress_251
                      3.4746034311e+02 stress_252
                      3.5272957909e+01 stress_253
                     -3.1052697459e+02 stress_254
                     -4.9239640684e+02 stress_255
                     -5.5598666582e+02 stress_256
                     -5.6842300320e+02 stress_257
                     -3.0213598431e+02 stress_258
                      8.4179373543e+01 stress_259
                      2.1144347037e+02 stress_260
                      5.7966783707e+00 stress_261
                     -3.6280118031e+02 stress_262
                     -5.2943530755e+02 stress_263
                     -5.5201388800e+02 stress_264
                     -5.1188722472e+02 stress_265
                     -4.2182155282e+02 stress_266
                     -2.8401922398e+02 stress_267
                     -1.0764102713e+02 stress_268
                      8.1003109265e+01 stress_269
                      2.4121282102e+02 stress_270
                      3.4954156238e+02 stress_271
                      4.1382490794e+02 stress_272
                      4.5187318312e+02 stress_273
                      4.7650582683e+02 stress_274
                      4.9457563502e+02 stress_275
                      5.0942080055e+02 stress_276
                      5.2263419103e+02 stress_277
                      5.3496677191e+02 stress_278
                      5.4675881929e+02 stress_279
                      5.5814390013e+02 stress_280
                      5.6914825694e+02 stress_281
                      5.7974138943e+02 stress_282
                      5.8986248662e+02 stress_283
                      5.9943642389e+02 stress_284
                      6.0838083543e+02 stress_285
                      6.1661376084e+02 stress_286
                      6.2405581045e+02 stress_287
                      6.3063201408e+02 stress_288
                      6.3627642440e+02 stress_289
                      6.4093090498e+02 stress_290
                      6.4454653008e+02 stress_291
                      6.4708640253e+02 stress_292
                      6.4852324736e+02 stress_293
                      6.4854446541e+02 stress_294
                      2.8796999308e+02 stress_295
                     -5.6663883261e+01 stress_296
                      6.7972004211e+01 stress_297
                      4.5701338997e+02 stress_298
                      4.7014284895e+02 stress_299
                      4.2860867399e+02 stress_300
                      3.5372939344e+02 stress_301
                      2.4658149273e+02 stress_302
                      1.1156383837e+02 stress_303
                     -3.8871733390e+01 stress_304
                     -1.8172591658e+02 stress_305
                     -2.9456784494e+02 stress_306
                     -3.7100075528e+02 stress_307
                     -4.1905385117e+02 stress_308
                     -4.4960440006e+02 stress_309
                     -4.7047530325e+02 stress_310
                     -4.8622318770e+02 stress_311
                     -4.9930926311e+02 stress_312
                     -5.1103550374e+02 stress_313
                     -5.2209251208e+02 stress_314
                     -5.3284539270e+02 stress_315
                     -5.4348278885e+02 stress_316
                     -5.5409587946e+02 stress_317
                     -5.6471944425e+02 stress_318
                     -5.7535527022e+02 stress_319
                     -5.8598557927e+02 stress_320
                     -5.9657985335e+02 stress_321
                     -6.0710052484e+02 stress_322
                     -6.1750480175e+02 stress_323
                     -6.2774755248e+02 stress_324
                     -6.3778268725e+02 stress_325
                     -6.4756253320e+02 stress_326
                     -6.5704107030e+02 stress_327
                     -6.6617118091e+02 stress_328
                     -6.7490903314e+02 stress_329
                     -6.8321150891e+02 stress_330
                     -6.9103680243e+02 stress_331
                     -6.9834656059e+02 stress_332
                     -7.0510364319e+02 stress_333
                     -7.1127454626e+02 stress_334
                     -7.1682893076e+02 stress_335
                     -7.2173721471e+02 stress_336
                     -7.2597623877e+02 stress_337
                     -7.2952397106e+02 stress_338
                     -7.3236237560e+02 stress_339
                     -7.3447771592e+02 stress_340
                     -7.3585904542e+02 stress_341
                     -7.3649914446e+02 stress_342


Active response data for evaluation 76:
Active set vector = { 1 1 1 1 1 1 1 1 1 1 1 1 1 1 1 1 1 1 1 1 1 1 1 1 1 1 1 1 1 1 1 1 1 1 1 1 1 1 1 1 1 1 1 1 1 1 1 1 1 1 1 1 1 1 1 1 1 1 1 1 1 1 1 1 1 1 1 1 1 1 1 1 1 1 1 1 1 1 1 1 1 1 1 1 1 1 1 1 1 1 1 1 1 1 1 1 1 1 1 1 1 1 1 1 1 1 1 1 1 1 1 1 1 1 1 1 1 1 1 1 1 1 1 1 1 1 1 1 1 1 1 1 1 1 1 1 1 1 1 1 1 1 1 1 1 1 1 1 1 1 1 1 1 1 1 1 1 1 1 1 1 1 1 1 1 1 1 1 1 1 1 1 1 1 1 1 1 1 1 1 1 1 1 1 1 1 1 1 1 1 1 1 1 1 1 1 1 1 1 1 1 1 1 1 1 1 1 1 1 1 1 1 1 1 1 1 1 1 1 1 1 1 1 1 1 1 1 1 1 1 1 1 1 1 1 1 1 1 1 1 1 1 1 1 1 1 1 1 1 1 1 1 1 1 1 1 1 1 1 1 1 1 1 1 1 1 1 1 1 1 1 1 1 1 1 1 1 1 1 1 1 1 1 1 1 1 1 1 1 1 1 1 1 1 1 1 1 1 1 1 1 1 1 1 1 1 1 1 1 1 1 1 1 1 1 1 1 1 1 1 1 1 1 1 1 1 1 1 1 1 1 1 1 1 1 1 1 1 1 1 1 1 }
                      2.3113338357e+00 stress_1
                     -2.4018439958e+02 stress_2
                     -4.8976875964e+02 stress_3
                     -4.9260131388e+02 stress_4
                     -1.7967345965e+02 stress_5
                      2.1128971045e+02 stress_6
                      3.6100237881e+02 stress_7
                      3.6197225930e+02 stress_8
                      1.2434594097e+02 stress_9
                     -2.2486875865e+02 stress_10
                     -4.1779517830e+02 stress_11
                     -4.7528608738e+02 stress_12
                     -4.9379236177e+02 stress_13
                     -4.9513900156e+02 stress_14
                     -1.7853365309e+02 stress_15
                     -3.3867620480e+02 stress_16
                     -4.8756786538e+02 stress_17
                     -3.0154418867e+02 stress_18
                      2.3837525869e+01 stress_19
                      2.9998254290e+02 stress_20
                      4.2044357028e+02 stress_21
                      4.6525077025e+02 stress_22
                      4.8388448033e+02 stress_23
                      4.9009366692e+02 stress_24
                      1.7289194598e+02 stress_25
                      2.9513289651e+02 stress_26
                      4.2746191165e+02 stress_27
                      4.5618182381e+02 stress_28
                      3.3887998557e+02 stress_29
                      1.3335942435e+02 stress_30
                     -1.1822848820e+02 stress_31
                     -3.1924062645e+02 stress_32
                     -4.2571633064e+02 stress_33
                     -4.7557340682e+02 stress_34
                     -5.0244726377e+02 stress_35
                     -5.2025992982e+02 stress_36
                     -5.3388872848e+02 stress_37
                     -5.4496204808e+02 stress_38
                     -5.5395049637e+02 stress_39
                     -5.6090275697e+02 stress_40
                     -5.6573985022e+02 stress_41
                     -5.6836129538e+02 stress_42
                     -5.5360124108e+02 stress_43
                     -1.7919792738e+02 stress_44
                      9.5442758510e+01 stress_45
                     -1.0118777005e+02 stress_46
                     -4.2083125538e+02 stress_47
                     -1.3597448183e+02 stress_48
                     -2.3420647437e+02 stress_49
                     -3.8687891280e+02 stress_50
                     -5.5391784878e+02 stress_51
                     -3.9145831171e+02 stress_52
                     -6.0049251603e+01 stress_53
                      2.3636765312e+02 stress_54
                      3.6865916720e+02 stress_55
                      4.1535984865e+02 stress_56
                      4.2914441071e+02 stress_57
                      3.4671579679e+02 stress_58
                      4.4086550439e+01 stress_59
                     -2.9656425444e+02 stress_60
                     -4.6408795666e+02 stress_61
                     -5.1896546454e+02 stress_62
                     -5.3108153142e+02 stress_63
                     -2.7353950290e+02 stress_64
                      1.0739936037e+02 stress_65
                      1.9932688340e+02 stress_66
                     -5.9760658795e+01 stress_67
                     -4.0852743168e+02 stress_68
                     -5.1199676881e+02 stress_69
                     -5.1332911392e+02 stress_70
                     -4.2225414459e+02 stress_71
                     -2.5666347719e+02 stress_72
                     -3.5944513058e+01 stress_73
                      1.8015567527e+02 stress_74
                      3.2583343198e+02 stress_75
                      4.0219353306e+02 stress_76
                      4.4182231680e+02 stress_77
                      4.6570809573e+02 stress_78
                      4.8289460748e+02 stress_79
                      4.9692090620e+02 stress_80
                      5.0912735871e+02 stress_81
                      5.1997197452e+02 stress_82
                      5.2954746627e+02 stress_83
                      5.3779761016e+02 stress_84
                      5.4460889355e+02 stress_85
                      5.4986116814e+02 stress_86
                      5.5344989255e+02 stress_87
                      5.5529596238e+02 stress_88
                      4.8492210157e+02 stress_89
                      6.0423467128e+01 stress_90
                     -1.5189496112e+02 stress_91
                      1.2397300646e+02 stress_92
                      4.3811876964e+02 stress_93
                      4.4447295214e+02 stress_94
                      3.8701129638e+02 stress_95
                      2.8350348302e+02 stress_96
                      1.3768505401e+02 stress_97
                     -3.6070972429e+01 stress_98
                     -2.0426726734e+02 stress_99
                     -3.3101159332e+02 stress_100
                     -4.0927037183e+02 stress_101
                     -4.5439438646e+02 stress_102
                     -4.8189511010e+02 stress_103
                     -5.0085058107e+02 stress_104
                     -5.1574008235e+02 stress_105
                     -5.2868133110e+02 stress_106
                     -5.4066627716e+02 stress_107
                     -5.5215118392e+02 stress_108
                     -5.6333005258e+02 stress_109
                     -5.7426426767e+02 stress_110
                     -5.8494531203e+02 stress_111
                     -5.9532648104e+02 stress_112
                     -6.0534254677e+02 stress_113
                     -6.1491844811e+02 stress_114
                     -6.2397480014e+02 stress_115
                     -6.3243260781e+02 stress_116
                     -6.4021462727e+02 stress_117
                     -6.4724993126e+02 stress_118
                     -6.5347267346e+02 stress_119
                     -6.5882261286e+02 stress_120
                     -6.6325006097e+02 stress_121
                     -6.6671207467e+02 stress_122
                     -6.6917491295e+02 stress_123
                     -6.7061577684e+02 stress_124
                     -6.7100286270e+02 stress_125
                     -5.7306353726e+02 stress_126
                     -3.3026829217e+02 stress_127
                     -1.6775207706e+01 stress_128
                      2.1682363563e+02 stress_129
                      3.2855550065e+02 stress_130
                      3.7721219543e+02 stress_131
                      4.0014275721e+02 stress_132
                      4.1048564508e+02 stress_133
                      4.1106300074e+02 stress_134
                      2.1683564082e+01 stress_135
                      1.9798779226e-01 stress_136
                      1.7903275076e+02 stress_137
                      1.4454327933e+02 stress_138
                     -2.0512624360e+01 stress_139
                     -3.0576185115e+02 stress_140
                     -5.2932326617e+02 stress_141
                     -6.2018168529e+02 stress_142
                     -6.5453579485e+02 stress_143
                     -6.7005915386e+02 stress_144
                     -6.7650267513e+02 stress_145
                     -6.5703398430e+02 stress_146
                     -4.2869289520e+02 stress_147
                     -7.6479494703e+01 stress_148
                      1.9146089201e+02 stress_149
                      3.0764966316e+02 stress_150
                      3.4830918057e+02 stress_151
                      3.5321221664e+02 stress_152
                      1.4652321605e+02 stress_153
                     -2.1124719774e+02 stress_154
                     -4.8161509434e+02 stress_155
                     -5.8760340395e+02 stress_156
                     -6.1778961247e+02 stress_157
                     -5.0056955822e+02 stress_158
                     -1.0149895331e+02 stress_159
                      8.9960849135e+01 stress_160
                     -6.9108014083e+01 stress_161
                     -4.3932051303e+02 stress_162
                     -6.0004184019e+02 stress_163
                     -6.1358507561e+02 stress_164
                     -5.7372815062e+02 stress_165
                     -4.9510214066e+02 stress_166
                     -3.7895402916e+02 stress_167
                     -2.3002083324e+02 stress_168
                     -6.2669308017e+01 stress_169
                      9.6324334828e+01 stress_170
                      2.2073157408e+02 stress_171
                      3.0372049439e+02 stress_172
                      3.5519124443e+02 stress_173
                      3.8766652531e+02 stress_174
                      4.0983942694e+02 stress_175
                      4.2662712235e+02 stress_176
                      4.4062522798e+02 stress_177
                      4.5318204719e+02 stress_178
                      4.6499472235e+02 stress_179
                      4.7642043814e+02 stress_180
                      4.8763442761e+02 stress_181
                      4.9871032632e+02 stress_182
                      5.0966546018e+02 stress_183
                      5.2048344413e+02 stress_184
                      5.3112894696e+02 stress_185
                      5.4155486269e+02 stress_186
                      5.5170763217e+02 stress_187
                      5.6153071395e+02 stress_188
                      5.7096579753e+02 stress_189
                      5.7995539376e+02 stress_190
                      5.8844349269e+02 stress_191
                      5.9637521356e+02 stress_192
                      6.0370069686e+02 stress_193
                      6.1037219111e+02 stress_194
                      6.1634528243e+02 stress_195
                      6.2158197875e+02 stress_196
                      6.2604674556e+02 stress_197
                      6.2971102833e+02 stress_198
                      6.3255069275e+02 stress_199
                      6.3454607961e+02 stress_200
                      6.3568470914e+02 stress_201
                      6.3574048338e+02 stress_202
                      2.8679186147e+02 stress_203
                     -6.5575321458e+01 stress_204
                      3.8370513846e+01 stress_205
                      4.4392982908e+02 stress_206
                      4.6075848199e+02 stress_207
                      3.9888056261e+02 stress_208
                      2.8669463850e+02 stress_209
                      1.2915632439e+02 stress_210
                     -5.4348415075e+01 stress_211
                     -2.2262396489e+02 stress_212
                     -3.4052851937e+02 stress_213
                     -4.0936487876e+02 stress_214
                     -4.4844685445e+02 stress_215
                     -4.7280486221e+02 stress_216
                     -4.9030995828e+02 stress_217
                     -5.0463256979e+02 stress_218
                     -5.1744099341e+02 stress_219
                     -5.2948488335e+02 stress_220
                     -5.4108546273e+02 stress_221
                     -5.5235562491e+02 stress_222
                     -5.6330407691e+02 stress_223
                     -5.7388541806e+02 stress_224
                     -5.8402737072e+02 stress_225
                     -5.9364420059e+02 stress_226
                     -6.0264522972e+02 stress_227
                     -6.1094153682e+02 stress_228
                     -6.1844560870e+02 stress_229
                     -6.2507886286e+02 stress_230
                     -6.3076996451e+02 stress_231
                     -6.3545536496e+02 stress_232
                     -6.3908541076e+02 stress_233
                     -6.4161975028e+02 stress_234
                     -6.4302928410e+02 stress_235
                     -6.3683325849e+02 stress_236
                     -2.8528257960e+02 stress_237
                      1.5065291873e+01 stress_238
                     -1.9647589326e+02 stress_239
                     -4.5010658978e+02 stress_240
                     -1.3044387964e+02 stress_241
                      4.8977877128e+01 stress_242
                     -2.7334739074e+02 stress_243
                     -3.9966822561e+02 stress_244
                     -5.1259416147e+02 stress_245
                     -3.3554492822e+02 stress_246
                     -2.3262162093e+00 stress_247
                      2.7601727554e+02 stress_248
                      3.9475444293e+02 stress_249
                      4.3644214014e+02 stress_250
                      4.4809966237e+02 stress_251
                      3.4745192585e+02 stress_252
                      3.5263738677e+01 stress_253
                     -3.1054637175e+02 stress_254
                     -4.9243210861e+02 stress_255
                     -5.5603069632e+02 stress_256
                     -5.6846878856e+02 stress_257
                     -3.0218161420e+02 stress_258
                      8.4139999180e+01 stress_259
                      2.1141103851e+02 stress_260
                      5.7642097448e+00 stress_261
                     -3.6283793748e+02 stress_262
                     -5.2948133047e+02 stress_263
                     -5.5206183003e+02 stress_264
                     -5.1193516668e+02 stress_265
                     -4.2186948562e+02 stress_266
                     -2.8406698144e+02 stress_267
                     -1.0768746836e+02 stress_268
                      8.0961646708e+01 stress_269
                      2.4118123892e+02 stress_270
                      3.4952100609e+02 stress_271
                      4.1381260398e+02 stress_272
                      4.5186592343e+02 stress_273
                      4.7650144547e+02 stress_274
                      4.9457289184e+02 stress_275
                      5.0941901286e+02 stress_276
                      5.2263297976e+02 stress_277
                      5.3496592081e+02 stress_278
                      5.4675820089e+02 stress_279
                      5.5814343679e+02 stress_280
                      5.6914789981e+02 stress_281
                      5.7974110687e+02 stress_282
                      5.8986225754e+02 stress_283
                      5.9943623390e+02 stress_284
                      6.0838067443e+02 stress_285
                      6.1661362161e+02 stress_286
                      6.2405568767e+02 stress_287
                      6.3063190378e+02 stress_288
                      6.3627632351e+02 stress_289
                      6.4093081106e+02 stress_290
                      6.4454644115e+02 stress_291
                      6.4708631689e+02 stress_292
                      6.4852316351e+02 stress_293
                      6.4854438159e+02 stress_294
                      2.8796933856e+02 stress_295
                     -5.6672939724e+01 stress_296
                      6.7962912464e+01 stress_297
                      4.5699078608e+02 stress_298
                      4.7011933990e+02 stress_299
                      4.2858516485e+02 stress_300
                      3.5370587797e+02 stress_301
                      2.4655788784e+02 stress_302
                      1.1153965211e+02 stress_303
                     -3.8898121946e+01 stress_304
                     -1.8175739572e+02 stress_305
                     -2.9460663125e+02 stress_306
                     -3.7104658109e+02 stress_307
                     -4.1910487714e+02 stress_308
                     -4.4965877380e+02 stress_309
                     -4.7053172153e+02 stress_310
                     -4.8628084579e+02 stress_311
                     -4.9936768379e+02 stress_312
                     -5.1109440433e+02 stress_313
                     -5.2215172252e+02 stress_314
                     -5.3290480840e+02 stress_315
                     -5.4354234388e+02 stress_316
                     -5.5415553125e+02 stress_317
                     -5.6477916466e+02 stress_318
                     -5.7541504025e+02 stress_319
                     -5.8604538581e+02 stress_320
                     -5.9663968720e+02 stress_321
                     -6.0716037941e+02 stress_322
                     -6.1756467227e+02 stress_323
                     -6.2780743543e+02 stress_324
                     -6.3784257999e+02 stress_325
                     -6.4762243372e+02 stress_326
                     -6.5710097708e+02 stress_327
                     -6.6623109275e+02 stress_328
                     -6.7496894910e+02 stress_329
                     -6.8327142826e+02 stress_330
                     -6.9109672456e+02 stress_331
                     -6.9840648503e+02 stress_332
                     -7.0516356954e+02 stress_333
                     -7.1133447418e+02 stress_334
                     -7.1688885999e+02 stress_335
                     -7.2179714500e+02 stress_336
                     -7.2603616993e+02 stress_337
                     -7.2958390289e+02 stress_338
                     -7.3242230795e+02 stress_339
                     -7.3453764865e+02 stress_340
                     -7.3591897839e+02 stress_341
                     -7.3655907754e+02 stress_342


Active response data for evaluation 77:
Active set vector = { 1 1 1 1 1 1 1 1 1 1 1 1 1 1 1 1 1 1 1 1 1 1 1 1 1 1 1 1 1 1 1 1 1 1 1 1 1 1 1 1 1 1 1 1 1 1 1 1 1 1 1 1 1 1 1 1 1 1 1 1 1 1 1 1 1 1 1 1 1 1 1 1 1 1 1 1 1 1 1 1 1 1 1 1 1 1 1 1 1 1 1 1 1 1 1 1 1 1 1 1 1 1 1 1 1 1 1 1 1 1 1 1 1 1 1 1 1 1 1 1 1 1 1 1 1 1 1 1 1 1 1 1 1 1 1 1 1 1 1 1 1 1 1 1 1 1 1 1 1 1 1 1 1 1 1 1 1 1 1 1 1 1 1 1 1 1 1 1 1 1 1 1 1 1 1 1 1 1 1 1 1 1 1 1 1 1 1 1 1 1 1 1 1 1 1 1 1 1 1 1 1 1 1 1 1 1 1 1 1 1 1 1 1 1 1 1 1 1 1 1 1 1 1 1 1 1 1 1 1 1 1 1 1 1 1 1 1 1 1 1 1 1 1 1 1 1 1 1 1 1 1 1 1 1 1 1 1 1 1 1 1 1 1 1 1 1 1 1 1 1 1 1 1 1 1 1 1 1 1 1 1 1 1 1 1 1 1 1 1 1 1 1 1 1 1 1 1 1 1 1 1 1 1 1 1 1 1 1 1 1 1 1 1 1 1 1 1 1 1 1 1 1 1 1 1 1 1 1 1 1 1 1 1 1 1 1 1 1 1 1 1 1 }
                      2.3113338357e+00 stress_1
                     -2.4018448835e+02 stress_2
                     -4.8976425115e+02 stress_3
                     -4.9259484616e+02 stress_4
                     -1.7966690329e+02 stress_5
                      2.1129862141e+02 stress_6
                      3.6101400700e+02 stress_7
                      3.6198390929e+02 stress_8
                      1.2435758181e+02 stress_9
                     -2.2485749258e+02 stress_10
                     -4.1778469429e+02 stress_11
                     -4.7527591102e+02 stress_12
                     -4.9378226818e+02 stress_13
                     -4.9512891317e+02 stress_14
                     -1.7852344498e+02 stress_15
                     -3.3866607418e+02 stress_16
                     -4.8755869138e+02 stress_17
                     -3.0153499946e+02 stress_18
                      2.3847671885e+01 stress_19
                      2.9999734068e+02 stress_20
                      4.2046248720e+02 stress_21
                      4.6527139731e+02 stress_22
                      4.8390573079e+02 stress_23
                      4.9011509841e+02 stress_24
                      1.7291332935e+02 stress_25
                      2.9515426889e+02 stress_26
                      4.2748234100e+02 stress_27
                      4.5620190550e+02 stress_28
                      3.3890006657e+02 stress_29
                      1.3337946270e+02 stress_30
                     -1.1820886513e+02 stress_31
                     -3.1922208783e+02 stress_32
                     -4.2569878544e+02 stress_33
                     -4.7555638231e+02 stress_34
                     -5.0243047481e+02 stress_35
                     -5.2024325020e+02 stress_36
                     -5.3387210323e+02 stress_37
                     -5.4494545179e+02 stress_38
                     -5.5393391634e+02 stress_39
                     -5.6088618630e+02 stress_40
                     -5.6572328480e+02 stress_41
                     -5.6834473245e+02 stress_42
                     -5.5358467815e+02 stress_43
                     -1.7918082095e+02 stress_44
                      9.5464076757e+01 stress_45
                     -1.0116640063e+02 stress_46
                     -4.2080550994e+02 stress_47
                     -1.3594854522e+02 stress_48
                     -2.3418053743e+02 stress_49
                     -3.8685271290e+02 stress_50
                     -5.5388742071e+02 stress_51
                     -3.9142787546e+02 stress_52
                     -6.0018065572e+01 stress_53
                      2.3640314490e+02 stress_54
                      3.6869883642e+02 stress_55
                      4.1540128589e+02 stress_56
                      4.2918635874e+02 stress_57
                      3.4675774435e+02 stress_58
                      4.4128231282e+01 stress_59
                     -2.9652588831e+02 stress_60
                     -4.6405418509e+02 stress_61
                     -5.1893369598e+02 stress_62
                     -5.3105021133e+02 stress_63
                     -2.7350812880e+02 stress_64
                      1.0743285035e+02 stress_65
                      1.9936193393e+02 stress_66
                     -5.9725677646e+01 stress_67
                     -4.0849471716e+02 stress_68
                     -5.1196599981e+02 stress_69
                     -5.1329837405e+02 stress_70
                     -4.2222340382e+02 stress_71
                     -2.5663267615e+02 stress_72
                     -3.5913007884e+01 stress_73
                      1.8018988540e+02 stress_74
                      3.2587156232e+02 stress_75
                      4.0223449303e+02 stress_76
                      4.4186476147e+02 stress_77
                      4.6575126540e+02 stress_78
                      4.8293814104e+02 stress_79
                      4.9696463280e+02 stress_80
                      5.0917119381e+02 stress_81
                      5.2001587384e+02 stress_82
                      5.2959140522e+02 stress_83
                      5.3784157433e+02 stress_84
                      5.4465287398e+02 stress_85
                      5.4990515893e+02 stress_86
                      5.5349388951e+02 stress_87
                      5.5533996227e+02 stress_88
                      4.8496610130e+02 stress_89
                      6.0467010453e+01 stress_90
                     -1.5185289889e+02 stress_91
                      1.2401536814e+02 stress_92
                      4.3816806451e+02 stress_93
                      4.4452251676e+02 stress_94
                      3.8706086082e+02 stress_95
                      2.8355303566e+02 stress_96
                      1.3773445329e+02 stress_97
                     -3.6022432360e+01 stress_98
                     -2.0422115121e+02 stress_99
                     -3.3096905061e+02 stress_100
                     -4.0923095990e+02 stress_101
                     -4.5435699017e+02 stress_102
                     -4.8185885620e+02 stress_103
                     -5.0081495779e+02 stress_104
                     -5.1570481331e+02 stress_105
                     -5.2864626785e+02 stress_106
                     -5.4063133800e+02 stress_107
                     -5.5211632237e+02 stress_108
                     -5.6329524125e+02 stress_109
                     -5.7422948984e+02 stress_110
                     -5.8491055718e+02 stress_111
                     -5.9529174232e+02 stress_112
                     -6.0530781965e+02 stress_113
                     -6.1488372947e+02 stress_114
                     -6.2394008781e+02 stress_115
                     -6.3239790024e+02 stress_116
                     -6.4017992331e+02 stress_117
                     -6.4721523007e+02 stress_118
                     -6.5343797439e+02 stress_119
                     -6.5878791541e+02 stress_120
                     -6.6321536473e+02 stress_121
                     -6.6667737930e+02 stress_122
                     -6.6914021817e+02 stress_123
                     -6.7058108239e+02 stress_124
                     -6.7096816834e+02 stress_125
                     -5.7302884031e+02 stress_126
                     -3.3023318662e+02 stress_127
                     -1.6734722219e+01 stress_128
                      2.1687798618e+02 stress_129
                      3.2862111908e+02 stress_130
                      3.7728329808e+02 stress_131
                      4.0021624700e+02 stress_132
                      4.1056009089e+02 stress_133
                      4.1113749691e+02 stress_134
                      2.1757688114e+01 stress_135
                      2.7202024002e-01 stress_136
                      1.7910689898e+02 stress_137
                      1.4461742750e+02 stress_138
                     -2.0438540455e+01 stress_139
                     -3.0569014625e+02 stress_140
                     -5.2926042341e+02 stress_141
                     -6.2012536241e+02 stress_142
                     -6.5448198000e+02 stress_143
                     -6.7000624893e+02 stress_144
                     -6.7645007516e+02 stress_145
                     -6.5698138433e+02 stress_146
                     -4.2864023023e+02 stress_147
                     -7.6424540810e+01 stress_148
                      1.9152386399e+02 stress_149
                      3.0771913454e+02 stress_150
                      3.4838132236e+02 stress_151
                      3.5328468516e+02 stress_152
                      1.4659565543e+02 stress_153
                     -2.1117655555e+02 stress_154
                     -4.8155159682e+02 stress_155
                     -5.8754522379e+02 stress_156
                     -6.1773317636e+02 stress_157
                     -5.0051311884e+02 stress_158
                     -1.0144116471e+02 stress_159
                      9.0022120739e+01 stress_160
                     -6.9046757618e+01 stress_161
                     -4.3926150995e+02 stress_162
                     -5.9998697727e+02 stress_163
                     -6.1353067990e+02 stress_164
                     -5.7367375486e+02 stress_165
                     -4.9504774107e+02 stress_166
                     -3.7889957121e+02 stress_167
                     -2.2996597923e+02 stress_168
                     -6.2612922540e+01 stress_169
                      9.6384265330e+01 stress_170
                      2.2079650056e+02 stress_171
                      3.0379008544e+02 stress_172
                      3.5526416813e+02 stress_173
                      3.8774153263e+02 stress_174
                      4.0991567793e+02 stress_175
                      4.2670411445e+02 stress_176
                      4.4070266996e+02 stress_177
                      4.5325976954e+02 stress_178
                      4.6507262443e+02 stress_179
                      4.7649845867e+02 stress_180
                      4.8771252827e+02 stress_181
                      4.9878848252e+02 stress_182
                      5.0974365571e+02 stress_183
                      5.2056166811e+02 stress_184
                      5.3120719187e+02 stress_185
                      5.4163312327e+02 stress_186
                      5.5178590465e+02 stress_187
                      5.6160899559e+02 stress_188
                      5.7104408630e+02 stress_189
                      5.8003368815e+02 stress_190
                      5.8852179153e+02 stress_191
                      5.9645351595e+02 stress_192
                      6.0377900210e+02 stress_193
                      6.1045049864e+02 stress_194
                      6.1642359180e+02 stress_195
                      6.2166028958e+02 stress_196
                      6.2612505754e+02 stress_197
                      6.2978934120e+02 stress_198
                      6.3262900627e+02 stress_199
                      6.3462439357e+02 stress_200
                      6.3576302334e+02 stress_201
                      6.3581879759e+02 stress_202
                      2.8687000230e+02 stress_203
                     -6.5499939646e+01 stress_204
                      3.8445899226e+01 stress_205
                      4.4401273459e+02 stress_206
                      4.6084243825e+02 stress_207
                      3.9896451847e+02 stress_208
                      2.8677856766e+02 stress_209
                      1.2923990940e+02 stress_210
                     -5.4266672020e+01 stress_211
                     -2.2254691664e+02 stress_212
                     -3.4045751252e+02 stress_213
                     -4.0929856163e+02 stress_214
                     -4.4838333011e+02 stress_215
                     -4.7274285697e+02 stress_216
                     -4.9024877561e+02 stress_217
                     -5.0457184578e+02 stress_218
                     -5.1738053547e+02 stress_219
                     -5.2942458616e+02 stress_220
                     -5.4102526644e+02 stress_221
                     -5.5229549419e+02 stress_222
                     -5.6324399015e+02 stress_223
                     -5.7382536160e+02 stress_224
                     -5.8396733562e+02 stress_225
                     -5.9358418090e+02 stress_226
                     -6.0258522131e+02 stress_227
                     -6.1088153678e+02 stress_228
                     -6.1838561495e+02 stress_229
                     -6.2501887382e+02 stress_230
                     -6.3070997900e+02 stress_231
                     -6.3539538206e+02 stress_232
                     -6.3902542970e+02 stress_233
                     -6.4155977043e+02 stress_234
                     -6.4296930490e+02 stress_235
                     -6.3677327929e+02 stress_236
                     -2.8522228842e+02 stress_237
                      1.5128966830e+01 stress_238
                     -1.9641225449e+02 stress_239
                     -4.5004381049e+02 stress_240
                     -1.3038070976e+02 stress_241
                      4.9043036602e+01 stress_242
                     -2.7328246003e+02 stress_243
                     -3.9960394453e+02 stress_244
                     -5.1253116918e+02 stress_245
                     -3.3548190873e+02 stress_246
                     -2.2612219443e+00 stress_247
                      2.7609179802e+02 stress_248
                      3.9483722540e+02 stress_249
                      4.3652828713e+02 stress_250
                      4.4818672389e+02 stress_251
                      3.4753898563e+02 stress_252
                      3.5350250868e+01 stress_253
                     -3.1046580917e+02 stress_254
                     -4.9236030315e+02 stress_255
                     -5.5596314900e+02 stress_256
                     -5.6840212005e+02 stress_257
                     -3.0211484852e+02 stress_258
                      8.4210355514e+01 stress_259
                      2.1148525216e+02 stress_260
                      5.8383798510e+00 stress_261
                     -3.6276658136e+02 stress_262
                     -5.2941501118e+02 stress_263
                     -5.5199647532e+02 stress_264
                     -5.1186981192e+02 stress_265
                     -4.2180412484e+02 stress_266
                     -2.8400151256e+02 stress_267
                     -1.0762122338e+02 stress_268
                      8.1030731994e+01 stress_269
                      2.4125581944e+02 stress_270
                      3.4960159572e+02 stress_271
                      4.1389761714e+02 stress_272
                      4.5195360352e+02 stress_273
                      4.7659062978e+02 stress_274
                      4.9466292381e+02 stress_275
                      5.0950953500e+02 stress_276
                      5.2272379538e+02 stress_277
                      5.3505691859e+02 stress_278
                      5.4684931567e+02 stress_279
                      5.5823462911e+02 stress_280
                      5.6923914500e+02 stress_281
                      5.7983238902e+02 stress_282
                      5.8995356611e+02 stress_283
                      5.9952756170e+02 stress_284
                      6.0847201646e+02 stress_285
                      6.1670497429e+02 stress_286
                      6.2414704839e+02 stress_287
                      6.3072327058e+02 stress_288
                      6.3636769488e+02 stress_289
                      6.4102218583e+02 stress_290
                      6.4463781833e+02 stress_291
                      6.4717769567e+02 stress_292
                      6.4861454316e+02 stress_293
                      6.4863576125e+02 stress_294
                      2.8806039527e+02 stress_295
                     -5.6586451277e+01 stress_296
                      6.8049404450e+01 stress_297
                      4.5707945623e+02 stress_298
                      4.7020823438e+02 stress_299
                      4.2867405924e+02 stress_300
                      3.5379476634e+02 stress_301
                      2.4664669570e+02 stress_302
                      1.1162795671e+02 stress_303
                     -3.8811667715e+01 stress_304
                     -1.8167511916e+02 stress_305
                     -2.9453023819e+02 stress_306
                     -3.7097576708e+02 stress_307
                     -4.1903812990e+02 stress_308
                     -4.4959461504e+02 stress_309
                     -4.7046912811e+02 stress_310
                     -4.8621919341e+02 stress_311
                     -4.9930660581e+02 stress_312
                     -5.1103368533e+02 stress_313
                     -5.2209123387e+02 stress_314
                     -5.3284447147e+02 stress_315
                     -5.4348210941e+02 stress_316
                     -5.5409536759e+02 stress_317
                     -5.6471905101e+02 stress_318
                     -5.7535496260e+02 stress_319
                     -5.8598533455e+02 stress_320
                     -5.9657965561e+02 stress_321
                     -6.0710036272e+02 stress_322
                     -6.1750466699e+02 stress_323
                     -6.2774743902e+02 stress_324
                     -6.3778259054e+02 stress_325
                     -6.4756244981e+02 stress_326
                     -6.5704099760e+02 stress_327
                     -6.6617111685e+02 stress_328
                     -6.7490897612e+02 stress_329
                     -6.8321145766e+02 stress_330
                     -6.9103675593e+02 stress_331
                     -6.9834651802e+02 stress_332
                     -7.0510360387e+02 stress_333
                     -7.1127450962e+02 stress_334
                     -7.1682889633e+02 stress_335
                     -7.2173718209e+02 stress_336
                     -7.2597620761e+02 stress_337
                     -7.2952394106e+02 stress_338
                     -7.3236234648e+02 stress_339
                     -7.3447768744e+02 stress_340
                     -7.3585901734e+02 stress_341
                     -7.3649911657e+02 stress_342

>>>>> Total response returned to iterator:

Active set vector = { 2 2 2 2 2 2 2 2 2 2 2 2 2 2 2 2 2 2 2 2 2 2 2 2 2 2 2 2 2 2 2 2 2 2 2 2 2 2 2 2 2 2 2 2 2 2 2 2 2 2 2 2 2 2 2 2 2 2 2 2 2 2 2 2 2 2 2 2 2 2 2 2 2 2 2 2 2 2 2 2 2 2 2 2 2 2 2 2 2 2 2 2 2 2 2 2 2 2 2 2 2 2 2 2 2 2 2 2 2 2 2 2 2 2 2 2 2 2 2 2 2 2 2 2 2 2 2 2 2 2 2 2 2 2 2 2 2 2 2 2 2 2 2 2 2 2 2 2 2 2 2 2 2 2 2 2 2 2 2 2 2 2 2 2 2 2 2 2 2 2 2 2 2 2 2 2 2 2 2 2 2 2 2 2 2 2 2 2 2 2 2 2 2 2 2 2 2 2 2 2 2 2 2 2 2 2 2 2 2 2 2 2 2 2 2 2 2 2 2 2 2 2 2 2 2 2 2 2 2 2 2 2 2 2 2 2 2 2 2 2 2 2 2 2 2 2 2 2 2 2 2 2 2 2 2 2 2 2 2 2 2 2 2 2 2 2 2 2 2 2 2 2 2 2 2 2 2 2 2 2 2 2 2 2 2 2 2 2 2 2 2 2 2 2 2 2 2 2 2 2 2 2 2 2 2 2 2 2 2 2 2 2 2 2 2 2 2 2 2 2 2 2 2 2 2 2 2 2 2 2 2 2 2 2 2 2 2 2 2 2 2 2 } Deriv vars vector = { 1 2 3 4 5 6 7 }
 [  0.0000000000e+00  1.1653237324e-05  0.0000000000e+00  0.0000000000e+00 
    0.0000000000e+00  0.0000000000e+00  0.0000000000e+00 ] stress_1 gradient
 [ -5.7229972902e-04 -1.2095607650e-03 -2.9415478345e-02  2.8606233963e-01 
   -8.5106821229e+00  5.1164193242e+00  0.0000000000e+00 ] stress_2 gradient
 [ -9.5411327958e-01 -1.6436904022e-04 -1.9952654601e+02  1.0043860366e+01 
   -2.9958970824e+02 -2.5985496625e+02  0.0000000000e+00 ] stress_3 gradient
 [ -9.7943255786e-01 -1.1804944992e-04 -2.7334084182e+02  4.6869987128e+00 
   -1.3969846390e+02 -3.7277872687e+02  0.0000000000e+00 ] stress_4 gradient
 [ -9.6107720959e-01  1.4151646090e-03 -2.7140485081e+02 -4.8518271318e+01 
   -5.7282734944e+01 -3.6900466877e+02  5.8251305547e+00 ] stress_5 gradient
 [ -4.5150713463e-01  2.1530044763e-03 -1.8840161217e+02 -7.3419907690e+02 
    1.0315522028e+03 -2.6875120735e+02  1.6056224766e+02 ] stress_6 gradient
 [  1.5456965719e-01  1.4440032888e-03 -3.1067270399e+00 -9.4708135409e+02 
    1.3999862068e+03 -1.5305915091e+02  3.3912940994e+02 ] stress_7 gradient
 [  1.5949764412e-01  1.4370015671e-03 -9.1006963885e-01 -9.4670367909e+02 
    1.3997232157e+03 -1.5213119832e+02  3.4056188105e+02 ] stress_8 gradient
 [  1.5224043425e-01  2.5651992440e-04 -1.8631311324e+00 -9.1253426026e+02 
    1.3500626550e+03 -1.5445569073e+02  3.3869173143e+02 ] stress_9 gradient
 [ -1.2447453339e-01 -8.3455068867e-04 -6.1398701296e+01 -1.3844676026e+02 
    2.1273509240e+02 -2.4959158009e+02  2.6214032395e+02 ] stress_10 gradient
 [ -6.6929147363e-01 -4.9067920101e-04 -3.5309615913e+02  4.8960729039e+02 
   -7.1637662305e+02 -4.4812213684e+02  1.0239258163e+02 ] stress_11 gradient
 [ -8.7181206462e-01 -2.9136734736e-04 -7.3786735769e+02  3.8518036138e+02 
   -5.6358157085e+02 -5.2622000980e+02  3.9550943197e+01 ] stress_12 gradient
 [ -9.2401980518e-01 -2.5851818353e-04 -1.0101714170e+03  2.8975254024e+02 
   -4.2354432336e+02 -5.4722862581e+02  2.2645894255e+01 ] stress_13 gradient
 [ -9.2724705286e-01 -2.5750740745e-04 -1.0354995014e+03  2.8201962735e+02 
   -4.1220283495e+02 -5.4855139052e+02  2.1581934842e+01 ] stress_14 gradient
 [ -9.0789427746e-01  1.2918343986e-03 -1.0324927870e+03  1.9569356227e+02 
   -3.7526263925e+02 -5.4313410707e+02  2.9659333301e+01 ] stress_15 gradient
 [ -9.0722635435e-01  4.8280464630e-04 -1.0326416745e+03  2.0126996618e+02 
   -4.1635316223e+02 -5.3786322110e+02  3.0186966460e+01 ] stress_16 gradient
 [ -9.1595979728e-01 -2.4705826772e-04 -1.0691684577e+03  3.1328560254e+02 
   -1.6656044132e+03 -4.7279587738e+02  3.6699229595e+01 ] stress_17 gradient
 [ -9.1370957847e-01  6.8537717041e-04 -1.0688308585e+03  2.9982832694e+02 
   -1.6587282935e+03 -4.7225409140e+02  3.7629390918e+01 ] stress_18 gradient
 [ -7.7416228704e-01  1.9877966048e-03 -1.0449309183e+03 -1.1304757701e+02 
   -1.3891594685e+03 -4.3814912492e+02  9.6157666070e+01 ] stress_19 gradient
 [ -1.0089157128e-01  1.7519716552e-03 -8.6455393904e+02 -8.9536892652e+02 
   -5.4616754637e+02 -2.7234313314e+02  3.8070546665e+02 ] stress_20 gradient
 [  4.9232967872e-01  9.2796484128e-04 -4.9640112800e+02 -8.3494816271e+02 
   -8.9948413157e+01 -1.2552547202e+02  6.3267033221e+02 ] stress_21 gradient
 [  7.3771295345e-01  5.6254176029e-04 -1.0477838576e+02 -5.8953804694e+02 
    1.4678187176e+01 -6.4572243552e+01  7.3727776364e+02 ] stress_22 gradient
 [  8.2694295995e-01  4.4155733890e-04  1.8644163624e+02 -4.4993037189e+02 
    3.3624499703e+01 -4.2353830972e+01  7.7540984231e+02 ] stress_23 gradient
 [  8.5282363940e-01  4.1053213988e-04  3.1090214471e+02 -4.0204916377e+02 
    3.6328376284e+01 -3.5900814105e+01  7.8648371332e+02 ] stress_24 gradient
 [  8.3422881508e-01 -1.1436513380e-03  3.0782619078e+02 -3.1219845470e+02 
    1.0555254795e+01 -4.4905412400e+01  7.7876008609e+02 ] stress_25 gradient
 [  8.3390697347e-01 -5.2656578527e-04  3.0784338752e+02 -3.1343258172e+02 
    1.5882649593e+01 -4.5035095213e+01  7.7825966611e+02 ] stress_26 gradient
 [  8.0928409655e-01  2.0026626263e-04  3.1365226564e+02 -4.2461082744e+02 
    6.0010901673e+02 -5.6104820295e+01  7.3535772320e+02 ] stress_27 gradient
 [  8.0396522292e-01  3.5810614716e-04  3.2269639381e+02 -4.7486865332e+02 
    9.7891472966e+02 -6.0187235303e+01  7.1954044520e+02 ] stress_28 gradient
 [  8.0360575831e-01 -2.3243246692e-04  3.2264027813e+02 -4.7209308027e+02 
    9.7794677654e+02 -6.0357840255e+01  7.1940248954e+02 ] stress_29 gradient
 [  7.8150731802e-01 -1.2150565574e-03  3.1898642320e+02 -3.6971282420e+02 
    9.3781507504e+02 -7.1081168123e+01  7.1075852796e+02 ] stress_30 gradient
 [  5.6923537518e-01 -1.9693681725e-03  2.7757214522e+02  1.8130234985e+02 
    6.7690331230e+02 -1.7548678510e+02  6.2659725942e+02 ] stress_31 gradient
 [  1.9966038681e-02 -1.6546746764e-03  1.1191412822e+02  8.0314577785e+02 
    2.3639606713e+02 -4.4812674778e+02  4.0682217416e+02 ] stress_32 gradient
 [ -4.7975685226e-01 -9.8535572697e-04 -2.0736056667e+02  8.0183508664e+02 
    2.4372328985e+00 -6.9787509999e+02  2.0549913106e+02 ] stress_33 gradient
 [ -7.4021482046e-01 -6.0879550493e-04 -6.2366787309e+02  5.6393952178e+02 
   -4.9848672373e+01 -8.2877520423e+02  9.9979680422e+01 ] stress_34 gradient
 [ -8.5750160665e-01 -4.6167116779e-04 -1.0831344742e+03  3.7120243273e+02 
   -4.8405874328e+01 -8.8799471755e+02  5.2242864038e+01 ] stress_35 gradient
 [ -9.1172952705e-01 -4.2083784096e-04 -1.5512284087e+03  2.5020329168e+02 
   -3.8480702229e+01 -9.1547882879e+02  3.0087184830e+01 ] stress_36 gradient
 [ -9.3861477406e-01 -4.2478747068e-04 -2.0026641317e+03  1.7742879407e+02 
   -2.9861353663e+01 -9.2914739747e+02  1.9068874042e+01 ] stress_37 gradient
 [ -9.5290055368e-01 -4.4620485182e-04 -2.4163905693e+03  1.3329446322e+02 
   -2.3704806578e+01 -9.3642865526e+02  1.3199522082e+01 ] stress_38 gradient
 [ -9.6090732148e-01 -4.7223606680e-04 -2.7742669699e+03  1.0613923111e+02 
   -1.9558131942e+01 -9.4051741031e+02  9.9037046413e+00 ] stress_39 gradient
 [ -9.6550960428e-01 -4.9620196696e-04 -3.0607972596e+03  8.9471782989e+01 
   -1.6869779139e+01 -9.4287129750e+02  8.0063418461e+00 ] stress_40 gradient
 [ -9.6808788649e-01 -5.1437894560e-04 -3.2639582011e+03  7.9713111562e+01 
   -1.5242522113e+01 -9.4419118037e+02  6.9423824289e+00 ] stress_41 gradient
 [ -9.6930888027e-01 -5.2465464809e-04 -3.3751355847e+03  7.4969294592e+01 
   -1.4438025225e+01 -9.4481711609e+02  6.4378048725e+00 ] stress_42 gradient
 [ -9.6930881763e-01 -4.5023787258e-04 -3.3751355847e+03  7.4968326770e+01 
   -1.4437112061e+01 -9.4481653972e+02  6.4381828378e+00 ] stress_43 gradient
 [ -9.2996307033e-01  1.3420559737e-03 -3.3683618789e+03 -9.1553545396e+01 
    3.9923500249e+00 -9.2606901563e+02  3.9274275953e+01 ] stress_44 gradient
 [ -6.2654043959e-01  1.9920014243e-03 -3.3050479132e+03 -7.3351425756e+02 
    7.5965599852e+01 -7.8079054543e+02  2.9373262394e+02 ] stress_45 gradient
 [ -6.2965983744e-01  1.0082147043e-03 -3.3052109202e+03 -7.2408620607e+02 
    4.7120140377e+01 -7.8679370703e+02  2.9173011248e+02 ] stress_46 gradient
 [ -8.8261959560e-01  7.9910198301e-06 -3.3458830230e+03 -2.6692341531e+01 
   -1.7878587183e+03 -1.3001169050e+03  1.2050823875e+02 ] stress_47 gradient
 [ -8.6272134931e-01  1.3959414106e-03 -3.3428582068e+03 -1.1054697765e+02 
   -1.7597771199e+03 -1.2864673564e+03  1.3668457943e+02 ] stress_48 gradient
 [ -8.6273963885e-01  9.0072259072e-04 -3.3428582068e+03 -1.1052417481e+02 
   -1.7597451592e+03 -1.2865100077e+03  1.3666908304e+02 ] stress_49 gradient
 [ -8.7718534754e-01  1.6625834648e-04 -3.3435257119e+03 -9.3140585312e+01 
   -1.7264859248e+03 -1.3206465591e+03  1.2422245870e+02 ] stress_50 gradient
 [ -1.0957601245e+00 -1.4593956923e-04 -3.4049425150e+03  1.4825309104e+02 
   -5.5982664329e+02 -1.8694532807e+03 -7.5856337729e+01 ] stress_51 gradient
 [ -1.0944876653e+00  6.7005963737e-04 -3.4047479203e+03  1.3986797207e+02 
   -5.5859387281e+02 -1.8683328212e+03 -7.4812410231e+01 ] stress_52 gradient
 [ -9.7879291880e-01  2.0604958576e-03 -3.3854025822e+03 -2.2109541884e+02 
   -4.8924094512e+02 -1.7655516976e+03  2.0926399775e+01 ] stress_53 gradient
 [ -3.1699452537e-01  1.9535388483e-03 -3.2230892408e+03 -1.0327079314e+03 
   -2.2841684606e+02 -1.1753412878e+03  5.7070480671e+02 ] stress_54 gradient
 [  3.2374027537e-01  1.0735355539e-03 -2.8955917884e+03 -1.0241301568e+03 
   -6.2985439865e+01 -6.0275016162e+02  1.1040795674e+03 ] stress_55 gradient
 [  5.9454233516e-01  6.5604656411e-04 -2.5926576179e+03 -8.0423954700e+02 
   -1.6767504844e+01 -3.6042024279e+02  1.3298147152e+03 ] stress_56 gradient
 [  6.7271865353e-01  5.3714172577e-04 -2.4507885769e+03 -7.0934896173e+02 
   -6.8496380533e+00 -2.9040881380e+02  1.3950314588e+03 ] stress_57 gradient
 [  6.7265359622e-01  1.2171245444e-04 -2.4507989855e+03 -7.0874507595e+02 
   -7.0961921423e+00 -2.9045838145e+02  1.3949811900e+03 ] stress_58 gradient
 [  6.3721973710e-01 -1.3181975089e-03 -2.4571984359e+03 -5.4168451855e+02 
   -7.2748342849e+01 -3.1856485493e+02  1.3664691564e+03 ] stress_59 gradient
 [  2.0749014695e-01 -1.9954071518e-03 -2.5648857862e+03  4.2396858285e+02 
   -4.1251604997e+02 -6.6785266380e+02  1.0121360877e+03 ] stress_60 gradient
 [ -3.7914759964e-01 -1.4225275743e-03 -2.8575562175e+03  8.0363711296e+02 
   -4.6685839903e+02 -1.1519833956e+03  5.2100486237e+02 ] stress_61 gradient
 [ -6.3233449467e-01 -1.0881926137e-03 -3.1386813000e+03  6.9789254094e+02 
   -3.7217340774e+02 -1.3630361249e+03  3.0689843193e+02 ] stress_62 gradient
 [ -6.8875292146e-01 -1.0131802527e-03 -3.2385509212e+03  6.4620919526e+02 
   -3.3878450418e+02 -1.4102885081e+03  2.5896167433e+02 ] stress_63 gradient
 [ -6.8150882327e-01  2.6773249048e-04 -3.2371887583e+03  5.9901613249e+02 
   -3.3229556564e+02 -1.4043127240e+03  2.6492173686e+02 ] stress_64 gradient
 [ -4.0024800733e-01  1.5072500004e-03 -3.1723823870e+03 -2.2355011155e+02 
   -1.9394219132e+02 -1.1702006610e+03  4.9841566222e+02 ] stress_65 gradient
 [ -1.9342795486e-01  1.4704348715e-03 -3.1095450426e+03 -5.5318014558e+02 
   -1.2357108653e+02 -9.9753807946e+02  6.7062401342e+02 ] stress_66 gradient
 [ -2.0410628779e-01  1.9002129483e-04 -3.1114415716e+03 -4.9646593034e+02 
   -1.9672925708e+02 -1.0050708066e+03  6.6306200219e+02 ] stress_67 gradient
 [ -5.1950935390e-01 -8.0566965790e-04 -3.2192647761e+03  3.5376935446e+02 
   -1.1158810089e+03 -1.2511532850e+03  4.1602060411e+02 ] stress_68 gradient
 [ -7.7169155610e-01 -7.1807013989e-04 -3.4295655330e+03  5.3656406286e+02 
   -1.0888869881e+03 -1.4623679738e+03  2.0398086286e+02 ] stress_69 gradient
 [ -7.7534407732e-01 -7.1596489418e-04 -3.4347032856e+03  5.3567635726e+02 
   -1.0830491350e+03 -1.4655310818e+03  2.0080561489e+02 ] stress_70 gradient
 [ -7.7522241847e-01 -2.5707976366e-04 -3.4346820160e+03  5.3451932556e+02 
   -1.0828564575e+03 -1.4654325228e+03  2.0090426264e+02 ] stress_71 gradient
 [ -7.6711134184e-01  5.5813484112e-04 -3.4332574017e+03  4.8666060161e+02 
   -1.0730627809e+03 -1.4588031373e+03  2.0752953602e+02 ] stress_72 gradient
 [ -6.7288163921e-01  1.4426789241e-03 -3.4152985283e+03  1.4984625421e+02 
   -9.8237333572e+02 -1.3813663585e+03  2.8492319117e+02 ] stress_73 gradient
 [ -3.1219028513e-01  1.6594264534e-03 -3.3261425219e+03 -5.4088930844e+02 
   -6.9907126501e+02 -1.0838964595e+03  5.8222958486e+02 ] stress_74 gradient
 [  2.0932043710e-01  1.1340909129e-03 -3.1067985420e+03 -8.8627571562e+02 
   -3.5996167469e+02 -6.5279850628e+02  1.0130961079e+03 ] stress_75 gradient
 [  5.8506328032e-01  6.1271195974e-04 -2.7682757158e+03 -7.6038098653e+02 
   -1.5622306730e+02 -3.4163928936e+02  1.3240916340e+03 ] stress_76 gradient
 [  7.8189438396e-01  3.3811291765e-04 -2.3549601898e+03 -5.3528821326e+02 
   -6.6650877425e+01 -1.7837900005e+02  1.4872674800e+03 ] stress_77 gradient
 [  8.7787080858e-01  2.2731364839e-04 -1.9004810962e+03 -3.6197429322e+02 
   -2.9781908459e+01 -9.8656921879e+01  1.5669484022e+03 ] stress_78 gradient
 [  9.2598150443e-01  1.9807858382e-04 -1.4268719858e+03 -2.4865864711e+02 
   -1.4118418065e+01 -5.8644297994e+01  1.6069408036e+03 ] stress_79 gradient
 [  9.5147710138e-01  2.0738994503e-04 -9.5087071816e+02 -1.7686340874e+02 
   -7.0633182627e+00 -3.7416662116e+01  1.6281572504e+03 ] stress_80 gradient
 [  9.6579428221e-01  2.3445094359e-04 -4.8694065768e+02 -1.3099259203e+02 
   -3.6900929682e+00 -2.5485266779e+01  1.6400822889e+03 ] stress_81 gradient
 [  9.7426083568e-01  2.6873696433e-04 -4.8278040397e+01 -1.0110570477e+02 
   -1.9870433785e+00 -1.8424181599e+01  1.6471399494e+03 ] stress_82 gradient
 [  9.7948320902e-01  3.0443755732e-04  3.5298709559e+02 -8.1250957773e+01 
   -1.0857511849e+00 -1.4065686285e+01  1.6514959466e+03 ] stress_83 gradient
 [  9.8280361643e-01  3.3803658510e-04  7.0597826408e+02 -6.7886262650e+01 
   -5.9081666833e-01 -1.1293355889e+01  1.6542671546e+03 ] stress_84 gradient
 [  9.8494399361e-01  3.6722294608e-04  1.0011001361e+03 -5.8889468109e+01 
   -3.1230186376e-01 -9.5060385203e+00  1.6560537749e+03 ] stress_85 gradient
 [  9.8630702362e-01  3.9042133605e-04  1.2304385904e+03 -5.2974385372e+01 
   -1.5341143456e-01 -8.3665588473e+00  1.6571925705e+03 ] stress_86 gradient
 [  9.8711965541e-01  4.0655780544e-04  1.3878661566e+03 -4.9369329499e+01 
   -6.8487251280e-02 -7.6875972706e+00  1.6578710100e+03 ] stress_87 gradient
 [  9.8750475878e-01  4.1493794986e-04  1.4690506136e+03 -4.7638733193e+01 
   -2.9221218216e-02 -7.3654075151e+00  1.6581930326e+03 ] stress_88 gradient
 [  9.8746955768e-01  6.0213677550e-05  1.4690447305e+03 -4.7282621755e+01 
   -5.8442452003e-02 -7.4005659688e+00  1.6581639296e+03 ] stress_89 gradient
 [  8.9002842492e-01 -1.8438935064e-03  1.4513161576e+03  2.9613037192e+02 
   -2.8381024611e+01 -1.0491916092e+02  1.5769645502e+03 ] stress_90 gradient
 [  5.7469887398e-01 -2.1510201829e-03  1.3802108916e+03  8.6527317846e+02 
   -7.5255615372e+01 -4.2137404763e+02  1.3134656465e+03 ] stress_91 gradient
 [  5.8967358045e-01 -7.9644088104e-04  1.3815558578e+03  8.1149305732e+02 
    6.7405150325e+01 -4.0971296891e+02  1.3324305813e+03 ] stress_92 gradient
 [  9.0757118315e-01  1.9201165853e-05  1.4710268812e+03 -1.5306421888e+02 
    2.0923119343e+03 -1.3975311773e+02  1.7715075450e+03 ] stress_93 gradient
 [  9.1894007354e-01  2.3773102491e-05  1.4780413414e+03 -1.8139122427e+02 
    2.1273153106e+03 -1.2925053883e+02  1.7885902355e+03 ] stress_94 gradient
 [  9.1891652263e-01 -2.6587877918e-04  1.4780377210e+03 -1.8116186216e+02 
    2.1272714788e+03 -1.2927301719e+02  1.7885686917e+03 ] stress_95 gradient
 [  9.1738688243e-01 -7.8403482478e-04  1.4777987768e+03 -1.7125837145e+02 
    2.1247840219e+03 -1.3075428312e+02  1.7871513390e+03 ] stress_96 gradient
 [  8.9757227529e-01 -1.4711979954e-03  1.4746223578e+03 -8.5117219473e+01 
    2.0959015793e+03 -1.5001708025e+02  1.7687231084e+03 ] stress_97 gradient
 [  7.8685993334e-01 -2.0790533545e-03  1.4552824954e+03  2.2308179999e+02 
    1.9483719181e+03 -2.5793819661e+02  1.6654776584e+03 ] stress_98 gradient
 [  4.7508541997e-01 -2.1726590998e-03  1.3874511721e+03  7.1532390782e+02 
    1.5633657350e+03 -5.6238652958e+02  1.3742164062e+03 ] stress_99 gradient
 [  1.5971820427e-02 -1.7024871882e-03  1.2368308001e+03  9.9942792958e+02 
    1.0326005143e+03 -1.0111956972e+03  9.4484282797e+02 ] stress_100 gradient
 [ -3.8593493955e-01 -1.1275142132e-03  9.9895733167e+02  9.3064113178e+02 
    5.9416614986e+02 -1.4043928391e+03  5.6866759845e+02 ] stress_101 gradient
 [ -6.4448509584e-01 -7.3195590821e-04  6.9268563578e+02  7.1478167941e+02 
    3.2621298478e+02 -1.6575336938e+03  3.2648397827e+02 ] stress_102 gradient
 [ -7.9090398642e-01 -5.1797575154e-04  3.3737019196e+02  5.0974085286e+02 
    1.8121634732e+02 -1.8010009273e+03  1.8922565447e+02 ] stress_103 gradient
 [ -8.7166720980e-01 -4.1910029228e-04 -5.3969256603e+01  3.5717986622e+02 
    1.0442935706e+02 -1.8801967815e+03  1.1345700363e+02 ] stress_104 gradient
 [ -9.1700269772e-01 -3.8503984078e-04 -4.7265695403e+02  2.5214035283e+02 
    6.2888644560e+01 -1.9246843270e+03  7.0894847411e+01 ] stress_105 gradient
 [ -9.4332109427e-01 -3.8694033980e-04 -9.1226584462e+02  1.8118774551e+02 
    3.9571019234e+01 -1.9505275184e+03  4.6169791258e+01 ] stress_106 gradient
 [ -9.5918234233e-01 -4.0919107678e-04 -1.3673155985e+03  1.3305805489e+02 
    2.5948448856e+01 -1.9661119345e+03  3.1259996933e+01 ] stress_107 gradient
 [ -9.6909698468e-01 -4.4323383163e-04 -1.8327236736e+03  9.9957784763e+01 
    1.7672449689e+01 -1.9758588949e+03  2.1934950147e+01 ] stress_108 gradient
 [ -9.7550809457e-01 -4.8416587652e-04 -2.3035772326e+03  7.6795599093e+01 
    1.2461026641e+01 -1.9821643615e+03  1.5901941201e+01 ] stress_109 gradient
 [ -9.7978331614e-01 -5.2900479682e-04 -2.7750706913e+03  6.0289777312e+01 
    9.0704512398e+00 -1.9863712720e+03  1.1877037536e+01 ] stress_110 gradient
 [ -9.8271404779e-01 -5.7580315456e-04 -3.2424591069e+03  4.8317294732e+01 
    6.7975877340e+00 -1.9892559942e+03  9.1167904296e+00 ] stress_111 gradient
 [ -9.8477289456e-01 -6.2318797216e-04 -3.7010364555e+03  3.9488854080e+01 
    5.2342521390e+00 -1.9912842334e+03  7.1770960350e+00 ] stress_112 gradient
 [ -9.8625094405e-01 -6.7012966770e-04 -4.1462582718e+03  3.2879972502e+01 
    4.1329771758e+00 -1.9927401392e+03  5.7839328352e+00 ] stress_113 gradient
 [ -9.8733230262e-01 -7.1580688479e-04 -4.5737226428e+03  2.7866534371e+01 
    3.3412645842e+00 -1.9938058437e+03  4.7645727835e+00 ] stress_114 gradient
 [ -9.8813620722e-01 -7.5953237837e-04 -4.9791860464e+03  2.4020514322e+01 
    2.7623190381e+00 -1.9945983498e+03  4.0063835874e+00 ] stress_115 gradient
 [ -9.8874172459e-01 -8.0071747020e-04 -5.3586425469e+03  2.1043693223e+01 
    2.3331322807e+00 -1.9951948907e+03  3.4352849480e+00 ] stress_116 gradient
 [ -9.8920234539e-01 -8.3884426862e-04 -5.7083061460e+03  1.8725711331e+01 
    2.0098724692e+00 -1.9956496452e+03  3.0006301237e+00 ] stress_117 gradient
 [ -9.8955483659e-01 -8.7346642485e-04 -6.0247660059e+03  1.6915859811e+01 
    1.7660578567e+00 -1.9959971951e+03  2.6680246962e+00 ] stress_118 gradient
 [ -9.8982485783e-01 -9.0419027667e-04 -6.3049027282e+03  1.5505695343e+01 
    1.5806857014e+00 -1.9962634771e+03  2.4132791692e+00 ] stress_119 gradient
 [ -9.9003040637e-01 -9.3066879838e-04 -6.5458924272e+03  1.4416906930e+01 
    1.4409717067e+00 -1.9964663587e+03  2.2190073618e+00 ] stress_120 gradient
 [ -9.9018430157e-01 -9.5262060822e-04 -6.7454162579e+03  1.3592286825e+01 
    1.3377842633e+00 -1.9966173671e+03  2.0742484088e+00 ] stress_121 gradient
 [ -9.9029550030e-01 -9.6980773416e-04 -6.9014821137e+03  1.2991139276e+01 
    1.2629048742e+00 -1.9967274534e+03  1.9691753324e+00 ] stress_122 gradient
 [ -9.9037011995e-01 -9.8204524372e-04 -7.0125305218e+03  1.2585102365e+01 
    1.2126808830e+00 -1.9968012286e+03  1.8984966740e+00 ] stress_123 gradient
 [ -9.9041214830e-01 -9.8920865535e-04 -7.0775075029e+03  1.2355433386e+01 
    1.1843728288e+00 -1.9968427270e+03  1.8588108017e+00 ] stress_124 gradient
 [ -9.9042323477e-01 -9.9113360700e-04 -7.0949644578e+03  1.2294708430e+01 
    1.1770675164e+00 -1.9968536780e+03  1.8482278975e+00 ] stress_125 gradient
 [ -9.9030339236e-01 -4.9763549630e-04 -7.0949436407e+03  1.1163206001e+01 
    1.2300309894e+00 -1.9967349462e+03  2.0239796367e+00 ] stress_126 gradient
 [ -9.7149510657e-01  6.8089956548e-04 -7.0915997797e+03 -8.3722127069e+01 
    5.6698310395e+00 -1.9780346843e+03  2.9730389914e+01 ] stress_127 gradient
 [ -7.2443502767e-01  1.6631228950e-03 -7.0403954875e+03 -7.0652235729e+02 
    3.4905850467e+01 -1.7318217162e+03  3.9452817037e+02 ] stress_128 gradient
 [ -8.8374636485e-02  1.3030341585e-03 -6.8340926109e+03 -1.2629729011e+03 
    6.0733579125e+01 -1.0973292937e+03  1.3346495887e+03 ] stress_129 gradient
 [  4.2827983725e-01  6.1941031756e-04 -6.4854092261e+03 -1.1065844483e+03 
    5.2803668868e+01 -5.8172598367e+02  2.0986446394e+03 ] stress_130 gradient
 [  6.7962959398e-01  2.5872156894e-04 -6.1124535463e+03 -8.2028524004e+02 
    3.8984768376e+01 -3.3078627867e+02  2.4704835256e+03 ] stress_131 gradient
 [  7.8899252077e-01  1.1078000966e-04 -5.8062963444e+03 -6.3483154578e+02 
    3.0102428784e+01 -2.2156049556e+02  2.6323342413e+03 ] stress_132 gradient
 [  8.3277943173e-01  5.7425169798e-05 -5.6217160292e+03 -5.4614616571e+02 
    2.5867177313e+01 -1.7781761755e+02  2.6971529923e+03 ] stress_133 gradient
 [  8.3508539605e-01  5.4780302361e-05 -5.6103756835e+03 -5.4119830345e+02 
    2.5631581177e+01 -1.7551387439e+02  2.7005671114e+03 ] stress_134 gradient
 [  8.0473509769e-01 -1.8348305638e-03 -5.6159451196e+03 -3.9139480575e+02 
   -1.3184434619e+01 -2.2033150594e+02  2.6571120230e+03 ] stress_135 gradient
 [  7.9730989880e-01 -1.9251636746e-03 -5.6173588717e+03 -3.6179830980e+02 
   -2.0782496758e+01 -2.3136134116e+02  2.6464175433e+03 ] stress_136 gradient
 [  8.0316858403e-01 -1.0376588515e-03 -5.6133692741e+03 -4.4262988678e+02 
   -1.5059889442e+01 -2.2513167210e+02  2.6548784642e+03 ] stress_137 gradient
 [  8.0316455449e-01 -1.2115374957e-03 -5.6133697266e+03 -4.4259078439e+02 
   -1.5069934236e+01 -2.2513743578e+02  2.6548727948e+03 ] stress_138 gradient
 [  7.9792964153e-01 -2.0310140685e-03 -5.6141170608e+03 -4.1564794209e+02 
   -2.2007601231e+01 -2.3285581110e+02  2.6473824071e+03 ] stress_139 gradient
 [  6.0721802984e-01 -3.0069208945e-03 -5.6458715673e+03  7.1402963418e+01 
   -1.4130106552e+02 -5.1856526552e+02  2.3701077424e+03 ] stress_140 gradient
 [ -9.6729594526e-02 -2.4316011962e-03 -5.8439336750e+03  7.3905054641e+02 
   -2.7200761022e+02 -1.5827793320e+03  1.3372817071e+03 ] stress_141 gradient
 [ -6.1136067314e-01 -1.6480120144e-03 -6.2137600005e+03  6.2932697318e+02 
   -2.0241269425e+02 -2.3656456670e+03  5.7748126439e+02 ] stress_142 gradient
 [ -8.0839559240e-01 -1.3463881233e-03 -6.6047939806e+03  4.2320414477e+02 
   -1.3056043857e+02 -2.6667789614e+03  2.8521558158e+02 ] stress_143 gradient
 [ -8.7965512434e-01 -1.2529975662e-03 -6.9113910570e+03  3.1029078231e+02 
   -9.4065866570e+01 -2.7760306811e+03  1.7918097049e+02 ] stress_144 gradient
 [ -9.0349520481e-01 -1.2280642493e-03 -7.0730576199e+03  2.6541750724e+02 
   -7.9919140436e+01 -2.8126456152e+03  1.4364397009e+02 ] stress_145 gradient
 [ -9.0349503778e-01 -1.1299077479e-03 -7.0730576199e+03  2.6541495785e+02 
   -7.9919140436e+01 -2.8126450388e+03  1.4364434805e+02 ] stress_146 gradient
 [ -8.9863315209e-01  9.5536187447e-06 -7.0721620317e+03  2.3303592787e+02 
   -7.8228875137e+01 -2.8055389970e+03  1.5076097037e+02 ] stress_147 gradient
 [ -7.2801341988e-01  1.3720221569e-03 -7.0368162574e+03 -3.2093017449e+02 
   -4.6013112487e+01 -2.5553192909e+03  4.0135803389e+02 ] stress_148 gradient
 [ -1.3119677424e-01  1.2793941590e-03 -6.8512228278e+03 -1.0920534091e+03 
    1.1633700675e+01 -1.6788547013e+03  1.2791630658e+03 ] stress_149 gradient
 [  3.5226162189e-01  6.9782703975e-04 -6.5593746722e+03 -1.1008431841e+03 
    2.9013024943e+01 -9.6844935954e+02  1.9906722237e+03 ] stress_150 gradient
 [  5.5081956287e-01  4.2383306170e-04 -6.3399836275e+03 -9.5504372351e+02 
    2.9040419843e+01 -6.7657368900e+02  2.2830044276e+03 ] stress_151 gradient
 [  5.7510830077e-01  3.8997740731e-04 -6.3046864113e+03 -9.3019149565e+02 
    2.8710767883e+01 -6.4086365273e+02  2.3187708501e+03 ] stress_152 gradient
 [  5.7275567306e-01 -6.4640153789e-04 -6.3050973229e+03 -9.1339477242e+02 
    2.0735199464e+01 -6.4406768281e+02  2.3155683890e+03 ] stress_153 gradient
 [  4.3347477629e-01 -2.1128239087e-03 -6.3345494573e+03 -3.8285348024e+02 
   -2.1503078498e+02 -8.4166452329e+02  2.1180650169e+03 ] stress_154 gradient
 [ -1.0711909679e-01 -2.1683344625e-03 -6.5170390109e+03  5.8289910385e+02 
   -5.6355508911e+02 -1.6271562149e+03  1.3329283556e+03 ] stress_155 gradient
 [ -5.0304100171e-01 -1.7464443012e-03 -6.7921936564e+03  7.4113623912e+02 
   -5.3123184714e+02 -2.2117156239e+03  7.4862074268e+02 ] stress_156 gradient
 [ -6.3173273542e-01 -1.5880290991e-03 -6.9530347757e+03  6.9182552189e+02 
   -4.6786835766e+02 -2.4034410029e+03  5.5697613963e+02 ] stress_157 gradient
 [ -6.3148461568e-01 -9.9763261284e-04 -6.9529849956e+03  6.8923341020e+02 
   -4.6768024602e+02 -2.4030807729e+03  5.5733595823e+02 ] stress_158 gradient
 [ -5.2996988472e-01  7.6848758823e-04 -6.9305704013e+03  2.4632877988e+02 
   -4.1966703192e+02 -2.2549657073e+03  7.0545951873e+02 ] stress_159 gradient
 [ -2.6836507263e-01  1.1006401033e-03 -6.8583618738e+03 -3.8680165276e+02 
   -3.2002073300e+02 -1.8726200774e+03  1.0878314142e+03 ] stress_160 gradient
 [ -2.6977206643e-01  3.0205537671e-04 -6.8585594553e+03 -3.7904342424e+02 
   -3.3224424586e+02 -1.8742833027e+03  1.0861685382e+03 ] stress_161 gradient
 [ -4.5611849957e-01 -1.1139241957e-03 -6.9084893332e+03  1.9787774862e+02 
   -1.1376800436e+03 -2.1218344822e+03  8.3866459180e+02 ] stress_162 gradient
 [ -7.7052839568e-01 -1.1647375750e-03 -7.1073741692e+03  5.7261918924e+02 
   -1.3885670995e+03 -2.5766442178e+03  3.8393551893e+02 ] stress_163 gradient
 [ -8.0408022153e-01 -1.1519886273e-03 -7.1493726839e+03  5.6813529160e+02 
   -1.3323801605e+03 -2.6279674886e+03  3.3262092641e+02 ] stress_164 gradient
 [ -8.0407667219e-01 -9.5104737115e-04 -7.1493722313e+03  5.6808828140e+02 
   -1.3323755947e+03 -2.6279628776e+03  3.3262583990e+02 ] stress_165 gradient
 [ -8.0378426922e-01 -5.5534098908e-04 -7.1493192835e+03  5.6539624795e+02 
   -1.3320432032e+03 -2.6275427053e+03  3.3304613222e+02 ] stress_166 gradient
 [ -7.9933659149e-01  1.9474329501e-05 -7.1485056061e+03  5.3607142945e+02 
   -1.3274938236e+03 -2.6211334924e+03  3.3945483412e+02 ] stress_167 gradient
 [ -7.6921386636e-01  6.9737832132e-04 -7.1428152950e+03  3.9541626368e+02 
   -1.2993099509e+03 -2.5776442163e+03  3.8294299409e+02 ] stress_168 gradient
 [ -6.5289892281e-01  1.2594369833e-03 -7.1186827462e+03  2.6443057623e+01 
   -1.1984334384e+03 -2.4094856630e+03  5.5109854813e+02 ] stress_169 gradient
 [ -3.8389639710e-01  1.4101545618e-03 -7.0500116336e+03 -5.0392756497e+02 
   -9.8005499669e+02 -2.0202473627e+03  9.4033455034e+02 ] stress_170 gradient
 [ -4.9981803412e-03  1.1216822349e-03 -6.9115462802e+03 -8.7791646820e+02 
   -6.8988940785e+02 -1.4717235803e+03  1.4888643641e+03 ] stress_171 gradient
 [  3.4863114833e-01  6.8645666596e-04 -6.6980840383e+03 -9.3516969088e+02 
   -4.3278188349e+02 -9.5960844977e+02  2.0009928190e+03 ] stress_172 gradient
 [  6.0118976845e-01  3.3684027151e-04 -6.4217201904e+03 -7.9838987490e+02 
   -2.5748648713e+02 -5.9373634144e+02  2.3668792019e+03 ] stress_173 gradient
 [  7.5902859728e-01  1.2011400847e-04 -6.0975208919e+03 -6.1697646153e+02 
   -1.5240330513e+02 -3.6499314703e+02  2.5956331219e+03 ] stress_174 gradient
 [  8.5319888813e-01  4.9903539698e-06 -5.7367441252e+03 -4.5866427282e+02 
   -9.2028599200e+01 -2.2846423226e+02  2.7321695408e+03 ] stress_175 gradient
 [  9.0929280087e-01 -4.5507964529e-05 -5.3469890395e+03 -3.3794614255e+02 
   -5.7280908618e+01 -1.4710469242e+02  2.8135331441e+03 ] stress_176 gradient
 [  9.4332988411e-01 -5.6923311004e-05 -4.9336567693e+03 -2.5034951548e+02 
   -3.6855271521e+01 -9.7718018301e+01  2.8629227827e+03 ] stress_177 gradient
 [  9.6453451712e-01 -4.4690086957e-05 -4.5009736399e+03 -1.8771057351e+02 
   -2.4499258662e+01 -6.6939387201e+01  2.8937031475e+03 ] stress_178 gradient
 [  9.7812301849e-01 -1.7862270723e-05 -4.0526613881e+03 -1.4287244692e+02 
   -1.6794899745e+01 -4.7208579191e+01  2.9134349646e+03 ] stress_179 gradient
 [  9.8707568536e-01  1.8180961645e-05 -3.5921788217e+03 -1.1050532588e+02 
   -1.1848294051e+01 -3.4205139253e+01  2.9264390810e+03 ] stress_180 gradient
 [  9.9313035801e-01  6.0136840821e-05 -3.1228535100e+03 -8.6863938284e+01 
   -8.5819088612e+00 -2.5408033459e+01  2.9352364946e+03 ] stress_181 gradient
 [  9.9732498870e-01  1.0587652556e-04 -2.6480053291e+03 -6.9370536349e+01 
   -6.3702273047e+00 -1.9312364792e+01  2.9413330010e+03 ] stress_182 gradient
 [  1.0002960158e+00  1.5395438626e-04 -2.1709021124e+03 -5.6253497540e+01 
   -4.8361129331e+00 -1.4993062502e+01  2.9456519581e+03 ] stress_183 gradient
 [  1.0024430741e+00  2.0332531231e-04 -1.6948175764e+03 -4.6290591978e+01 
   -3.7485354150e+00 -1.1871453060e+01  2.9487742915e+03 ] stress_184 gradient
 [  1.0040233237e+00  2.5319169408e-04 -1.2229747523e+03 -3.8629958899e+01 
   -2.9632149717e+00 -9.5728972100e+00  2.9510726707e+03 ] stress_185 gradient
 [  1.0052057341e+00  3.0290914168e-04 -7.5857042376e+02 -3.2671996908e+01 
   -2.3860957536e+00 -7.8530148992e+00  2.9527927699e+03 ] stress_186 gradient
 [  1.0061037170e+00  3.5193450411e-04 -3.0474209103e+02 -2.7989506831e+01 
   -1.9550826578e+00 -6.5463884921e+00  2.9540993801e+03 ] stress_187 gradient
 [  1.0067948153e+00  3.9979592119e-04  1.3546461258e+02 -2.4274437876e+01 
   -1.6281702005e+00 -5.5406262248e+00  2.9551051335e+03 ] stress_188 gradient
 [  1.0073328952e+00  4.4606953044e-04  5.5907148305e+02 -2.1302385072e+01 
   -1.3779634501e+00 -4.7579183860e+00  2.9558878902e+03 ] stress_189 gradient
 [  1.0077561435e+00  4.9037382039e-04  9.6323924790e+02 -1.8907779971e+01 
   -1.1825465007e+00 -4.1417809260e+00  2.9565043441e+03 ] stress_190 gradient
 [  1.0080918275e+00  5.3236045442e-04  1.3452598730e+03 -1.6967390453e+01 
   -1.0300482198e+00 -3.6535971733e+00  2.9569926694e+03 ] stress_191 gradient
 [  1.0083598027e+00  5.7170504442e-04  1.7025266944e+03 -1.5388801280e+01 
   -9.0951067001e-01 -3.2633959910e+00  2.9573827248e+03 ] stress_192 gradient
 [  1.0085747048e+00  6.0812096517e-04  2.0326909993e+03 -1.4101644680e+01 
   -8.1362851821e-01 -2.9504281318e+00  2.9576956763e+03 ] stress_193 gradient
 [  1.0087473280e+00  6.4134145610e-04  2.3335249046e+03 -1.3052513380e+01 
   -7.3692280093e-01 -2.6985552837e+00  2.9579473981e+03 ] stress_194 gradient
 [  1.0088857313e+00  6.7112310006e-04  2.6029666117e+03 -1.2200581799e+01 
   -6.7665402604e-01 -2.4974028328e+00  2.9581488512e+03 ] stress_195 gradient
 [  1.0089960532e+00  6.9725963782e-04  2.8392593376e+03 -1.1514254075e+01 
   -6.2916951659e-01 -2.3365961393e+00  2.9583094845e+03 ] stress_196 gradient
 [  1.0090828032e+00  7.1956109511e-04  3.0407671292e+03 -1.0969594308e+01 
   -5.9081666833e-01 -2.2103715375e+00  2.9584357234e+03 ] stress_197 gradient
 [  1.0091494264e+00  7.3787521016e-04  3.2061748883e+03 -1.0548261082e+01 
   -5.6250860378e-01 -2.1135416977e+00  2.9585328593e+03 ] stress_198 gradient
 [  1.0091984073e+00  7.5207417386e-04  3.3343756880e+03 -1.0236634067e+01 
   -5.4150584118e-01 -2.0420720532e+00  2.9586042938e+03 ] stress_199 gradient
 [  1.0092315206e+00  7.6205473055e-04  3.4244685094e+03 -1.0025046843e+01 
   -5.2689523726e-01 -1.9936571431e+00  2.9586526728e+03 ] stress_200 gradient
 [  1.0092499771e+00  7.6775108499e-04  3.4758813347e+03 -9.9069489025e+00 
   -5.1867676088e-01 -1.9665678422e+00  2.9586795080e+03 ] stress_201 gradient
 [  1.0092508331e+00  7.6803009710e-04  3.4783992996e+03 -9.9012245871e+00 
   -5.1958992492e-01 -1.9654151051e+00  2.9586806419e+03 ] stress_202 gradient
 [  9.9019645284e-01 -9.4511218758e-04  3.4749436598e+03  8.8714615386e+01 
   -4.2553410589e+00 -3.4574591182e+01  2.9307436756e+03 ] stress_203 gradient
 [  6.8760683754e-01 -1.9889499625e-03  3.4092252729e+03  8.1785305747e+02 
   -3.2012675127e+01 -5.5344429431e+02  2.4862082032e+03 ] stress_204 gradient
 [  6.8770211017e-01 -1.4651101770e-03  3.4092291648e+03  8.1751269321e+02 
   -3.1022623457e+01 -5.5332106682e+02  2.4864238676e+03 ] stress_205 gradient
 [  8.7738327544e-01  1.2097232111e-04  3.4376425707e+03  1.9795347482e+02 
    1.5406206631e+03 -2.9383993290e+02  2.9408133050e+03 ] stress_206 gradient
 [  9.0293225863e-01  1.4412946933e-04  3.4440818452e+03  1.1825247284e+02 
    1.7178053943e+03 -2.5758695791e+02  3.0043008783e+03 ] stress_207 gradient
 [  9.0289985525e-01 -1.6776684710e-04  3.4440764146e+03  1.1856044101e+02 
    1.7177652151e+03 -2.5764113650e+02  3.0042502315e+03 ] stress_208 gradient
 [  9.0077319522e-01 -7.2822836891e-04  3.4437397205e+03  1.3164095043e+02 
    1.7153535508e+03 -2.6119617474e+02  3.0009098147e+03 ] stress_209 gradient
 [  8.7340010189e-01 -1.4561584661e-03  3.4392739984e+03  2.4062732624e+02 
    1.6864966768e+03 -3.0704683076e+02  2.9578351438e+03 ] stress_210 gradient
 [  7.2706042631e-01 -2.0268804390e-03  3.4127263483e+03  5.9214438326e+02 
    1.5408357130e+03 -5.5243230726e+02  2.7273018225e+03 ] stress_211 gradient
 [  3.5426033866e-01 -1.9734174278e-03  3.3244472853e+03  1.0381314194e+03 
    1.1868073170e+03 -1.1778415725e+03  2.1397365284e+03 ] stress_212 gradient
 [ -1.2540224731e-01 -1.4093839560e-03  3.1414115089e+03  1.1529428704e+03 
    7.4896011657e+02 -1.9825793465e+03  1.3836782748e+03 ] stress_213 gradient
 [ -4.9771505028e-01 -8.5851331167e-04  2.8684480903e+03  9.4935147598e+02 
    4.2038843094e+02 -2.6072286128e+03  7.9680355271e+02 ] stress_214 gradient
 [ -7.1939065580e-01 -5.2141832943e-04  2.5292106943e+03  6.8223253694e+02 
    2.3032901005e+02 -2.9792004244e+03  4.4732179876e+02 ] stress_215 gradient
 [ -8.3993531838e-01 -3.5391496576e-04  2.1433606265e+03  4.6962941750e+02 
    1.2952217188e+02 -3.1815252121e+03  2.5722872445e+02 ] stress_216 gradient
 [ -9.0518855308e-01 -2.8506275256e-04  1.7236465551e+03  3.2313906155e+02 
    7.6131338993e+01 -3.2910789487e+03  1.5429754879e+02 ] stress_217 gradient
 [ -9.4156208321e-01 -2.6971098583e-04  1.2787881331e+03  2.2619871102e+02 
    4.6938420879e+01 -3.3521647418e+03  9.6904214077e+01 ] stress_218 gradient
 [ -9.6265697899e-01 -2.8350983386e-04  8.1570885873e+02  1.6215647376e+02 
    3.0297845733e+01 -3.3876021560e+03  6.3609276646e+01 ] stress_219 gradient
 [ -9.7539804415e-01 -3.1356438938e-04  3.4060770473e+02  1.1927546113e+02 
    2.0402808017e+01 -3.4090113478e+03  4.3494207346e+01 ] stress_220 gradient
 [ -9.8339372549e-01 -3.5280673207e-04 -1.4065214529e+02  9.0009986673e+01 
    1.4279134806e+01 -3.4224499456e+03  3.0868051669e+01 ] stress_221 gradient
 [ -9.8858881068e-01 -3.9712418106e-04 -6.2234010366e+02  6.9623444870e+01 
    1.0351619374e+01 -3.4311830745e+03  2.2662902488e+01 ] stress_222 gradient
 [ -9.9207081744e-01 -4.4394310926e-04 -1.0988432446e+03  5.5134683027e+01 
    7.7491039188e+00 -3.4370378214e+03  1.7162062230e+01 ] stress_223 gradient
 [ -9.9446948217e-01 -4.9151860698e-04 -1.5646454871e+03  4.4644219828e+01 
    5.9757407602e+00 -3.4410712451e+03  1.3371872172e+01 ] stress_224 gradient
 [ -9.9616197443e-01 -5.3857848185e-04 -2.0144122211e+03  3.6920395026e+01 
    4.7356649663e+00 -3.4439185033e+03  1.0697422143e+01 ] stress_225 gradient
 [ -9.9738098475e-01 -5.8413041070e-04 -2.4429916651e+03  3.1150721705e+01 
    3.8498965510e+00 -3.4459686445e+03  8.7705784141e+00 ] stress_226 gradient
 [ -9.9827408217e-01 -6.2736216276e-04 -2.8454768646e+03  2.6789477854e+01 
    3.2061164098e+00 -3.4474718125e+03  7.3585171807e+00 ] stress_227 gradient
 [ -9.9893722412e-01 -6.6759425731e-04 -3.2173201867e+03  2.3463473509e+01 
    2.7312714918e+00 -3.4485876610e+03  6.3104321133e+00 ] stress_228 gradient
 [ -9.9943392291e-01 -7.0423257099e-04 -3.5542152056e+03  2.0914949236e+01 
    2.3778772772e+00 -3.4494228184e+03  5.5250297456e+00 ] stress_229 gradient
 [ -9.9980731346e-01 -7.3677731212e-04 -3.8523723024e+03  1.8962284897e+01 
    2.1130599125e+00 -3.4500516359e+03  4.9346551073e+00 ] stress_230 gradient
 [ -1.0000868135e+00 -7.6479791270e-04 -4.1084028142e+03  1.7477432865e+01 
    1.9158166455e+00 -3.4505219523e+03  4.4928190323e+00 ] stress_231 gradient
 [ -1.0002926335e+00 -7.8792531441e-04 -4.3193212961e+03  1.6370066983e+01 
    1.7706236769e+00 -3.4508683495e+03  4.1670168945e+00 ] stress_232 gradient
 [ -1.0004387410e+00 -8.0587556420e-04 -4.4828039253e+03  1.5576122127e+01 
    1.6683493768e+00 -3.4511144586e+03  3.9360828943e+00 ] stress_233 gradient
 [ -1.0005344479e+00 -8.1842273989e-04 -4.5969744470e+03  1.5052282345e+01 
    1.6016884640e+00 -3.4512752653e+03  3.7848986126e+00 ] stress_234 gradient
 [ -1.0005856002e+00 -8.2540621038e-04 -4.6604847271e+03  1.4771153539e+01 
    1.5660750871e+00 -3.4513617205e+03  3.7036370544e+00 ] stress_235 gradient
 [ -1.0005856002e+00 -7.9416723988e-04 -4.6604847271e+03  1.4771129933e+01 
    1.5651619231e+00 -3.4513617205e+03  3.7036370544e+00 ] stress_236 gradient
 [ -9.8048763044e-01  9.2956646357e-04 -4.6568100550e+03 -8.9083084263e+01 
    6.6615264059e+00 -3.4171087427e+03  3.7957082859e+01 ] stress_237 gradient
 [ -7.6304472331e-01  1.9172327426e-03 -4.6111680035e+03 -6.7344169383e+02 
    3.5412108211e+01 -3.0456064982e+03  4.0946789918e+02 ] stress_238 gradient
 [ -7.6559383203e-01  8.5686510333e-04 -4.6132665490e+03 -6.0773263622e+02 
    2.5462645961e+01 -3.0495864926e+03  4.0549024060e+02 ] stress_239 gradient
 [ -8.2299398534e-01 -2.8282052168e-04 -4.6779317260e+03  9.9470769443e+01 
   -7.3169950349e+01 -3.1441097027e+03  3.1102047150e+02 ] stress_240 gradient
 [ -7.9782906159e-01  1.2678576586e-03 -4.6737339110e+03 -1.3170269042e+01 
   -6.6694709265e+01 -3.1012233077e+03  3.5390654005e+02 ] stress_241 gradient
 [ -6.6987020602e-01  1.8625051420e-03 -4.6501412493e+03 -3.5620713624e+02 
   -4.4976032907e+01 -2.8827744504e+03  5.7235600369e+02 ] stress_242 gradient
 [ -6.8527379593e-01  2.7474666541e-04 -4.6605937906e+03 -1.3349065971e+02 
   -7.7324843452e+01 -2.9079152220e+03  5.4722324131e+02 ] stress_243 gradient
 [ -7.2801225277e-01 -2.5856436624e-04 -4.6959453123e+03  2.3110843872e+02 
   -1.2509515611e+02 -2.9793070525e+03  4.7585367525e+02 ] stress_244 gradient
 [ -8.1140987969e-01 -6.2587277049e-04 -4.7973291518e+03  5.8545925380e+02 
   -1.5848132018e+02 -3.1209385537e+03  3.3426581145e+02 ] stress_245 gradient
 [ -8.0965049281e-01  2.6250698788e-04 -4.7970227783e+03  5.7251636401e+02 
   -1.5773343942e+02 -3.1179518144e+03  3.3725245703e+02 ] stress_246 gradient
 [ -6.8241513696e-01  1.6343431873e-03 -4.7725871370e+03  1.2040348070e+02 
   -1.2669905443e+02 -2.9011154851e+03  5.5408438487e+02 ] stress_247 gradient
 [ -6.9488515763e-02  1.5555806056e-03 -4.5942573619e+03 -7.8771969180e+02 
   -3.8710819381e+01 -1.8549708803e+03  1.6002361584e+03 ] stress_248 gradient
 [  4.6148965289e-01  8.7281023716e-04 -4.2644170798e+03 -8.5194876599e+02 
    2.1322363471e+00 -9.4815486356e+02  2.5070875091e+03 ] stress_249 gradient
 [  6.7766507614e-01  5.6187579155e-04 -3.9739958012e+03 -6.9235054194e+02 
    9.6649205539e+00 -5.7880379758e+02  2.8764598237e+03 ] stress_250 gradient
 [  7.3640796559e-01  4.7909944208e-04 -3.8498122507e+03 -6.2446307541e+02 
    1.0515988772e+01 -4.7840912598e+02  2.9768605523e+03 ] stress_251 gradient
 [  7.3629328015e-01 -2.8066329522e-05 -3.8498344255e+03 -6.2323003425e+02 
    1.0368056311e+01 -4.7859990381e+02  2.9766696822e+03 ] stress_252 gradient
 [  7.0071005856e-01 -1.5158156269e-03 -3.8570985099e+03 -4.3509340407e+02 
   -1.1672601430e+01 -5.3873457435e+02  2.9165388914e+03 ] stress_253 gradient
 [  3.1698546412e-01 -2.3303233792e-03 -3.9588187721e+03  5.2690032065e+02 
   -1.1736066280e+02 -1.1920657600e+03  2.2632367042e+03 ] stress_254 gradient
 [ -2.4544014768e-01 -1.8879717582e-03 -4.2249338148e+03  9.7638807902e+02 
   -1.5191019695e+02 -2.1536182992e+03  1.3017016192e+03 ] stress_255 gradient
 [ -5.1822156990e-01 -1.5501104758e-03 -4.4774371845e+03  9.0386509722e+02 
   -1.3208359498e+02 -2.6211455961e+03  8.3417366258e+02 ] stress_256 gradient
 [ -5.7445376074e-01 -1.4771324227e-03 -4.5534526631e+03  8.6272472500e+02 
   -1.2470432221e+02 -2.7176324922e+03  7.3768558325e+02 ] stress_257 gradient
 [ -5.6816675248e-01 -1.4980585832e-04 -4.5521076969e+03  8.1472613891e+02 
   -1.2199496665e+02 -2.7069616139e+03  7.4835579222e+02 ] stress_258 gradient
 [ -3.3684627949e-01  1.2377944362e-03 -4.4930921472e+03 -1.4261144174e+01 
   -6.8537198892e+01 -2.3126716780e+03  1.1426290659e+03 ] stress_259 gradient
 [ -8.8706123946e-02  1.2791887569e-03 -4.4084859460e+03 -4.9818117014e+02 
   -3.1449344674e+01 -1.8891189591e+03  1.5661705591e+03 ] stress_260 gradient
 [ -9.1593168442e-02  2.4935317209e-04 -4.4093274550e+03 -4.6784730295e+02 
   -3.5667602175e+01 -1.8939004971e+03  1.5613892200e+03 ] stress_261 gradient
 [ -2.7421558517e-01 -1.1671516802e-03 -4.4775322191e+03  3.1843748649e+02 
   -1.3360949089e+02 -2.2028971925e+03  1.2524030691e+03 ] stress_262 gradient
 [ -5.9793636005e-01 -1.2248960955e-03 -4.6956918866e+03  7.6536249832e+02 
   -1.6371648548e+02 -2.7559482885e+03  6.9936036666e+02 ] stress_263 gradient
 [ -6.5964706131e-01 -1.1896947900e-03 -4.7655369030e+03  7.6411072625e+02 
   -1.5626507281e+02 -2.8618564971e+03  5.9345237240e+02 ] stress_264 gradient
 [ -6.5964376251e-01 -9.8739300949e-04 -4.7655364505e+03  7.6406278364e+02 
   -1.5626233332e+02 -2.8618507334e+03  5.9345804181e+02 ] stress_265 gradient
 [ -6.5925331425e-01 -5.3424779439e-04 -4.7654595177e+03  7.6024695492e+02 
   -1.5605139260e+02 -2.8611896392e+03  5.9411909510e+02 ] stress_266 gradient
 [ -6.5226362021e-01  1.4358541083e-04 -4.7640652240e+03  7.1279047922e+02 
   -1.5325437335e+02 -2.8493181862e+03  6.0598970731e+02 ] stress_267 gradient
 [ -6.0219901279e-01  9.1156902272e-04 -4.7535566576e+03  4.8139899965e+02 
   -1.3842277474e+02 -2.7640935221e+03  6.9121039974e+02 ] stress_268 gradient
 [ -4.1926428652e-01  1.4198101354e-03 -4.7090602258e+03 -6.0337575937e+01 
   -9.8912480872e+01 -2.4522007039e+03  1.0030905051e+03 ] stress_269 gradient
 [ -6.5690450730e-02  1.3725278878e-03 -4.5915683346e+03 -6.4391828879e+02 
   -4.5171449856e+01 -1.8488025893e+03  1.6064747780e+03 ] stress_270 gradient
 [  3.2068496189e-01  9.8550990461e-04 -4.3802072629e+03 -8.6991793526e+02 
   -6.6870949783e+00 -1.1890196548e+03  2.2662566103e+03 ] stress_271 gradient
 [  6.0494611830e-01  6.2373989583e-04 -4.0864199485e+03 -7.8387120498e+02 
    9.2065125731e+00 -7.0335002025e+02  2.7519327287e+03 ] stress_272 gradient
 [  7.7622652671e-01  4.0256269887e-04 -3.7324082892e+03 -6.0342386722e+02 
    1.2472897763e+01 -4.1055273719e+02  3.0447377614e+03 ] stress_273 gradient
 [  8.7277884215e-01  2.9402204626e-04 -3.3355473291e+03 -4.3955970622e+02 
    1.1278480140e+01 -2.4540887704e+02  3.2098865623e+03 ] stress_274 gradient
 [  9.2715886220e-01  2.5407239224e-04 -2.9074172632e+03 -3.1685573419e+02 
    9.1270673637e+00 -1.5234733634e+02  3.3029510735e+03 ] stress_275 gradient
 [  9.5858922676e-01  2.5318090467e-04 -2.4563277378e+03 -2.3048151405e+02 
    7.1345450061e+00 -9.8533579113e+01  3.3567666321e+03 ] stress_276 gradient
 [  9.7739907843e-01  2.7447677892e-04 -1.9889732631e+03 -1.7058433035e+02 
    5.5456408283e+00 -6.6313451482e+01  3.3889877831e+03 ] stress_277 gradient
 [  9.8906903636e-01  3.0853682707e-04 -1.5113677205e+03 -1.2887718009e+02 
    4.3402652577e+00 -4.6315208691e+01  3.4089868185e+03 ] stress_278 gradient
 [  9.9656177624e-01  3.4993674915e-04 -1.0292027789e+03 -9.9481604333e+01 
    3.4407993818e+00 -3.3470846337e+01  3.4218318134e+03 ] stress_279 gradient
 [  1.0015261961e+00  3.9537680090e-04 -5.4799994961e+02 -7.8446562498e+01 
    2.7696243504e+00 -2.4957313628e+01  3.4303453785e+03 ] stress_280 gradient
 [  1.0049098026e+00  4.4270610850e-04 -7.3155841643e+01 -6.3154189379e+01 
    2.2664713575e+00 -1.9153287204e+01  3.4361497213e+03 ] stress_281 gradient
 [  1.0072746651e+00  4.9041667552e-04  3.9006643718e+02 -5.1866016259e+01 
    1.8865954169e+00 -1.5095079655e+01  3.4402078855e+03 ] stress_282 gradient
 [  1.0089642135e+00  5.3737440392e-04  8.3655040382e+02 -4.3416879374e+01 
    1.5962094797e+00 -1.2195948283e+01  3.4431076001e+03 ] stress_283 gradient
 [  1.0101943312e+00  5.8268034432e-04  1.2614148991e+03 -3.7015182609e+01 
    1.3724844658e+00 -1.0084135684e+01  3.4452192666e+03 ] stress_284 gradient
 [  1.0111040479e+00  6.2558438067e-04  1.6599801468e+03 -3.2116868134e+01 
    1.1998966071e+00 -8.5221782241e+00  3.4467813782e+03 ] stress_285 gradient
 [  1.0117849574e+00  6.6545235786e-04  2.0279098527e+03 -2.8342006638e+01 
    1.0647484327e+00 -7.3527274207e+00  3.4479507887e+03 ] stress_286 gradient
 [  1.0122987139e+00  7.0173573021e-04  2.3611903881e+03 -2.5422688354e+01 
    9.5973464044e-01 -6.4708842811e+00  3.4488329490e+03 ] stress_287 gradient
 [  1.0126872831e+00  7.3395537737e-04  2.6561425555e+03 -2.3168441108e+01 
    8.7846311332e-01 -5.8028736867e+00  3.4495008056e+03 ] stress_288 gradient
 [  1.0129797487e+00  7.6170861235e-04  2.9095817898e+03 -2.1442294425e+01 
    8.1545484630e-01 -5.3002807340e+00  3.4500031154e+03 ] stress_289 gradient
 [  1.0131963210e+00  7.8465370329e-04  3.1187407736e+03 -2.0146297593e+01 
    7.6797035762e-01 -4.9285233313e+00  3.4503754067e+03 ] stress_290 gradient
 [  1.0133509052e+00  8.0251042805e-04  3.2813088077e+03 -1.9211168693e+01 
    7.3327014476e-01 -4.6628176583e+00  3.4506407351e+03 ] stress_291 gradient
 [  1.0134530010e+00  8.1507000653e-04  3.3955535469e+03 -1.8588835275e+01 
    7.1135422851e-01 -4.4870253897e+00  3.4508164868e+03 ] stress_292 gradient
 [  1.0135085168e+00  8.2218047946e-04  3.4601983594e+03 -1.8248740118e+01 
    6.9856994229e-01 -4.3919246620e+00  3.4509117329e+03 ] stress_293 gradient
 [  1.0135093102e+00  8.2228549974e-04  3.4611532311e+03 -1.8243782979e+01 
    6.9856994229e-01 -4.3901955630e+00  3.4509132448e+03 ] stress_294 gradient
 [  9.9272777936e-01 -9.4529071702e-04  3.4573418902e+03  8.8872287820e+01 
   -3.3759647867e+00 -3.9855275405e+01  3.4154503247e+03 ] stress_295 gradient
 [  6.9934707657e-01 -1.9724879000e-03  3.3932062370e+03  8.0758512497e+02 
   -3.0914687553e+01 -5.4149825923e+02  2.9138291398e+03 ] stress_296 gradient
 [  6.9966113051e-01 -1.3448643814e-03  3.3932264206e+03  8.0624884076e+02 
   -2.7076844759e+01 -5.4110955660e+02  2.9142177968e+03 ] stress_297 gradient
 [  8.7618894346e-01  1.8963138372e-04  3.4317802922e+03  1.4379358961e+02 
    1.5857364099e+03 -3.0193502239e+02  3.1533855929e+03 ] stress_298 gradient
 [  8.9336140116e-01  2.1433116540e-04  3.4382168514e+03  8.4336068758e+01 
    1.7074190747e+03 -2.7730220398e+02  3.1780176707e+03 ] stress_299 gradient
 [  8.9335528377e-01  4.9398857508e-06  3.4382163988e+03  8.4403533062e+01 
    1.7074117694e+03 -2.7731200223e+02  3.1780078437e+03 ] stress_300 gradient
 [  8.9295884339e-01 -3.7162401679e-04  3.4381525899e+03  8.7415101346e+01 
    1.7069414903e+03 -2.7797367277e+02  3.1773464125e+03 ] stress_301 gradient
 [  8.8766836447e-01 -8.9901700692e-04  3.4372963732e+03  1.1586824232e+02 
    1.7010990714e+03 -2.8681515891e+02  3.1685055334e+03 ] stress_302 gradient
 [  8.5464161125e-01 -1.4997107241e-03  3.4317721464e+03  2.3933471679e+02 
    1.6666289825e+03 -3.4208021093e+02  3.1132435191e+03 ] stress_303 gradient
 [  7.3331933634e-01 -1.9643190011e-03  3.4094903742e+03  5.3736472110e+02 
    1.5458093483e+03 -5.4527214441e+02  2.9100611361e+03 ] stress_304 gradient
 [  4.5953670172e-01 -2.0220812441e-03  3.3478945892e+03  9.2714058893e+02 
    1.2838674461e+03 -1.0040089637e+03  2.4513390594e+03 ] stress_305 gradient
 [  7.4035929947e-02 -1.6594384024e-03  3.2250759170e+03  1.1477947870e+03 
    9.2763604353e+02 -1.6500161251e+03  1.8053384307e+03 ] stress_306 gradient
 [ -2.9148813425e-01 -1.1626587987e-03  3.0356773464e+03  1.0949369770e+03 
    5.9998208703e+02 -2.2625582038e+03  1.1927899711e+03 ] stress_307 gradient
 [ -5.5790037055e-01 -7.6263221605e-04  2.7893163811e+03  8.9277413562e+02 
    3.6746239818e+02 -2.7090399971e+03  7.4629590632e+02 ] stress_308 gradient
 [ -7.2743905527e-01 -5.0818496746e-04  2.4985787730e+03  6.7373870318e+02 
    2.2293695299e+02 -2.9932159667e+03  4.6210951177e+02 ] stress_309 gradient
 [ -8.2993970932e-01 -3.6655067512e-04  2.1731164191e+03  4.9329219161e+02 
    1.3737172375e+02 -3.1650635638e+03  2.9025455384e+02 ] stress_310 gradient
 [ -8.9154438971e-01 -2.9761522212e-04  1.8193513973e+03  3.5917328533e+02 
    8.6909405637e+01 -3.2683729287e+03  1.8694050398e+02 ] stress_311 gradient
 [ -9.2913715983e-01 -2.7308847434e-04  1.4416471542e+03  2.6325093054e+02 
    5.6641694292e+01 -3.3314304770e+03  1.2387964833e+02 ] stress_312 gradient
 [ -9.5262556335e-01 -2.7566663903e-04  1.0433502662e+03  1.9533924485e+02 
    3.8025946889e+01 -3.3708407962e+03  8.4467794678e+01 ] stress_313 gradient
 [ -9.6769324166e-01 -2.9514353984e-04  6.2723845960e+02  1.4709976540e+02 
    2.6257098053e+01 -3.3961277924e+03  5.9179199100e+01 ] stress_314 gradient
 [ -9.7761581783e-01 -3.2547292279e-04  1.9584780106e+02  1.1250526008e+02 
    1.8612094741e+01 -3.4127836768e+03  4.2522470344e+01 ] stress_315 gradient
 [ -9.8431492533e-01 -3.6297953184e-04 -2.4837434159e+02  8.7388592454e+01 
    1.3514817105e+01 -3.4240314996e+03  3.1273981478e+01 ] stress_316 gradient
 [ -9.8894407872e-01 -4.0534621526e-04 -7.0303400100e+02  6.8906949413e+01 
    1.0033838536e+01 -3.4318055520e+03  2.3499707511e+01 ] stress_317 gradient
 [ -9.9221201853e-01 -4.5104213735e-04 -1.1657295165e+03  5.5122561641e+01 
    7.6039109502e+00 -3.4372943051e+03  1.8010206075e+01 ] stress_318 gradient
 [ -9.9456475063e-01 -4.9900277666e-04 -1.6340528918e+03  4.4705228048e+01 
    5.8725533064e+00 -3.4412470373e+03  1.4057492909e+01 ] stress_319 gradient
 [ -9.9628937485e-01 -5.4844736311e-04 -2.1056015611e+03  3.6732495845e+01 
    4.6160405702e+00 -3.4441444396e+03  1.1160046061e+01 ] stress_320 gradient
 [ -9.9757452816e-01 -5.9876805969e-04 -2.5779494263e+03  3.0557836055e+01 
    3.6882666401e+00 -3.4463040908e+03  9.0003785270e+00 ] stress_321 gradient
 [ -9.9854679674e-01 -6.4947092321e-04 -3.0486948268e+03  2.5722064153e+01 
    2.9915230259e+00 -3.4479380942e+03  7.3656984314e+00 ] stress_322 gradient
 [ -9.9929249215e-01 -7.0013219204e-04 -3.5154229781e+03  2.1895589396e+01 
    2.4618883069e+00 -3.4491916948e+03  6.1123806957e+00 ] stress_323 gradient
 [ -9.9987164002e-01 -7.5037988365e-04 -3.9757602773e+03  1.8838651485e+01 
    2.0546174657e+00 -3.4501651804e+03  5.1387538926e+00 ] stress_324 gradient
 [ -1.0003266654e+00 -7.9987962718e-04 -4.4273869746e+03  1.6374870687e+01 
    1.7359234744e+00 -3.4509305972e+03  4.3737614068e+00 ] stress_325 gradient
 [ -1.0006878420e+00 -8.4831812641e-04 -4.8679778896e+03  1.4373390329e+01 
    1.4848035600e+00 -3.4515375128e+03  3.7663785357e+00 ] stress_326 gradient
 [ -1.0009772594e+00 -8.9541026867e-04 -5.2953295767e+03  1.2735704975e+01 
    1.2848207904e+00 -3.4520245438e+03  3.2795651342e+00 ] stress_327 gradient
 [ -1.0012110356e+00 -9.4087961316e-04 -5.7072200360e+03  1.1387398523e+01 
    1.1241040435e+00 -3.4524176268e+03  2.8864859871e+00 ] stress_328 gradient
 [ -1.0014012593e+00 -9.8447608759e-04 -6.1015992348e+03  1.0271251422e+01 
    9.9352168925e-01 -3.4527375111e+03  2.5663532603e+00 ] stress_329 gradient
 [ -1.0015569710e+00 -1.0259605603e-03 -6.4764655631e+03  9.3432631626e+00 
    8.8759474337e-01 -3.4529997586e+03  2.3044264869e+00 ] stress_330 gradient
 [ -1.0016850395e+00 -1.0651057479e-03 -6.8298898179e+03  8.5692884966e+00 
    8.0084423200e-01 -3.4532147439e+03  2.0889888755e+00 ] stress_331 gradient
 [ -1.0017907054e+00 -1.1017055928e-03 -7.1601070707e+03  7.9225116617e+00 
    7.2961749898e-01 -3.4533928416e+03  1.9109693832e+00 ] stress_332 gradient
 [ -1.0018780401e+00 -1.1355630622e-03 -7.4654143914e+03  7.3819120272e+00 
    6.7208820582e-01 -3.4535392391e+03  1.7643206208e+00 ] stress_333 gradient
 [ -1.0019502169e+00 -1.1665017443e-03 -7.7442781024e+03  6.9308477688e+00 
    6.2277738905e-01 -3.4536608527e+03  1.6426172726e+00 ] stress_334 gradient
 [ -1.0020096371e+00 -1.1943627221e-03 -7.9953120558e+03  6.5560998484e+00 
    5.8351135599e-01 -3.4537611408e+03  1.5428356417e+00 ] stress_335 gradient
 [ -1.0020582004e+00 -1.2189922214e-03 -8.2171658548e+03  6.2473999065e+00 
    5.5155064565e-01 -3.4538424087e+03  1.4611961268e+00 ] stress_336 gradient
 [ -1.0020974728e+00 -1.2402700461e-03 -8.4087850677e+03  5.9963562146e+00 
    5.2506890918e-01 -3.4539092674e+03  1.3950530049e+00 ] stress_337 gradient
 [ -1.0021285191e+00 -1.2580821511e-03 -8.5691645903e+03  5.7966543213e+00 
    5.0497931062e-01 -3.4539605641e+03  1.3428944234e+00 ] stress_338 gradient
 [ -1.0021522579e+00 -1.2723356164e-03 -8.6974844095e+03  5.6432780741e+00 
    4.8854237862e-01 -3.4540009099e+03  1.3028305858e+00 ] stress_339 gradient
 [ -1.0021693574e+00 -1.2829595547e-03 -8.7931191070e+03  5.5325096185e+00 
    4.7758441011e-01 -3.4540297283e+03  1.2741055744e+00 ] stress_340 gradient
 [ -1.0021802559e+00 -1.2898976996e-03 -8.8555704299e+03  5.4617759634e+00 
    4.7027910815e-01 -3.4540481721e+03  1.2559634585e+00 ] stress_341 gradient
 [ -1.0021852459e+00 -1.2931129436e-03 -8.8845107350e+03  5.4294011233e+00 
    4.6662645198e-01 -3.4540568176e+03  1.2472703637e+00 ] stress_342 gradient



---------------------
Begin Evaluation   78
---------------------
Parameters for evaluation 78:
                      4.7767973303e+02 fy
                      2.0503447552e+05 E
                      1.9873992584e-02 b
                      8.6151236107e-01 cR1
                      2.9656840123e-02 cR2
                      1.9402360986e-02 a1
                      2.5758202376e-02 a3

blocking fork: workflow_driver1 paramsDakota.in results.out

Active response data for evaluation 78:
Active set vector = { 1 1 1 1 1 1 1 1 1 1 1 1 1 1 1 1 1 1 1 1 1 1 1 1 1 1 1 1 1 1 1 1 1 1 1 1 1 1 1 1 1 1 1 1 1 1 1 1 1 1 1 1 1 1 1 1 1 1 1 1 1 1 1 1 1 1 1 1 1 1 1 1 1 1 1 1 1 1 1 1 1 1 1 1 1 1 1 1 1 1 1 1 1 1 1 1 1 1 1 1 1 1 1 1 1 1 1 1 1 1 1 1 1 1 1 1 1 1 1 1 1 1 1 1 1 1 1 1 1 1 1 1 1 1 1 1 1 1 1 1 1 1 1 1 1 1 1 1 1 1 1 1 1 1 1 1 1 1 1 1 1 1 1 1 1 1 1 1 1 1 1 1 1 1 1 1 1 1 1 1 1 1 1 1 1 1 1 1 1 1 1 1 1 1 1 1 1 1 1 1 1 1 1 1 1 1 1 1 1 1 1 1 1 1 1 1 1 1 1 1 1 1 1 1 1 1 1 1 1 1 1 1 1 1 1 1 1 1 1 1 1 1 1 1 1 1 1 1 1 1 1 1 1 1 1 1 1 1 1 1 1 1 1 1 1 1 1 1 1 1 1 1 1 1 1 1 1 1 1 1 1 1 1 1 1 1 1 1 1 1 1 1 1 1 1 1 1 1 1 1 1 1 1 1 1 1 1 1 1 1 1 1 1 1 1 1 1 1 1 1 1 1 1 1 1 1 1 1 1 1 1 1 1 1 1 1 1 1 1 1 1 1 }
                      2.3893153364e+00 stress_1
                     -2.4831504849e+02 stress_2
                     -4.9107500121e+02 stress_3
                     -4.9281392812e+02 stress_4
                     -1.6904840698e+02 stress_5
                      2.3389149418e+02 stress_6
                      3.7975699730e+02 stress_7
                      3.8066183371e+02 stress_8
                      1.3479451237e+02 stress_9
                     -2.2975217782e+02 stress_10
                     -4.2570803984e+02 stress_11
                     -4.7947125597e+02 stress_12
                     -4.9604529629e+02 stress_13
                     -4.9724181424e+02 stress_14
                     -1.7101250130e+02 stress_15
                     -3.3670494790e+02 stress_16
                     -5.0079549192e+02 stress_17
                     -3.0863818398e+02 stress_18
                      2.3037253140e+01 stress_19
                      2.9636748961e+02 stress_20
                      4.1558401797e+02 stress_21
                      4.6079645962e+02 stress_22
                      4.7969482497e+02 stress_23
                      4.8597292884e+02 stress_24
                      1.5943325791e+02 stress_25
                      2.8581565048e+02 stress_26
                      4.2667524878e+02 stress_27
                      4.6011020574e+02 stress_28
                      3.3888945759e+02 stress_29
                      1.2785145322e+02 stress_30
                     -1.2396342108e+02 stress_31
                     -3.1908008198e+02 stress_32
                     -4.2269817962e+02 stress_33
                     -4.7245895481e+02 stress_34
                     -4.9960555046e+02 stress_35
                     -5.1744465721e+02 stress_36
                     -5.3087123401e+02 stress_37
                     -5.4162256104e+02 stress_38
                     -5.5026004180e+02 stress_39
                     -5.5689626755e+02 stress_40
                     -5.6149461307e+02 stress_41
                     -5.6398107796e+02 stress_42
                     -5.4872306323e+02 stress_43
                     -1.6504503952e+02 stress_44
                      1.0454116391e+02 stress_45
                     -9.8846331997e+01 stress_46
                     -4.3869169097e+02 stress_47
                     -1.4559975079e+02 stress_48
                     -2.4714569328e+02 stress_49
                     -4.0457254528e+02 stress_50
                     -5.6046052620e+02 stress_51
                     -3.9267993854e+02 stress_52
                     -5.6662138362e+01 stress_53
                      2.3213413605e+02 stress_54
                      3.6209168460e+02 stress_55
                      4.0983594740e+02 stress_56
                      4.2421211039e+02 stress_57
                      3.3900942822e+02 stress_58
                      2.8301872526e+01 stress_59
                     -3.0762214771e+02 stress_60
                     -4.6595285028e+02 stress_61
                     -5.1780937674e+02 stress_62
                     -5.2934711115e+02 stress_63
                     -2.6399478033e+02 stress_64
                      1.1437705788e+02 stress_65
                      2.0234479154e+02 stress_66
                     -6.5684572183e+01 stress_67
                     -4.2289147958e+02 stress_68
                     -5.2130980815e+02 stress_69
                     -5.2252187760e+02 stress_70
                     -4.2839640791e+02 stress_71
                     -2.5804644242e+02 stress_72
                     -3.5435447175e+01 stress_73
                      1.7618786001e+02 stress_74
                      3.1853202077e+02 stress_75
                      3.9586138668e+02 stress_76
                      4.3750283349e+02 stress_77
                      4.6281627186e+02 stress_78
                      4.8071426508e+02 stress_79
                      4.9494550582e+02 stress_80
                      5.0704914588e+02 stress_81
                      5.1762272625e+02 stress_82
                      5.2685181951e+02 stress_83
                      5.3474239969e+02 stress_84
                      5.4122359149e+02 stress_85
                      5.4620464154e+02 stress_86
                      5.4960091829e+02 stress_87
                      5.5134596738e+02 stress_88
                      4.7860592197e+02 stress_89
                      4.6894100827e+01 stress_90
                     -1.5931754251e+02 stress_91
                      1.2657769103e+02 stress_92
                      4.5857179692e+02 stress_93
                      4.6491088287e+02 stress_94
                      4.0551513959e+02 stress_95
                      2.9868840923e+02 stress_96
                      1.4933187024e+02 stress_97
                     -2.5639800666e+01 stress_98
                     -1.9226270481e+02 stress_99
                     -3.1863099712e+02 stress_100
                     -3.9941948871e+02 stress_101
                     -4.4798350370e+02 stress_102
                     -4.7828422731e+02 stress_103
                     -4.9907412940e+02 stress_104
                     -5.1499597666e+02 stress_105
                     -5.2839973142e+02 stress_106
                     -5.4046253909e+02 stress_107
                     -5.5176989077e+02 stress_108
                     -5.6260300075e+02 stress_109
                     -5.7308241175e+02 stress_110
                     -5.8324071659e+02 stress_111
                     -5.9306080196e+02 stress_112
                     -6.0249945944e+02 stress_113
                     -6.1149865320e+02 stress_114
                     -6.1999263160e+02 stress_115
                     -6.2791356751e+02 stress_116
                     -6.3519361099e+02 stress_117
                     -6.4176966622e+02 stress_118
                     -6.4758256585e+02 stress_119
                     -6.5257778659e+02 stress_120
                     -6.5671021833e+02 stress_121
                     -6.5994070984e+02 stress_122
                     -6.6223843159e+02 stress_123
                     -6.6358254397e+02 stress_124
                     -6.6394361922e+02 stress_125
                     -5.6272669130e+02 stress_126
                     -3.1378148935e+02 stress_127
                     -3.7095328639e+00 stress_128
                      2.1929722389e+02 stress_129
                      3.2806732400e+02 stress_130
                      3.7748516974e+02 stress_131
                      4.0133404033e+02 stress_132
                      4.1215314385e+02 stress_133
                      4.1275712170e+02 stress_134
                      1.2548051260e+01 stress_135
                     -9.1958298434e+00 stress_136
                      1.7429530955e+02 stress_137
                      1.3864286722e+02 stress_138
                     -3.1547029081e+01 stress_139
                     -3.1761797404e+02 stress_140
                     -5.2998327135e+02 stress_141
                     -6.1582720670e+02 stress_142
                     -6.4919640471e+02 stress_143
                     -6.6444654937e+02 stress_144
                     -6.7077285956e+02 stress_145
                     -6.5064739204e+02 stress_146
                     -4.1529042861e+02 stress_147
                     -6.2725874368e+01 stress_148
                      1.9422929635e+02 stress_149
                      3.0678009714e+02 stress_150
                      3.4750944624e+02 stress_151
                      3.5249528178e+02 stress_152
                      1.3899676340e+02 stress_153
                     -2.2451298724e+02 stress_154
                     -4.8680029339e+02 stress_155
                     -5.8680425957e+02 stress_156
                     -6.1528507873e+02 stress_157
                     -4.9416621172e+02 stress_158
                     -8.9969978950e+01 stress_159
                      9.5801552212e+01 stress_160
                     -6.8689395092e+01 stress_161
                     -4.5250277012e+02 stress_162
                     -6.1042172650e+02 stress_163
                     -6.2280029776e+02 stress_164
                     -5.8159976203e+02 stress_165
                     -5.0037576449e+02 stress_166
                     -3.8085285267e+02 stress_167
                     -2.2933978306e+02 stress_168
                     -6.2486244834e+01 stress_169
                      9.3063124855e+01 stress_170
                      2.1474893600e+02 stress_171
                      2.9795292269e+02 stress_172
                      3.5149930588e+02 stress_173
                      3.8632667046e+02 stress_174
                      4.1038140446e+02 stress_175
                      4.2843637255e+02 stress_176
                      4.4316852725e+02 stress_177
                      4.5605148225e+02 stress_178
                      4.6789267375e+02 stress_179
                      4.7913364768e+02 stress_180
                      4.9001120995e+02 stress_181
                      5.0064357974e+02 stress_182
                      5.1108065150e+02 stress_183
                      5.2133034861e+02 stress_184
                      5.3137591236e+02 stress_185
                      5.4118486152e+02 stress_186
                      5.5071546634e+02 stress_187
                      5.5992098346e+02 stress_188
                      5.6875145172e+02 stress_189
                      5.7715656666e+02 stress_190
                      5.8508660223e+02 stress_191
                      5.9249229926e+02 stress_192
                      5.9932865045e+02 stress_193
                      6.0555228618e+02 stress_194
                      6.1112270028e+02 stress_195
                      6.1600518098e+02 stress_196
                      6.2016715395e+02 stress_197
                      6.2358242791e+02 stress_198
                      6.2622882908e+02 stress_199
                      6.2808826789e+02 stress_200
                      6.2914926943e+02 stress_201
                      6.2920124021e+02 stress_202
                      2.7057785578e+02 stress_203
                     -7.7546874814e+01 stress_204
                      2.9909261598e+01 stress_205
                      4.5657072142e+02 stress_206
                      4.7463326397e+02 stress_207
                      4.1067444328e+02 stress_208
                      2.9495429325e+02 stress_209
                      1.3402480923e+02 stress_210
                     -4.9730346608e+01 stress_211
                     -2.1583802407e+02 stress_212
                     -3.3414275250e+02 stress_213
                     -4.0635810473e+02 stress_214
                     -4.4914949826e+02 stress_215
                     -4.7624376509e+02 stress_216
                     -4.9542766094e+02 stress_217
                     -5.1063080819e+02 stress_218
                     -5.2377773978e+02 stress_219
                     -5.3580441299e+02 stress_220
                     -5.4715728162e+02 stress_221
                     -5.5803252514e+02 stress_222
                     -5.6849524847e+02 stress_223
                     -5.7853949544e+02 stress_224
                     -5.8812159571e+02 stress_225
                     -5.9717739846e+02 stress_226
                     -6.0563308287e+02 stress_227
                     -6.1341317477e+02 stress_228
                     -6.2044130137e+02 stress_229
                     -6.2664793302e+02 stress_230
                     -6.3196924744e+02 stress_231
                     -6.3634792979e+02 stress_232
                     -6.3973907471e+02 stress_233
                     -6.4210601926e+02 stress_234
                     -6.4342224900e+02 stress_235
                     -6.3701717821e+02 stress_236
                     -2.7578229129e+02 stress_237
                      2.2132161199e+01 stress_238
                     -1.9554433527e+02 stress_239
                     -4.4731809782e+02 stress_240
                     -1.1923944623e+02 stress_241
                      5.8915768064e+01 stress_242
                     -2.7088976815e+02 stress_243
                     -3.9583459700e+02 stress_244
                     -5.0613321510e+02 stress_245
                     -3.2338949989e+02 stress_246
                      1.1886879206e+01 stress_247
                      2.7814949467e+02 stress_248
                      3.9251872322e+02 stress_249
                      4.3436050378e+02 stress_250
                      4.4630531630e+02 stress_251
                      3.4228675744e+02 stress_252
                      2.3060856681e+01 stress_253
                     -3.1511001307e+02 stress_254
                     -4.8830566283e+02 stress_255
                     -5.5018879660e+02 stress_256
                     -5.6251103998e+02 stress_257
                     -2.8822160986e+02 stress_258
                      9.4811385883e+01 stress_259
                      2.1591840395e+02 stress_260
                      3.8567681413e+00 stress_261
                     -3.6338875418e+02 stress_262
                     -5.2405917965e+02 stress_263
                     -5.4616719739e+02 stress_264
                     -5.0468792648e+02 stress_265
                     -4.1166736169e+02 stress_266
                     -2.7018457603e+02 stress_267
                     -9.2419557460e+01 stress_268
                      9.1774157738e+01 stress_269
                      2.4421847588e+02 stress_270
                      3.4766169651e+02 stress_271
                      4.1094708266e+02 stress_272
                      4.4971929639e+02 stress_273
                      4.7529934632e+02 stress_274
                      4.9402996645e+02 stress_275
                      5.0918036210e+02 stress_276
                      5.2240315125e+02 stress_277
                      5.3452692200e+02 stress_278
                      5.4595803536e+02 stress_279
                      5.5688082323e+02 stress_280
                      5.6735964014e+02 stress_281
                      5.7739282125e+02 stress_282
                      5.8694185062e+02 stress_283
                      5.9594922214e+02 stress_284
                      6.0434690530e+02 stress_285
                      6.1206471383e+02 stress_286
                      6.1903310780e+02 stress_287
                      6.2518544207e+02 stress_288
                      6.3046261608e+02 stress_289
                      6.3481216797e+02 stress_290
                      6.3818973994e+02 stress_291
                      6.4056181464e+02 stress_292
                      6.4190353551e+02 stress_293
                      6.4192334780e+02 stress_294
                      2.7146107119e+02 stress_295
                     -6.8926222132e+01 stress_296
                      5.9930687291e+01 stress_297
                      4.7055164596e+02 stress_298
                      4.8457261555e+02 stress_299
                      4.4163869692e+02 stress_300
                      3.6429365648e+02 stress_301
                      2.5405424440e+02 stress_302
                      1.1661725048e+02 stress_303
                     -3.3923873407e+01 stress_304
                     -1.7501159014e+02 stress_305
                     -2.8716984368e+02 stress_306
                     -3.6544659283e+02 stress_307
                     -4.1667907208e+02 stress_308
                     -4.5031139987e+02 stress_309
                     -4.7355540928e+02 stress_310
                     -4.9091084888e+02 stress_311
                     -5.0497426074e+02 stress_312
                     -5.1720590686e+02 stress_313
                     -5.2842702797e+02 stress_314
                     -5.3909941085e+02 stress_315
                     -5.4948068361e+02 stress_316
                     -5.5971091905e+02 stress_317
                     -5.6985987858e+02 stress_318
                     -5.7995483885e+02 stress_319
                     -5.8999702747e+02 stress_320
                     -5.9997053093e+02 stress_321
                     -6.0984929147e+02 stress_322
                     -6.1959991024e+02 stress_323
                     -6.2918508858e+02 stress_324
                     -6.3856541752e+02 stress_325
                     -6.4769913743e+02 stress_326
                     -6.5654540038e+02 stress_327
                     -6.6506186898e+02 stress_328
                     -6.7320892610e+02 stress_329
                     -6.8094735967e+02 stress_330
                     -6.8823898387e+02 stress_331
                     -6.9504867880e+02 stress_332
                     -7.0134233668e+02 stress_333
                     -7.0708914425e+02 stress_334
                     -7.1226116192e+02 stress_335
                     -7.1683109579e+02 stress_336
                     -7.2077758358e+02 stress_337
                     -7.2408027207e+02 stress_338
                     -7.2672249390e+02 stress_339
                     -7.2869155444e+02 stress_340
                     -7.2997732971e+02 stress_341
                     -7.3057314098e+02 stress_342



------------------------------------------
Begin Dakota derivative estimation routine
------------------------------------------

>>>>> map at X performed previously and results retrieved

>>>>> Dakota finite difference gradient evaluation for x[1] + h:

---------------------
Begin Evaluation   79
---------------------
Parameters for evaluation 79:
                      4.7815741276e+02 fy
                      2.0503447552e+05 E
                      1.9873992584e-02 b
                      8.6151236107e-01 cR1
                      2.9656840123e-02 cR2
                      1.9402360986e-02 a1
                      2.5758202376e-02 a3

(Asynchronous job 79 added to queue)


>>>>> Dakota finite difference gradient evaluation for x[2] + h:

---------------------
Begin Evaluation   80
---------------------
Parameters for evaluation 80:
                      4.7767973303e+02 fy
                      2.0523950999e+05 E
                      1.9873992584e-02 b
                      8.6151236107e-01 cR1
                      2.9656840123e-02 cR2
                      1.9402360986e-02 a1
                      2.5758202376e-02 a3

(Asynchronous job 80 added to queue)


>>>>> Dakota finite difference gradient evaluation for x[3] + h:

---------------------
Begin Evaluation   81
---------------------
Parameters for evaluation 81:
                      4.7767973303e+02 fy
                      2.0503447552e+05 E
                      1.9893866577e-02 b
                      8.6151236107e-01 cR1
                      2.9656840123e-02 cR2
                      1.9402360986e-02 a1
                      2.5758202376e-02 a3

(Asynchronous job 81 added to queue)


>>>>> Dakota finite difference gradient evaluation for x[4] + h:

---------------------
Begin Evaluation   82
---------------------
Parameters for evaluation 82:
                      4.7767973303e+02 fy
                      2.0503447552e+05 E
                      1.9873992584e-02 b
                      8.6237387343e-01 cR1
                      2.9656840123e-02 cR2
                      1.9402360986e-02 a1
                      2.5758202376e-02 a3

(Asynchronous job 82 added to queue)


>>>>> Dakota finite difference gradient evaluation for x[5] + h:

---------------------
Begin Evaluation   83
---------------------
Parameters for evaluation 83:
                      4.7767973303e+02 fy
                      2.0503447552e+05 E
                      1.9873992584e-02 b
                      8.6151236107e-01 cR1
                      2.9686496964e-02 cR2
                      1.9402360986e-02 a1
                      2.5758202376e-02 a3

(Asynchronous job 83 added to queue)


>>>>> Dakota finite difference gradient evaluation for x[6] + h:

---------------------
Begin Evaluation   84
---------------------
Parameters for evaluation 84:
                      4.7767973303e+02 fy
                      2.0503447552e+05 E
                      1.9873992584e-02 b
                      8.6151236107e-01 cR1
                      2.9656840123e-02 cR2
                      1.9421763347e-02 a1
                      2.5758202376e-02 a3

(Asynchronous job 84 added to queue)


>>>>> Dakota finite difference gradient evaluation for x[7] + h:

---------------------
Begin Evaluation   85
---------------------
Parameters for evaluation 85:
                      4.7767973303e+02 fy
                      2.0503447552e+05 E
                      1.9873992584e-02 b
                      8.6151236107e-01 cR1
                      2.9656840123e-02 cR2
                      1.9402360986e-02 a1
                      2.5783960578e-02 a3

(Asynchronous job 85 added to queue)



Blocking synchronize of 7 asynchronous evaluations
First pass: initiating 7 local asynchronous jobs
Initiating evaluation 79
nonblocking fork: workflow_driver1 paramsDakota.in results.out
Initiating evaluation 80
nonblocking fork: workflow_driver1 paramsDakota.in results.out
Initiating evaluation 81
nonblocking fork: workflow_driver1 paramsDakota.in results.out
Initiating evaluation 82
nonblocking fork: workflow_driver1 paramsDakota.in results.out
Initiating evaluation 83
nonblocking fork: workflow_driver1 paramsDakota.in results.out
Initiating evaluation 84
nonblocking fork: workflow_driver1 paramsDakota.in results.out
Initiating evaluation 85
nonblocking fork: workflow_driver1 paramsDakota.in results.out
Waiting on completed jobs
Evaluation 79 has completed
Evaluation 80 has completed
Evaluation 81 has completed
Evaluation 82 has completed
Evaluation 83 has completed
Waiting on completed jobs
Evaluation 84 has completed
Waiting on completed jobs
Evaluation 85 has completed

Active response data for evaluation 79:
Active set vector = { 1 1 1 1 1 1 1 1 1 1 1 1 1 1 1 1 1 1 1 1 1 1 1 1 1 1 1 1 1 1 1 1 1 1 1 1 1 1 1 1 1 1 1 1 1 1 1 1 1 1 1 1 1 1 1 1 1 1 1 1 1 1 1 1 1 1 1 1 1 1 1 1 1 1 1 1 1 1 1 1 1 1 1 1 1 1 1 1 1 1 1 1 1 1 1 1 1 1 1 1 1 1 1 1 1 1 1 1 1 1 1 1 1 1 1 1 1 1 1 1 1 1 1 1 1 1 1 1 1 1 1 1 1 1 1 1 1 1 1 1 1 1 1 1 1 1 1 1 1 1 1 1 1 1 1 1 1 1 1 1 1 1 1 1 1 1 1 1 1 1 1 1 1 1 1 1 1 1 1 1 1 1 1 1 1 1 1 1 1 1 1 1 1 1 1 1 1 1 1 1 1 1 1 1 1 1 1 1 1 1 1 1 1 1 1 1 1 1 1 1 1 1 1 1 1 1 1 1 1 1 1 1 1 1 1 1 1 1 1 1 1 1 1 1 1 1 1 1 1 1 1 1 1 1 1 1 1 1 1 1 1 1 1 1 1 1 1 1 1 1 1 1 1 1 1 1 1 1 1 1 1 1 1 1 1 1 1 1 1 1 1 1 1 1 1 1 1 1 1 1 1 1 1 1 1 1 1 1 1 1 1 1 1 1 1 1 1 1 1 1 1 1 1 1 1 1 1 1 1 1 1 1 1 1 1 1 1 1 1 1 1 1 }
                      2.3893153364e+00 stress_1
                     -2.4831508442e+02 stress_2
                     -4.9154850842e+02 stress_3
                     -4.9329023292e+02 stress_4
                     -1.6951392748e+02 stress_5
                      2.3372919878e+02 stress_6
                      3.7991467581e+02 stress_7
                      3.8082187907e+02 stress_8
                      1.3494979525e+02 stress_9
                     -2.2978506319e+02 stress_10
                     -4.2606539562e+02 stress_11
                     -4.7991784468e+02 stress_12
                     -4.9650901262e+02 stress_13
                     -4.9770645000e+02 stress_14
                     -1.7146352683e+02 stress_15
                     -3.3715596777e+02 stress_16
                     -5.0125508945e+02 stress_17
                     -3.0909608029e+02 stress_18
                      2.2661980075e+01 stress_19
                      2.9632908351e+02 stress_20
                      4.1582137528e+02 stress_21
                      4.6114792497e+02 stress_22
                      4.8008843572e+02 stress_23
                      4.8637888547e+02 stress_24
                      1.5982580659e+02 stress_25
                      2.8620819324e+02 stress_26
                      4.2706332868e+02 stress_27
                      4.6049710351e+02 stress_28
                      3.3927603637e+02 stress_29
                      1.2822282478e+02 stress_30
                     -1.2371143559e+02 stress_31
                     -3.1909269799e+02 stress_32
                     -4.2293553034e+02 stress_33
                     -4.7281375831e+02 stress_34
                     -5.0001470663e+02 stress_35
                     -5.1787966842e+02 stress_36
                     -5.3131937581e+02 stress_37
                     -5.4207781548e+02 stress_38
                     -5.5071934271e+02 stress_39
                     -5.5735792053e+02 stress_40
                     -5.6195759411e+02 stress_41
                     -5.6444469092e+02 stress_42
                     -5.4918667609e+02 stress_43
                     -1.6548173069e+02 stress_44
                      1.0426773833e+02 stress_45
                     -9.9120345829e+01 stress_46
                     -4.3909933832e+02 stress_47
                     -1.4599457888e+02 stress_48
                     -2.4754053143e+02 stress_49
                     -4.0497481877e+02 stress_50
                     -5.6095460297e+02 stress_51
                     -3.9317297083e+02 stress_52
                     -5.7087922291e+01 stress_53
                      2.3201629454e+02 stress_54
                      3.6224988514e+02 stress_55
                      4.1011380397e+02 stress_56
                      4.2452561178e+02 stress_57
                      3.3932286606e+02 stress_58
                      2.8590752754e+01 stress_59
                     -3.0756657804e+02 stress_60
                     -4.6616662947e+02 stress_61
                     -5.1813208064e+02 stress_62
                     -5.2969378575e+02 stress_63
                     -2.6433579551e+02 stress_64
                      1.1419338112e+02 stress_65
                      2.0226156394e+02 stress_66
                     -6.5774813376e+01 stress_67
                     -4.2317543233e+02 stress_68
                     -5.2171804814e+02 stress_69
                     -5.2293166144e+02 stress_70
                     -4.2880606893e+02 stress_71
                     -2.5844997080e+02 stress_72
                     -3.5781606626e+01 stress_73
                      1.7602630977e+02 stress_74
                      3.1861459725e+02 stress_75
                      3.9612059042e+02 stress_76
                      4.3785943147e+02 stress_77
                      4.6322321938e+02 stress_78
                      4.8114780017e+02 stress_79
                      4.9539376003e+02 stress_80
                      5.0750597068e+02 stress_81
                      5.1808477335e+02 stress_82
                      5.2731716803e+02 stress_83
                      5.3520988956e+02 stress_84
                      5.4169248369e+02 stress_85
                      5.4667443752e+02 stress_86
                      5.5007125769e+02 stress_87
                      5.5181656559e+02 stress_88
                      4.7907648093e+02 stress_89
                      4.7303677761e+01 stress_90
                     -1.5906917138e+02 stress_91
                      1.2683145933e+02 stress_92
                      4.5902058436e+02 stress_93
                      4.6536664649e+02 stress_94
                      4.0597087849e+02 stress_95
                      2.9914294040e+02 stress_96
                      1.4977357726e+02 stress_97
                     -2.5258853559e+01 stress_98
                     -1.9203225384e+02 stress_99
                     -3.1860844628e+02 stress_100
                     -3.9958011161e+02 stress_101
                     -4.4826784994e+02 stress_102
                     -4.7864302129e+02 stress_103
                     -4.9947643386e+02 stress_104
                     -5.1542398525e+02 stress_105
                     -5.2884333843e+02 stress_106
                     -5.4091591664e+02 stress_107
                     -5.5222958595e+02 stress_108
                     -5.6306690514e+02 stress_109
                     -5.7354919868e+02 stress_110
                     -5.8370952700e+02 stress_111
                     -5.9353106438e+02 stress_112
                     -6.0297078427e+02 stress_113
                     -6.1197076862e+02 stress_114
                     -6.2046534373e+02 stress_115
                     -6.2838673519e+02 stress_116
                     -6.3566712931e+02 stress_117
                     -6.4224345566e+02 stress_118
                     -6.4805656482e+02 stress_119
                     -6.5305194627e+02 stress_120
                     -6.5718449909e+02 stress_121
                     -6.6041507849e+02 stress_122
                     -6.6271285944e+02 stress_123
                     -6.6405700523e+02 stress_124
                     -6.6441808931e+02 stress_125
                     -5.6320103633e+02 stress_126
                     -3.1424224697e+02 stress_127
                     -4.0338264229e+00 stress_128
                      2.1926649943e+02 stress_129
                      3.2826411335e+02 stress_130
                      3.7779667745e+02 stress_131
                      4.0169784787e+02 stress_132
                      4.1253857849e+02 stress_133
                      4.1314370937e+02 stress_134
                      1.2913720579e+01 stress_135
                     -8.8348585296e+00 stress_136
                      1.7466047284e+02 stress_137
                      1.3900802582e+02 stress_138
                     -3.1185940723e+01 stress_139
                     -3.1736887029e+02 stress_140
                     -5.3006715760e+02 stress_141
                     -6.1613307206e+02 stress_142
                     -6.4958784038e+02 stress_143
                     -6.6486973339e+02 stress_144
                     -6.7120685190e+02 stress_145
                     -6.5108138413e+02 stress_146
                     -4.1572053278e+02 stress_147
                     -6.3056935218e+01 stress_148
                      1.9417946309e+02 stress_149
                      3.0694326839e+02 stress_150
                      3.4776163039e+02 stress_151
                      3.5275854153e+02 stress_152
                      1.3925813291e+02 stress_153
                     -2.2433816794e+02 stress_154
                     -4.8689917939e+02 stress_155
                     -5.8707924323e+02 stress_156
                     -6.1561468324e+02 stress_157
                     -4.9449556871e+02 stress_158
                     -9.0236030534e+01 stress_159
                      9.5670184672e+01 stress_160
                     -6.8821556127e+01 stress_161
                     -4.5275152330e+02 stress_162
                     -6.1083710726e+02 stress_163
                     -6.2322983892e+02 stress_164
                     -5.8202929858e+02 stress_165
                     -5.0080502092e+02 stress_166
                     -3.8127864237e+02 stress_167
                     -2.2974572064e+02 stress_168
                     -6.2826137958e+01 stress_169
                      9.2858537843e+01 stress_170
                      2.1472210027e+02 stress_171
                      2.9809030498e+02 stress_172
                      3.5175777956e+02 stress_173
                      3.8666471911e+02 stress_174
                      4.1076952960e+02 stress_175
                      4.2885585977e+02 stress_176
                      4.4360792517e+02 stress_177
                      4.5650379553e+02 stress_178
                      4.6835356778e+02 stress_179
                      4.7960038129e+02 stress_180
                      4.9048201011e+02 stress_181
                      5.0111727291e+02 stress_182
                      5.1155644381e+02 stress_183
                      5.2180769171e+02 stress_184
                      5.3185442005e+02 stress_185
                      5.4166425682e+02 stress_186
                      5.5119554718e+02 stress_187
                      5.6040160008e+02 stress_188
                      5.6923249140e+02 stress_189
                      5.7763794336e+02 stress_190
                      5.8556824936e+02 stress_191
                      5.9297416452e+02 stress_192
                      5.9981069229e+02 stress_193
                      6.0603447102e+02 stress_194
                      6.1160500062e+02 stress_195
                      6.1648757395e+02 stress_196
                      6.2064962015e+02 stress_197
                      6.2406495058e+02 stress_198
                      6.2671139343e+02 stress_199
                      6.2857086049e+02 stress_200
                      6.2963187778e+02 stress_201
                      6.2968384932e+02 stress_202
                      2.7104680307e+02 stress_203
                     -7.7240558187e+01 stress_204
                      3.0215588480e+01 stress_205
                      4.5697049297e+02 stress_206
                      4.7504863286e+02 stress_207
                      4.1108977931e+02 stress_208
                      2.9536802610e+02 stress_209
                      1.3442181033e+02 stress_210
                     -4.9408541994e+01 stress_211
                     -2.1568516564e+02 stress_212
                     -3.3419735676e+02 stress_213
                     -4.0657820121e+02 stress_214
                     -4.4947456903e+02 stress_215
                     -4.7662998601e+02 stress_216
                     -4.9584912051e+02 stress_217
                     -5.1107300494e+02 stress_218
                     -5.2423253833e+02 stress_219
                     -5.3626713753e+02 stress_220
                     -5.4762515944e+02 stress_221
                     -5.5850385729e+02 stress_222
                     -5.6896896060e+02 stress_223
                     -5.7901488766e+02 stress_224
                     -5.8859819940e+02 stress_225
                     -5.9765489162e+02 stress_226
                     -6.0611123879e+02 stress_227
                     -6.1389183016e+02 stress_228
                     -6.2092033572e+02 stress_229
                     -6.2712725539e+02 stress_230
                     -6.3244878741e+02 stress_231
                     -6.3682763120e+02 stress_232
                     -6.4021889141e+02 stress_233
                     -6.4258591182e+02 stress_234
                     -6.4390218219e+02 stress_235
                     -6.3749711139e+02 stress_236
                     -2.7624788559e+02 stress_237
                      2.1786990979e+01 stress_238
                     -1.9589177236e+02 stress_239
                     -4.4770209664e+02 stress_240
                     -1.1960604916e+02 stress_241
                      5.8621298796e+01 stress_242
                     -2.7119572268e+02 stress_243
                     -3.9616697207e+02 stress_244
                     -5.0651145457e+02 stress_245
                     -3.2376622856e+02 stress_246
                      1.1586306577e+01 stress_247
                      2.7813780293e+02 stress_248
                      3.9273777005e+02 stress_249
                      4.3467601176e+02 stress_250
                      4.4664786433e+02 stress_251
                      3.4262918891e+02 stress_252
                      2.3379174305e+01 stress_253
                     -3.1499052067e+02 stress_254
                     -4.8843793926e+02 stress_255
                     -5.5044029223e+02 stress_256
                     -5.6278738690e+02 stress_257
                     -2.8849301386e+02 stress_258
                      9.4668833109e+01 stress_259
                      2.1589363624e+02 stress_260
                      3.8296457105e+00 stress_261
                     -3.6351894938e+02 stress_262
                     -5.2434372845e+02 stress_263
                     -5.4648027523e+02 stress_264
                     -5.0500099994e+02 stress_265
                     -4.1198006301e+02 stress_266
                     -2.7049193959e+02 stress_267
                     -9.2695210758e+01 stress_268
                      9.1596133776e+01 stress_269
                      2.4420577860e+02 stress_270
                      3.4781878903e+02 stress_271
                      4.1122959316e+02 stress_272
                      4.5008044601e+02 stress_273
                      4.7570712622e+02 stress_274
                      4.9446535246e+02 stress_275
                      5.0963244670e+02 stress_276
                      5.2286564299e+02 stress_277
                      5.3499610700e+02 stress_278
                      5.4643165723e+02 stress_279
                      5.5735746952e+02 stress_280
                      5.6783840064e+02 stress_281
                      5.7787309314e+02 stress_282
                      5.8742322422e+02 stress_283
                      5.9643141234e+02 stress_284
                      6.0482970899e+02 stress_285
                      6.1254798314e+02 stress_286
                      6.1951673267e+02 stress_287
                      6.2566933864e+02 stress_288
                      6.3094671895e+02 stress_289
                      6.3529642468e+02 stress_290
                      6.3867410709e+02 stress_291
                      6.4104625500e+02 stress_292
                      6.4238801579e+02 stress_293
                      6.4240782867e+02 stress_294
                      2.7193074632e+02 stress_295
                     -6.8614484544e+01 stress_296
                      6.0242479017e+01 stress_297
                      4.7096350202e+02 stress_298
                      4.8499600304e+02 stress_299
                      4.4206207735e+02 stress_300
                      3.6471669643e+02 stress_301
                      2.5447356119e+02 stress_302
                      1.1701679312e+02 stress_303
                     -3.3587459162e+01 stress_304
                     -1.7480290228e+02 stress_305
                     -2.8713105571e+02 stress_306
                     -3.6556897140e+02 stress_307
                     -4.1692367906e+02 stress_308
                     -4.5063826222e+02 stress_309
                     -4.7393494998e+02 stress_310
                     -4.9132378784e+02 stress_311
                     -5.0540857996e+02 stress_312
                     -5.1765416644e+02 stress_313
                     -5.2888457723e+02 stress_314
                     -5.3956329068e+02 stress_315
                     -5.4994897195e+02 stress_316
                     -5.6018234094e+02 stress_317
                     -5.7033357051e+02 stress_318
                     -5.8043020439e+02 stress_319
                     -5.9047364701e+02 stress_320
                     -6.0044810406e+02 stress_321
                     -6.1032759965e+02 stress_322
                     -6.2007879208e+02 stress_323
                     -6.2966442320e+02 stress_324
                     -6.3904511322e+02 stress_325
                     -6.4817912374e+02 stress_326
                     -6.5702562253e+02 stress_327
                     -6.6554228390e+02 stress_328
                     -6.7368949958e+02 stress_329
                     -6.8142806423e+02 stress_330
                     -6.8871979722e+02 stress_331
                     -6.9552958268e+02 stress_332
                     -7.0182331593e+02 stress_333
                     -7.0757018619e+02 stress_334
                     -7.1274225578e+02 stress_335
                     -7.1731223233e+02 stress_336
                     -7.2125875475e+02 stress_337
                     -7.2456147075e+02 stress_338
                     -7.2720371367e+02 stress_339
                     -7.2917278942e+02 stress_340
                     -7.3045857440e+02 stress_341
                     -7.3105439012e+02 stress_342


Active response data for evaluation 80:
Active set vector = { 1 1 1 1 1 1 1 1 1 1 1 1 1 1 1 1 1 1 1 1 1 1 1 1 1 1 1 1 1 1 1 1 1 1 1 1 1 1 1 1 1 1 1 1 1 1 1 1 1 1 1 1 1 1 1 1 1 1 1 1 1 1 1 1 1 1 1 1 1 1 1 1 1 1 1 1 1 1 1 1 1 1 1 1 1 1 1 1 1 1 1 1 1 1 1 1 1 1 1 1 1 1 1 1 1 1 1 1 1 1 1 1 1 1 1 1 1 1 1 1 1 1 1 1 1 1 1 1 1 1 1 1 1 1 1 1 1 1 1 1 1 1 1 1 1 1 1 1 1 1 1 1 1 1 1 1 1 1 1 1 1 1 1 1 1 1 1 1 1 1 1 1 1 1 1 1 1 1 1 1 1 1 1 1 1 1 1 1 1 1 1 1 1 1 1 1 1 1 1 1 1 1 1 1 1 1 1 1 1 1 1 1 1 1 1 1 1 1 1 1 1 1 1 1 1 1 1 1 1 1 1 1 1 1 1 1 1 1 1 1 1 1 1 1 1 1 1 1 1 1 1 1 1 1 1 1 1 1 1 1 1 1 1 1 1 1 1 1 1 1 1 1 1 1 1 1 1 1 1 1 1 1 1 1 1 1 1 1 1 1 1 1 1 1 1 1 1 1 1 1 1 1 1 1 1 1 1 1 1 1 1 1 1 1 1 1 1 1 1 1 1 1 1 1 1 1 1 1 1 1 1 1 1 1 1 1 1 1 1 1 1 1 }
                      2.3917046517e+00 stress_1
                     -2.4856332709e+02 stress_2
                     -4.9109252035e+02 stress_3
                     -4.9283042470e+02 stress_4
                     -1.6875197499e+02 stress_5
                      2.3428705070e+02 stress_6
                      3.7997864439e+02 stress_7
                      3.8088202228e+02 stress_8
                      1.3477361667e+02 stress_9
                     -2.2994914827e+02 stress_10
                     -4.2577659608e+02 stress_11
                     -4.7950431874e+02 stress_12
                     -4.9607775905e+02 stress_13
                     -4.9727455017e+02 stress_14
                     -1.7073266809e+02 stress_15
                     -3.3659081296e+02 stress_16
                     -5.0083686565e+02 stress_17
                     -3.0848910813e+02 stress_18
                      2.3435133212e+01 stress_19
                      2.9670146672e+02 stress_20
                      4.1576170876e+02 stress_21
                      4.6090548239e+02 stress_22
                      4.7978069956e+02 stress_23
                      4.8605276588e+02 stress_24
                      1.5920001162e+02 stress_25
                      2.8570879246e+02 stress_26
                      4.2671372466e+02 stress_27
                      4.6018332499e+02 stress_28
                      3.3884167629e+02 stress_29
                      1.2760789448e+02 stress_30
                     -1.2433909553e+02 stress_31
                     -3.1938600559e+02 stress_32
                     -4.2288311799e+02 stress_33
                     -4.7257637840e+02 stress_34
                     -4.9969587081e+02 stress_35
                     -5.1752701393e+02 stress_36
                     -5.3095391367e+02 stress_37
                     -5.4170889393e+02 stress_38
                     -5.5035097391e+02 stress_39
                     -5.5699148853e+02 stress_40
                     -5.6159310697e+02 stress_41
                     -5.6408142764e+02 stress_42
                     -5.4880815501e+02 stress_43
                     -1.6477346598e+02 stress_44
                      1.0491867152e+02 stress_45
                     -9.8671616634e+01 stress_46
                     -4.3872286829e+02 stress_47
                     -1.4535070130e+02 stress_48
                     -2.4699817951e+02 stress_49
                     -4.0457497493e+02 stress_50
                     -5.6052689874e+02 stress_51
                     -3.9257957891e+02 stress_52
                     -5.6293225810e+01 stress_53
                      2.3248341545e+02 stress_54
                      3.6229496629e+02 stress_55
                      4.0996748541e+02 stress_56
                      4.2432244394e+02 stress_57
                      3.3903462288e+02 stress_58
                      2.8040999476e+01 stress_59
                     -3.0798516739e+02 stress_60
                     -4.6620477768e+02 stress_61
                     -5.1800431344e+02 stress_62
                     -5.2952963850e+02 stress_63
                     -2.6391763390e+02 stress_64
                      1.1467485877e+02 stress_65
                      2.0262997721e+02 stress_66
                     -6.5660379252e+01 stress_67
                     -4.2303055141e+02 stress_68
                     -5.2142299290e+02 stress_69
                     -5.2263473016e+02 stress_70
                     -4.2841525825e+02 stress_71
                     -2.5790109607e+02 stress_72
                     -3.5125023477e+01 stress_73
                      1.7652498092e+02 stress_74
                      3.1876731531e+02 stress_75
                      3.9599757537e+02 stress_76
                      4.3758344761e+02 stress_77
                      4.6287196077e+02 stress_78
                      4.8076132778e+02 stress_79
                      4.9499211705e+02 stress_80
                      5.0709931176e+02 stress_81
                      5.1767825668e+02 stress_82
                      5.2691328603e+02 stress_83
                      5.3480962092e+02 stress_84
                      5.4129589519e+02 stress_85
                      5.4628102482e+02 stress_86
                      5.4968015581e+02 stress_87
                      5.5142669181e+02 stress_88
                      4.7861394573e+02 stress_89
                      4.6531584129e+01 stress_90
                     -1.5972473321e+02 stress_91
                      1.2645096186e+02 stress_92
                      4.5858179275e+02 stress_93
                      4.6492024235e+02 stress_94
                      4.0546512814e+02 stress_95
                      2.9853278312e+02 stress_96
                      1.4903975551e+02 stress_97
                     -2.6045951514e+01 stress_98
                     -1.9268470207e+02 stress_99
                     -3.1897135738e+02 stress_100
                     -3.9965760133e+02 stress_101
                     -4.4814666008e+02 stress_102
                     -4.7840339897e+02 stress_103
                     -4.9917068866e+02 stress_104
                     -5.1508282194e+02 stress_105
                     -5.2848442502e+02 stress_106
                     -5.4054955244e+02 stress_107
                     -5.5186191180e+02 stress_108
                     -5.6270165774e+02 stress_109
                     -5.7318867390e+02 stress_110
                     -5.8335511938e+02 stress_111
                     -5.9318357703e+02 stress_112
                     -6.0263061381e+02 stress_113
                     -6.1163801846e+02 stress_114
                     -6.2013989585e+02 stress_115
                     -6.2806829845e+02 stress_116
                     -6.3535527235e+02 stress_117
                     -6.4193763330e+02 stress_118
                     -6.4775613689e+02 stress_119
                     -6.5275619260e+02 stress_120
                     -6.5689263605e+02 stress_121
                     -6.6012627040e+02 stress_122
                     -6.6242623086e+02 stress_123
                     -6.6377165403e+02 stress_124
                     -6.6413308155e+02 stress_125
                     -5.6281506221e+02 stress_126
                     -3.1363454772e+02 stress_127
                     -3.3893264929e+00 stress_128
                      2.1954658711e+02 stress_129
                      3.2819806751e+02 stress_130
                      3.7755077512e+02 stress_131
                      4.0137128971e+02 stress_132
                      4.1217962819e+02 stress_133
                      4.1278305934e+02 stress_134
                      1.2194766459e+01 stress_135
                     -9.5661461603e+00 stress_136
                      1.7410429275e+02 stress_137
                      1.3841620269e+02 stress_138
                     -3.1939796114e+01 stress_139
                     -3.1818446575e+02 stress_140
                     -5.3042878112e+02 stress_141
                     -6.1613679556e+02 stress_142
                     -6.4945395497e+02 stress_143
                     -6.6468767120e+02 stress_144
                     -6.7100952409e+02 stress_145
                     -6.5086393136e+02 stress_146
                     -4.1527551201e+02 stress_147
                     -6.2457707856e+01 stress_148
                      1.9447282761e+02 stress_149
                      3.0692321147e+02 stress_150
                      3.4760436205e+02 stress_151
                      3.5258412113e+02 stress_152
                      1.3887400100e+02 stress_153
                     -2.2491247904e+02 stress_154
                     -4.8718804128e+02 stress_155
                     -5.8711593145e+02 stress_156
                     -6.1557064302e+02 stress_157
                     -4.9433090547e+02 stress_158
                     -8.9793955649e+01 stress_159
                      9.6028415735e+01 stress_160
                     -6.8626225675e+01 stress_161
                     -4.5270665567e+02 stress_162
                     -6.1061689154e+02 stress_163
                     -6.2299367905e+02 stress_164
                     -5.8175194741e+02 stress_165
                     -5.0044700691e+02 stress_166
                     -3.8080805020e+02 stress_167
                     -2.2916338005e+02 stress_168
                     -6.2209200504e+01 stress_169
                      9.3360185773e+01 stress_170
                      2.1498982615e+02 stress_171
                      2.9811286920e+02 stress_172
                      3.5159185312e+02 stress_173
                      3.8637460671e+02 stress_174
                      4.1040342088e+02 stress_175
                      4.2844515179e+02 stress_176
                      4.4317217472e+02 stress_177
                      4.5605512860e+02 stress_178
                      4.6789960174e+02 stress_179
                      4.7914599167e+02 stress_180
                      4.9003037520e+02 stress_181
                      5.0067049168e+02 stress_182
                      5.1111590669e+02 stress_183
                      5.2137430668e+02 stress_184
                      5.3142875436e+02 stress_185
                      5.4124662713e+02 stress_186
                      5.5078607876e+02 stress_187
                      5.6000026699e+02 stress_188
                      5.6883914374e+02 stress_189
                      5.7725232763e+02 stress_190
                      5.8519002350e+02 stress_191
                      5.9260290864e+02 stress_192
                      5.9944592008e+02 stress_193
                      6.0567563680e+02 stress_194
                      6.1125150611e+02 stress_195
                      6.1613877690e+02 stress_196
                      6.2030483879e+02 stress_197
                      6.2372347169e+02 stress_198
                      6.2637247769e+02 stress_199
                      6.2823374777e+02 stress_200
                      6.2929579460e+02 stress_201
                      6.2934781659e+02 stress_202
                      2.7037951519e+02 stress_203
                     -7.7930325177e+01 stress_204
                      2.9633256952e+01 stress_205
                      4.5662765525e+02 stress_206
                      4.7469265125e+02 stress_207
                      4.1066990471e+02 stress_208
                      2.9483564332e+02 stress_209
                      1.3376201683e+02 stress_210
                     -5.0101493830e+01 stress_211
                     -2.1620606200e+02 stress_212
                     -3.3442158093e+02 stress_213
                     -4.0654380683e+02 stress_214
                     -4.4927319371e+02 stress_215
                     -4.7633353474e+02 stress_216
                     -4.9550145969e+02 stress_217
                     -5.1069912518e+02 stress_218
                     -5.2384663474e+02 stress_219
                     -5.3587742966e+02 stress_220
                     -5.4723651171e+02 stress_221
                     -5.5811918547e+02 stress_222
                     -5.6858999800e+02 stress_223
                     -5.7864261370e+02 stress_224
                     -5.8823308792e+02 stress_225
                     -5.9729705944e+02 stress_226
                     -6.0576053857e+02 stress_227
                     -6.1354791246e+02 stress_228
                     -6.2058268926e+02 stress_229
                     -6.2679524030e+02 stress_230
                     -6.3212165904e+02 stress_231
                     -6.3650455907e+02 stress_232
                     -6.3989898017e+02 stress_233
                     -6.4226821602e+02 stress_234
                     -6.4358572146e+02 stress_235
                     -6.3717424561e+02 stress_236
                     -2.7559250910e+02 stress_237
                      2.2499131082e+01 stress_238
                     -1.9539276854e+02 stress_239
                     -4.4738164244e+02 stress_240
                     -1.1899236411e+02 stress_241
                      5.9268683365e+01 stress_242
                     -2.7085513652e+02 stress_243
                     -3.9589841006e+02 stress_244
                     -5.0626133776e+02 stress_245
                     -3.2333639441e+02 stress_246
                      1.2198908199e+01 stress_247
                      2.7843861287e+02 stress_248
                      3.9269163090e+02 stress_249
                      4.3447894772e+02 stress_250
                      4.4640871752e+02 stress_251
                      3.4228625705e+02 stress_252
                      2.2765321727e+01 stress_253
                     -3.1554446422e+02 stress_254
                     -4.8866137284e+02 stress_255
                     -5.5048721164e+02 stress_256
                     -5.6279694343e+02 stress_257
                     -2.8823818231e+02 stress_258
                      9.5048688803e+01 stress_259
                      2.1615886339e+02 stress_260
                      3.8875267110e+00 stress_261
                     -3.6362197751e+02 stress_262
                     -5.2429860482e+02 stress_263
                     -5.4640019846e+02 stress_264
                     -5.0487945268e+02 stress_265
                     -4.1176624064e+02 stress_266
                     -2.7014732647e+02 stress_267
                     -9.2236342073e+01 stress_268
                      9.2043727922e+01 stress_269
                      2.4447497500e+02 stress_270
                      3.4785183520e+02 stress_271
                      4.1107518227e+02 stress_272
                      4.4980762950e+02 stress_273
                      4.7536670326e+02 stress_274
                      4.9408849664e+02 stress_275
                      5.0923737530e+02 stress_276
                      5.2246300016e+02 stress_277
                      5.3459221458e+02 stress_278
                      5.4603033099e+02 stress_279
                      5.5696102329e+02 stress_280
                      5.6744820905e+02 stress_281
                      5.7748991500e+02 stress_282
                      5.8704739390e+02 stress_283
                      5.9606295785e+02 stress_284
                      6.0446842645e+02 stress_285
                      6.1219348811e+02 stress_286
                      6.1916849563e+02 stress_287
                      6.2532671108e+02 stress_288
                      6.3060895639e+02 stress_289
                      6.3496270429e+02 stress_290
                      6.3834354363e+02 stress_291
                      6.4071791733e+02 stress_292
                      6.4206094008e+02 stress_293
                      6.4208077161e+02 stress_294
                      2.7126288623e+02 stress_295
                     -6.9306485223e+01 stress_296
                      5.9679226364e+01 stress_297
                      4.7061049531e+02 stress_298
                      4.8463394635e+02 stress_299
                      4.4165710088e+02 stress_300
                      3.6423505709e+02 stress_301
                      2.5388914152e+02 stress_302
                      1.1633454820e+02 stress_303
                     -3.4293818637e+01 stress_304
                     -1.7539466630e+02 stress_305
                     -2.8749506113e+02 stress_306
                     -3.6568898214e+02 stress_307
                     -4.1685061410e+02 stress_308
                     -4.5043446544e+02 stress_309
                     -4.7364915332e+02 stress_310
                     -4.9098862907e+02 stress_311
                     -5.0504477761e+02 stress_312
                     -5.1727475112e+02 stress_313
                     -5.2849782827e+02 stress_314
                     -5.3917456996e+02 stress_315
                     -5.4956182740e+02 stress_316
                     -5.5979916808e+02 stress_317
                     -5.6995601274e+02 stress_318
                     -5.8005939894e+02 stress_319
                     -5.9011037920e+02 stress_320
                     -6.0009290519e+02 stress_321
                     -6.0998081146e+02 stress_322
                     -6.1974060877e+02 stress_323
                     -6.2933492075e+02 stress_324
                     -6.3872426993e+02 stress_325
                     -6.4786683377e+02 stress_326
                     -6.5672170779e+02 stress_327
                     -6.6524650062e+02 stress_328
                     -6.7340154668e+02 stress_329
                     -6.8114758795e+02 stress_330
                     -6.8844639528e+02 stress_331
                     -6.9526280963e+02 stress_332
                     -7.0156268601e+02 stress_333
                     -7.0731517787e+02 stress_334
                     -7.1249231577e+02 stress_335
                     -7.1706677702e+02 stress_336
                     -7.2101717677e+02 stress_337
                     -7.2432314052e+02 stress_338
                     -7.2696798353e+02 stress_339
                     -7.2893899796e+02 stress_340
                     -7.3022604931e+02 stress_341
                     -7.3082245197e+02 stress_342


Active response data for evaluation 81:
Active set vector = { 1 1 1 1 1 1 1 1 1 1 1 1 1 1 1 1 1 1 1 1 1 1 1 1 1 1 1 1 1 1 1 1 1 1 1 1 1 1 1 1 1 1 1 1 1 1 1 1 1 1 1 1 1 1 1 1 1 1 1 1 1 1 1 1 1 1 1 1 1 1 1 1 1 1 1 1 1 1 1 1 1 1 1 1 1 1 1 1 1 1 1 1 1 1 1 1 1 1 1 1 1 1 1 1 1 1 1 1 1 1 1 1 1 1 1 1 1 1 1 1 1 1 1 1 1 1 1 1 1 1 1 1 1 1 1 1 1 1 1 1 1 1 1 1 1 1 1 1 1 1 1 1 1 1 1 1 1 1 1 1 1 1 1 1 1 1 1 1 1 1 1 1 1 1 1 1 1 1 1 1 1 1 1 1 1 1 1 1 1 1 1 1 1 1 1 1 1 1 1 1 1 1 1 1 1 1 1 1 1 1 1 1 1 1 1 1 1 1 1 1 1 1 1 1 1 1 1 1 1 1 1 1 1 1 1 1 1 1 1 1 1 1 1 1 1 1 1 1 1 1 1 1 1 1 1 1 1 1 1 1 1 1 1 1 1 1 1 1 1 1 1 1 1 1 1 1 1 1 1 1 1 1 1 1 1 1 1 1 1 1 1 1 1 1 1 1 1 1 1 1 1 1 1 1 1 1 1 1 1 1 1 1 1 1 1 1 1 1 1 1 1 1 1 1 1 1 1 1 1 1 1 1 1 1 1 1 1 1 1 1 1 1 }
                      2.3893153364e+00 stress_1
                     -2.4831504854e+02 stress_2
                     -4.9107939957e+02 stress_3
                     -4.9281986359e+02 stress_4
                     -1.6905430844e+02 stress_5
                      2.3388731869e+02 stress_6
                      3.7975680035e+02 stress_7
                      3.8066168378e+02 stress_8
                      1.3479434744e+02 stress_9
                     -2.2975349110e+02 stress_10
                     -4.2571540278e+02 stress_11
                     -4.7948662081e+02 stress_12
                     -4.9606629462e+02 stress_13
                     -4.9726333571e+02 stress_14
                     -1.7103393969e+02 stress_15
                     -3.3672638637e+02 stress_16
                     -5.0081747281e+02 stress_17
                     -3.0866015506e+02 stress_18
                      2.3015866929e+01 stress_19
                      2.9635004668e+02 stress_20
                      4.1557422900e+02 stress_21
                      4.6079472051e+02 stress_22
                      4.7969906264e+02 stress_23
                      4.8597972053e+02 stress_24
                      1.5943995890e+02 stress_25
                      2.8582235148e+02 stress_26
                      4.2668198641e+02 stress_27
                      4.6011705280e+02 stress_28
                      3.3889630271e+02 stress_29
                      1.2785819472e+02 stress_30
                     -1.2395769596e+02 stress_31
                     -3.1907800947e+02 stress_32
                     -4.2270278226e+02 stress_33
                     -4.7247212691e+02 stress_34
                     -4.9962815350e+02 stress_35
                     -5.1747686684e+02 stress_36
                     -5.3091271053e+02 stress_37
                     -5.4167253220e+02 stress_38
                     -5.5031736195e+02 stress_39
                     -5.5695947213e+02 stress_40
                     -5.6156199018e+02 stress_41
                     -5.6405073850e+02 stress_42
                     -5.4879272378e+02 stress_43
                     -1.6511449315e+02 stress_44
                      1.0447329841e+02 stress_45
                     -9.8914198348e+01 stress_46
                     -4.3876019987e+02 stress_47
                     -1.4566816979e+02 stress_48
                     -2.4721411229e+02 stress_49
                     -4.0464098601e+02 stress_50
                     -5.6053056602e+02 stress_51
                     -3.9274997112e+02 stress_52
                     -5.6731641177e+01 stress_53
                      2.3206831742e+02 stress_54
                      3.6203271660e+02 stress_55
                      4.0978319962e+02 stress_56
                      4.2416226804e+02 stress_57
                      3.3895958551e+02 stress_58
                      2.8251855423e+01 stress_59
                     -3.0767470095e+02 stress_60
                     -4.6601170349e+02 stress_61
                     -5.1787409113e+02 stress_62
                     -5.2941389267e+02 stress_63
                     -2.6406151610e+02 stress_64
                      1.1431196306e+02 stress_65
                      2.0228112788e+02 stress_66
                     -6.5748270647e+01 stress_67
                     -4.2295745556e+02 stress_68
                     -5.2138026798e+02 stress_69
                     -5.2259244609e+02 stress_70
                     -4.2846697553e+02 stress_71
                     -2.5811696406e+02 stress_72
                     -3.5505488085e+01 stress_73
                      1.7611988512e+02 stress_74
                      3.1846870907e+02 stress_75
                      3.9580504647e+02 stress_76
                      4.3745495163e+02 stress_77
                      4.6277769323e+02 stress_78
                      4.8068539177e+02 stress_79
                      4.9492639498e+02 stress_80
                      5.0703955506e+02 stress_81
                      5.1762214002e+02 stress_82
                      5.2685947194e+02 stress_83
                      5.3475730064e+02 stress_84
                      5.4124455319e+02 stress_85
                      5.4623031328e+02 stress_86
                      5.4962982333e+02 stress_87
                      5.5137653984e+02 stress_88
                      4.7863649414e+02 stress_89
                      4.6924165492e+01 stress_90
                     -1.5928920432e+02 stress_91
                      1.2660604219e+02 stress_92
                      4.5860183496e+02 stress_93
                      4.6494106934e+02 stress_94
                      4.0554532589e+02 stress_95
                      2.9871858712e+02 stress_96
                      1.4936195501e+02 stress_97
                     -2.5610206505e+01 stress_98
                     -1.9223464790e+02 stress_99
                     -3.1860612178e+02 stress_100
                     -3.9939949139e+02 stress_101
                     -4.4796974534e+02 stress_102
                     -4.7827771417e+02 stress_103
                     -4.9907561364e+02 stress_104
                     -5.1500603236e+02 stress_105
                     -5.2841879764e+02 stress_106
                     -5.4049093951e+02 stress_107
                     -5.5180784253e+02 stress_108
                     -5.6265061869e+02 stress_109
                     -5.7313971102e+02 stress_110
                     -5.8330761425e+02 stress_111
                     -5.9313711799e+02 stress_112
                     -6.0258492014e+02 stress_113
                     -6.1159289427e+02 stress_114
                     -6.2009520143e+02 stress_115
                     -6.2802393208e+02 stress_116
                     -6.3531115844e+02 stress_117
                     -6.4189371456e+02 stress_118
                     -6.4771236897e+02 stress_119
                     -6.5271254034e+02 stress_120
                     -6.5684907093e+02 stress_121
                     -6.6008276852e+02 stress_122
                     -6.6238277157e+02 stress_123
                     -6.6372821879e+02 stress_124
                     -6.6408965265e+02 stress_125
                     -5.6287272377e+02 stress_126
                     -3.1392741189e+02 stress_127
                     -3.8541220709e+00 stress_128
                      2.1915723781e+02 stress_129
                      3.2793462151e+02 stress_130
                      3.7736012983e+02 stress_131
                      4.0121527304e+02 stress_132
                      4.1203815747e+02 stress_133
                      4.1264236763e+02 stress_134
                      1.2433136249e+01 stress_135
                     -9.3107832906e+00 stress_136
                      1.7418046581e+02 stress_137
                      1.3852802345e+02 stress_138
                     -3.1661896981e+01 stress_139
                     -3.1773367121e+02 stress_140
                     -5.3010340796e+02 stress_141
                     -6.1595508753e+02 stress_142
                     -6.4933234429e+02 stress_143
                     -6.6458878967e+02 stress_144
                     -6.7091842046e+02 stress_145
                     -6.5079295294e+02 stress_146
                     -4.1543595721e+02 stress_147
                     -6.2870444704e+01 stress_148
                      1.9408893602e+02 stress_149
                      3.0664587209e+02 stress_150
                      3.4737974455e+02 stress_151
                      3.5236630527e+02 stress_152
                      1.3886777514e+02 stress_153
                     -2.2464270752e+02 stress_154
                     -4.8693410285e+02 stress_155
                     -5.8694390277e+02 stress_156
                     -6.1542807399e+02 stress_157
                     -4.9430920483e+02 stress_158
                     -9.0112343577e+01 stress_159
                      9.5660913885e+01 stress_160
                     -6.8830036346e+01 stress_161
                     -4.5264441224e+02 stress_162
                     -6.1056761194e+02 stress_163
                     -6.2294707695e+02 stress_164
                     -5.8174654118e+02 stress_165
                     -5.0052254144e+02 stress_166
                     -3.8099960193e+02 stress_167
                     -2.2948636611e+02 stress_168
                     -6.2632208698e+01 stress_169
                      9.2918747075e+01 stress_170
                      2.1460753657e+02 stress_171
                      2.9781595102e+02 stress_172
                      3.5136799207e+02 stress_173
                      3.8620197651e+02 stress_174
                      4.1026408264e+02 stress_175
                      4.2832702565e+02 stress_176
                      4.4306764747e+02 stress_177
                      4.5595947354e+02 stress_178
                      4.6780986201e+02 stress_179
                      4.7906028643e+02 stress_180
                      4.8994748339e+02 stress_181
                      5.0058960314e+02 stress_182
                      5.1103647252e+02 stress_183
                      5.2129594729e+02 stress_184
                      5.3135120228e+02 stress_185
                      5.4116969040e+02 stress_186
                      5.5070961731e+02 stress_187
                      5.5992417700e+02 stress_188
                      5.6876334703e+02 stress_189
                      5.7717676456e+02 stress_190
                      5.8511464789e+02 stress_191
                      5.9252768423e+02 stress_192
                      5.9937081804e+02 stress_193
                      6.0560063388e+02 stress_194
                      6.1117658323e+02 stress_195
                      6.1606391821e+02 stress_196
                      6.2023003084e+02 stress_197
                      6.2364870287e+02 stress_198
                      6.2629773776e+02 stress_199
                      6.2815902740e+02 stress_200
                      6.2922108515e+02 stress_201
                      6.2927310767e+02 stress_202
                      2.7064960987e+02 stress_203
                     -7.7476794717e+01 stress_204
                      2.9979341707e+01 stress_205
                      4.5664123342e+02 stress_206
                      4.7470389444e+02 stress_207
                      4.1074507350e+02 stress_208
                      2.9502491148e+02 stress_209
                      1.3409529693e+02 stress_210
                     -4.9660523453e+01 stress_211
                     -2.1577016930e+02 stress_212
                     -3.3407872184e+02 stress_213
                     -4.0629964760e+02 stress_214
                     -4.4909794618e+02 stress_215
                     -4.7620008323e+02 stress_216
                     -4.9539256025e+02 stress_217
                     -5.1060481808e+02 stress_218
                     -5.2376124372e+02 stress_219
                     -5.3579766409e+02 stress_220
                     -5.4716041050e+02 stress_221
                     -5.5804554333e+02 stress_222
                     -5.6851805132e+02 stress_223
                     -5.7857186440e+02 stress_224
                     -5.8816320224e+02 stress_225
                     -5.9722780794e+02 stress_226
                     -6.0569175966e+02 stress_227
                     -6.1347948971e+02 stress_228
                     -6.2051453675e+02 stress_229
                     -6.2672729318e+02 stress_230
                     -6.3205386709e+02 stress_231
                     -6.3643688224e+02 stress_232
                     -6.3983138554e+02 stress_233
                     -6.4220067548e+02 stress_234
                     -6.4351820990e+02 stress_235
                     -6.3711313911e+02 stress_236
                     -2.7587813275e+02 stress_237
                      2.2037509988e+01 stress_238
                     -1.9563904981e+02 stress_239
                     -4.4741434898e+02 stress_240
                     -1.1933556333e+02 stress_241
                      5.8820282909e+01 stress_242
                     -2.7098553638e+02 stress_243
                     -3.9593120417e+02 stress_244
                     -5.0623203089e+02 stress_245
                     -3.2348830375e+02 stress_246
                      1.1788762386e+01 stress_247
                      2.7805546824e+02 stress_248
                      3.9243162730e+02 stress_249
                      4.3427938615e+02 stress_250
                      4.4622674629e+02 stress_251
                      3.4220818647e+02 stress_252
                      2.2982065962e+01 stress_253
                     -3.1519128008e+02 stress_254
                     -4.8839268493e+02 stress_255
                     -5.5028107263e+02 stress_256
                     -5.6260488498e+02 stress_257
                     -2.8831540738e+02 stress_258
                      9.4719128880e+01 stress_259
                      2.1582809310e+02 stress_260
                      3.7664294311e+00 stress_261
                     -3.6348077051e+02 stress_262
                     -5.2415590272e+02 stress_263
                     -5.4626537712e+02 stress_264
                     -5.0478610618e+02 stress_265
                     -4.1176553811e+02 stress_266
                     -2.7028270423e+02 stress_267
                     -9.2517377709e+01 stress_268
                      9.1677468856e+01 stress_269
                      2.4412446238e+02 stress_270
                      3.4757218865e+02 stress_271
                      4.1086366102e+02 stress_272
                      4.4964314261e+02 stress_273
                      4.7523132500e+02 stress_274
                      4.9397071987e+02 stress_275
                      5.0913036588e+02 stress_276
                      5.2236274367e+02 stress_277
                      5.3449631701e+02 stress_278
                      5.4593732913e+02 stress_279
                      5.5686999783e+02 stress_280
                      5.6735856624e+02 stress_281
                      5.7740126103e+02 stress_282
                      5.8695946091e+02 stress_283
                      5.9597555931e+02 stress_284
                      6.0438142943e+02 stress_285
                      6.1210679584e+02 stress_286
                      6.1908203605e+02 stress_287
                      6.2524042931e+02 stress_288
                      6.3052280962e+02 stress_289
                      6.3487665819e+02 stress_290
                      6.3825756978e+02 stress_291
                      6.4063199139e+02 stress_292
                      6.4197504025e+02 stress_293
                      6.4199487216e+02 stress_294
                      2.7153247126e+02 stress_295
                     -6.8856458594e+01 stress_296
                      6.0000450919e+01 stress_297
                      4.7062202807e+02 stress_298
                      4.8464312049e+02 stress_299
                      4.4170920180e+02 stress_300
                      3.6436415884e+02 stress_301
                      2.5412471859e+02 stress_302
                      1.1668756813e+02 stress_303
                     -3.3854113238e+01 stress_304
                     -1.7494322605e+02 stress_305
                     -2.8710408808e+02 stress_306
                     -3.6538473434e+02 stress_307
                     -4.1662223183e+02 stress_308
                     -4.5026047751e+02 stress_309
                     -4.7351112436e+02 stress_310
                     -4.9087379357e+02 stress_311
                     -5.0494493671e+02 stress_312
                     -5.1718474485e+02 stress_313
                     -5.2841439963e+02 stress_314
                     -5.3909563411e+02 stress_315
                     -5.4948602495e+02 stress_316
                     -5.5972559500e+02 stress_317
                     -5.6988405571e+02 stress_318
                     -5.7998863387e+02 stress_319
                     -5.9004050746e+02 stress_320
                     -6.0002371290e+02 stress_321
                     -6.0991214294e+02 stress_322
                     -6.1967234904e+02 stress_323
                     -6.2926698368e+02 stress_324
                     -6.3865659017e+02 stress_325
                     -6.4779936108e+02 stress_326
                     -6.5665440315e+02 stress_327
                     -6.6517933333e+02 stress_328
                     -6.7333449236e+02 stress_329
                     -6.8108062702e+02 stress_330
                     -6.8837951185e+02 stress_331
                     -6.9519599069e+02 stress_332
                     -7.0149592075e+02 stress_333
                     -7.0724845727e+02 stress_334
                     -7.1242563216e+02 stress_335
                     -7.1700012380e+02 stress_336
                     -7.2095054821e+02 stress_337
                     -7.2425653155e+02 stress_338
                     -7.2690138959e+02 stress_339
                     -7.2887241485e+02 stress_340
                     -7.3015947312e+02 stress_341
                     -7.3075587894e+02 stress_342


Active response data for evaluation 82:
Active set vector = { 1 1 1 1 1 1 1 1 1 1 1 1 1 1 1 1 1 1 1 1 1 1 1 1 1 1 1 1 1 1 1 1 1 1 1 1 1 1 1 1 1 1 1 1 1 1 1 1 1 1 1 1 1 1 1 1 1 1 1 1 1 1 1 1 1 1 1 1 1 1 1 1 1 1 1 1 1 1 1 1 1 1 1 1 1 1 1 1 1 1 1 1 1 1 1 1 1 1 1 1 1 1 1 1 1 1 1 1 1 1 1 1 1 1 1 1 1 1 1 1 1 1 1 1 1 1 1 1 1 1 1 1 1 1 1 1 1 1 1 1 1 1 1 1 1 1 1 1 1 1 1 1 1 1 1 1 1 1 1 1 1 1 1 1 1 1 1 1 1 1 1 1 1 1 1 1 1 1 1 1 1 1 1 1 1 1 1 1 1 1 1 1 1 1 1 1 1 1 1 1 1 1 1 1 1 1 1 1 1 1 1 1 1 1 1 1 1 1 1 1 1 1 1 1 1 1 1 1 1 1 1 1 1 1 1 1 1 1 1 1 1 1 1 1 1 1 1 1 1 1 1 1 1 1 1 1 1 1 1 1 1 1 1 1 1 1 1 1 1 1 1 1 1 1 1 1 1 1 1 1 1 1 1 1 1 1 1 1 1 1 1 1 1 1 1 1 1 1 1 1 1 1 1 1 1 1 1 1 1 1 1 1 1 1 1 1 1 1 1 1 1 1 1 1 1 1 1 1 1 1 1 1 1 1 1 1 1 1 1 1 1 1 }
                      2.3893153364e+00 stress_1
                     -2.4831503446e+02 stress_2
                     -4.9107419009e+02 stress_3
                     -4.9281367195e+02 stress_4
                     -1.6908620733e+02 stress_5
                      2.3330991009e+02 stress_6
                      3.7904966538e+02 stress_7
                      3.7995528054e+02 stress_8
                      1.3411126372e+02 stress_9
                     -2.2980939284e+02 stress_10
                     -4.2528653240e+02 stress_11
                     -4.7917251972e+02 stress_12
                     -4.9583082220e+02 stress_13
                     -4.9703384459e+02 stress_14
                     -1.7090531314e+02 stress_15
                     -3.3659764180e+02 stress_16
                     -5.0067775625e+02 stress_17
                     -3.0853699574e+02 stress_18
                      2.2724060368e+01 stress_19
                      2.9540796911e+02 stress_20
                      4.1473872438e+02 stress_21
                      4.6019487318e+02 stress_22
                      4.7923019972e+02 stress_23
                      4.8555550894e+02 stress_24
                      1.5912927122e+02 stress_25
                      2.8551162684e+02 stress_26
                      4.2633768041e+02 stress_27
                      4.5974505906e+02 stress_28
                      3.3852841543e+02 stress_29
                      1.2761308540e+02 stress_30
                     -1.2365002067e+02 stress_31
                     -3.1824177247e+02 stress_32
                     -4.2189626448e+02 stress_33
                     -4.7188502024e+02 stress_34
                     -4.9921684329e+02 stress_35
                     -5.1717536060e+02 stress_36
                     -5.3067569250e+02 stress_37
                     -5.4147277674e+02 stress_38
                     -5.5013893144e+02 stress_39
                     -5.5679300536e+02 stress_40
                     -5.6140190565e+02 stress_41
                     -5.6389353285e+02 stress_42
                     -5.4863552105e+02 stress_43
                     -1.6517517039e+02 stress_44
                      1.0374983295e+02 stress_45
                     -9.9634964356e+01 stress_46
                     -4.3890027134e+02 stress_47
                     -1.4591457900e+02 stress_48
                     -2.4746047959e+02 stress_49
                     -4.0485709504e+02 stress_50
                     -5.6038019699e+02 stress_51
                     -3.9261307067e+02 stress_52
                     -5.7013832478e+01 stress_53
                      2.3103253741e+02 stress_54
                      3.6101886041e+02 stress_55
                      4.0897030215e+02 stress_56
                      4.2343742089e+02 stress_57
                      3.3823563453e+02 stress_58
                      2.7724079311e+01 stress_59
                     -3.0724791264e+02 stress_60
                     -4.6524888076e+02 stress_61
                     -5.1719344093e+02 stress_62
                     -5.2877424559e+02 stress_63
                     -2.6348994096e+02 stress_64
                      1.1401665582e+02 stress_65
                      2.0169249090e+02 stress_66
                     -6.6289972535e+01 stress_67
                     -4.2269779189e+02 stress_68
                     -5.2094003778e+02 stress_69
                     -5.2215266402e+02 stress_70
                     -4.2802929380e+02 stress_71
                     -2.5774520615e+02 stress_72
                     -3.5508524584e+01 stress_73
                      1.7547663209e+02 stress_74
                      3.1755218937e+02 stress_75
                      3.9502097554e+02 stress_76
                      4.3688922230e+02 stress_77
                      4.6238375320e+02 stress_78
                      4.8040549204e+02 stress_79
                      4.9471834202e+02 stress_80
                      5.0687594669e+02 stress_81
                      5.1748571992e+02 stress_82
                      5.2673944265e+02 stress_83
                      5.3464693083e+02 stress_84
                      5.4113968441e+02 stress_85
                      5.4612842727e+02 stress_86
                      5.4952943226e+02 stress_87
                      5.5127676262e+02 stress_88
                      4.7853746841e+02 stress_89
                      4.7246123299e+01 stress_90
                     -1.5840227560e+02 stress_91
                      1.2746542913e+02 stress_92
                      4.5855310943e+02 stress_93
                      4.6486292459e+02 stress_94
                      4.0546764014e+02 stress_95
                      2.9865599042e+02 stress_96
                      1.4940756392e+02 stress_97
                     -2.5235174014e+01 stress_98
                     -1.9139687591e+02 stress_99
                     -3.1752088449e+02 stress_100
                     -3.9838046429e+02 stress_101
                     -4.4715552047e+02 stress_102
                     -4.7766709070e+02 stress_103
                     -4.9862269429e+02 stress_104
                     -5.1466445667e+02 stress_105
                     -5.2815283929e+02 stress_106
                     -5.4027529965e+02 stress_107
                     -5.5162508744e+02 stress_108
                     -5.6248879642e+02 stress_109
                     -5.7299060363e+02 stress_110
                     -5.8316554677e+02 stress_111
                     -5.9299816704e+02 stress_112
                     -6.0244639011e+02 stress_113
                     -6.1145296623e+02 stress_114
                     -6.1995269557e+02 stress_115
                     -6.2787814384e+02 stress_116
                     -6.3516174345e+02 stress_117
                     -6.4174060454e+02 stress_118
                     -6.4755571021e+02 stress_119
                     -6.5255264728e+02 stress_120
                     -6.5668638709e+02 stress_121
                     -6.5991783690e+02 stress_122
                     -6.6221620831e+02 stress_123
                     -6.6356068900e+02 stress_124
                     -6.6392186175e+02 stress_125
                     -5.6270722364e+02 stress_126
                     -3.1389620543e+02 stress_127
                     -4.5006722067e+00 stress_128
                      2.1800783680e+02 stress_129
                      3.2692305799e+02 stress_130
                      3.7660296026e+02 stress_131
                      4.0062857620e+02 stress_132
                      4.1153480424e+02 stress_133
                      4.1214370020e+02 stress_134
                      1.2121439915e+01 stress_135
                     -9.5883835749e+00 stress_136
                      1.7380500923e+02 stress_137
                      1.3815264346e+02 stress_138
                     -3.1999775592e+01 stress_139
                     -3.1753685755e+02 stress_140
                     -5.2930011104e+02 stress_141
                     -6.1524238038e+02 stress_142
                     -6.4879036025e+02 stress_143
                     -6.6414128863e+02 stress_144
                     -6.7050848422e+02 stress_145
                     -6.5038302466e+02 stress_146
                     -4.1507666701e+02 stress_147
                     -6.3147006059e+01 stress_148
                      1.9309484744e+02 stress_149
                      3.0564476269e+02 stress_150
                      3.4650536719e+02 stress_151
                      3.5151380765e+02 stress_152
                      1.3803618903e+02 stress_153
                     -2.2490856714e+02 stress_154
                     -4.8629769500e+02 stress_155
                     -5.8616554274e+02 stress_156
                     -6.1468691772e+02 stress_157
                     -4.9357290510e+02 stress_158
                     -8.9903193598e+01 stress_159
                      9.5259257511e+01 stress_160
                     -6.9226439414e+01 stress_161
                     -4.5251131945e+02 stress_162
                     -6.1005391687e+02 stress_163
                     -6.2243292215e+02 stress_164
                     -5.8123249997e+02 stress_165
                     -5.0001331420e+02 stress_166
                     -3.8053305706e+02 stress_167
                     -2.2919257398e+02 stress_168
                     -6.2726934290e+01 stress_169
                      9.2334982348e+01 stress_170
                      2.1371283443e+02 stress_171
                      2.9689032759e+02 stress_172
                      3.5057960521e+02 stress_173
                      3.8559321925e+02 stress_174
                      4.0981606811e+02 stress_175
                      4.2800458341e+02 stress_176
                      4.4283758684e+02 stress_177
                      4.5579536688e+02 stress_178
                      4.6769195115e+02 stress_179
                      4.7897415278e+02 stress_180
                      4.8988267862e+02 stress_181
                      5.0053854972e+02 stress_182
                      5.1099365807e+02 stress_183
                      5.2125734984e+02 stress_184
                      5.3131388675e+02 stress_185
                      5.4113152464e+02 stress_186
                      5.5066907135e+02 stress_187
                      5.5988017973e+02 stress_188
                      5.6871518295e+02 stress_189
                      5.7712399780e+02 stress_190
                      5.8505706574e+02 stress_191
                      5.9246525514e+02 stress_192
                      5.9930365732e+02 stress_193
                      6.0552897844e+02 stress_194
                      6.1110077097e+02 stress_195
                      6.1598436904e+02 stress_196
                      6.2014723337e+02 stress_197
                      6.2356319985e+02 stress_198
                      6.2621011497e+02 stress_199
                      6.2806990361e+02 stress_200
                      6.2913110072e+02 stress_201
                      6.2918308101e+02 stress_202
                      2.7069959929e+02 stress_203
                     -7.6644614549e+01 stress_204
                      3.0811463967e+01 stress_205
                      4.5697487504e+02 stress_206
                      4.7495569083e+02 stress_207
                      4.1099750304e+02 stress_208
                      2.9529737709e+02 stress_209
                      1.3450279271e+02 stress_210
                     -4.8889342024e+01 stress_211
                     -2.1460070201e+02 stress_212
                     -3.3282918068e+02 stress_213
                     -4.0525270583e+02 stress_214
                     -4.4831893796e+02 stress_215
                     -4.7564394139e+02 stress_216
                     -4.9499587600e+02 stress_217
                     -5.1031592859e+02 stress_218
                     -5.2354356129e+02 stress_219
                     -5.3562639188e+02 stress_220
                     -5.4701890921e+02 stress_221
                     -5.5792261402e+02 stress_222
                     -5.6840611142e+02 stress_223
                     -5.7846576071e+02 stress_224
                     -5.8805944301e+02 stress_225
                     -5.9712406095e+02 stress_226
                     -6.0558651975e+02 stress_227
                     -6.1337185348e+02 stress_228
                     -6.2040404752e+02 stress_229
                     -6.2661382940e+02 stress_230
                     -6.3193756117e+02 stress_231
                     -6.3631805970e+02 stress_232
                     -6.3971051432e+02 stress_233
                     -6.4207832665e+02 stress_234
                     -6.4339502332e+02 stress_235
                     -6.3698995265e+02 stress_236
                     -2.7590099590e+02 stress_237
                      2.1374656859e+01 stress_238
                     -1.9621452184e+02 stress_239
                     -4.4724721701e+02 stress_240
                     -1.1932293593e+02 stress_241
                      5.8452813859e+01 stress_242
                     -2.7108588414e+02 stress_243
                     -3.9565325558e+02 stress_244
                     -5.0560211029e+02 stress_245
                     -3.2288016634e+02 stress_246
                      1.1861770806e+01 stress_247
                      2.7728993258e+02 stress_248
                      3.9162471806e+02 stress_249
                      4.3361656184e+02 stress_250
                      4.4562577682e+02 stress_251
                      3.4160953964e+02 stress_252
                      2.2628978045e+01 stress_253
                     -3.1455912101e+02 stress_254
                     -4.8735334852e+02 stress_255
                     -5.4929588176e+02 stress_256
                     -5.6165326026e+02 stress_257
                     -2.8743717630e+02 stress_258
                      9.4683921264e+01 stress_259
                      2.1534548234e+02 stress_260
                      3.3277066335e+00 stress_261
                     -3.6307831863e+02 stress_262
                     -5.2332763922e+02 stress_263
                     -5.4543231210e+02 stress_264
                     -5.0395316329e+02 stress_265
                     -4.1093964240e+02 stress_266
                     -2.6952727485e+02 stress_267
                     -9.2047435916e+01 stress_268
                      9.1583864816e+01 stress_269
                      2.4350015439e+02 stress_270
                      3.4675688343e+02 stress_271
                      4.1012370551e+02 stress_272
                      4.4906336894e+02 stress_273
                      4.7480197296e+02 stress_274
                      4.9365699359e+02 stress_275
                      5.0889889486e+02 stress_276
                      5.2218771101e+02 stress_277
                      5.3435911761e+02 stress_278
                      5.4582488421e+02 stress_279
                      5.5677317950e+02 stress_280
                      5.6727101378e+02 stress_281
                      5.7731855250e+02 stress_282
                      5.8687854661e+02 stress_283
                      5.9589437563e+02 stress_284
                      6.0429863328e+02 stress_285
                      6.1202157932e+02 stress_286
                      6.1899399472e+02 stress_287
                      6.2514946662e+02 stress_288
                      6.3042906431e+02 stress_289
                      6.3478044891e+02 stress_290
                      6.3815935071e+02 stress_291
                      6.4053231402e+02 stress_292
                      6.4187452180e+02 stress_293
                      6.4189434120e+02 stress_294
                      2.7158311801e+02 stress_295
                     -6.8034277217e+01 stress_296
                      6.0822304341e+01 stress_297
                      4.7087471510e+02 stress_298
                      4.8483201926e+02 stress_299
                      4.4189825574e+02 stress_300
                      3.6455840299e+02 stress_301
                      2.5435914479e+02 stress_302
                      1.1707012660e+02 stress_303
                     -3.3161914983e+01 stress_304
                     -1.7389137590e+02 stress_305
                     -2.8586692833e+02 stress_306
                     -3.6420557804e+02 stress_307
                     -4.1563794497e+02 stress_308
                     -4.4949419488e+02 stress_309
                     -4.7293195883e+02 stress_310
                     -4.9043863516e+02 stress_311
                     -5.0461520089e+02 stress_312
                     -5.1693028379e+02 stress_313
                     -5.2821288222e+02 stress_314
                     -5.3893083629e+02 stress_315
                     -5.4934620534e+02 stress_316
                     -5.5960222911e+02 stress_317
                     -5.6977091424e+02 stress_318
                     -5.7988113257e+02 stress_319
                     -5.8993525239e+02 stress_320
                     -5.9991818196e+02 stress_321
                     -6.0980446215e+02 stress_322
                     -6.1956113387e+02 stress_323
                     -6.2915122531e+02 stress_324
                     -6.3853557282e+02 stress_325
                     -6.4767260213e+02 stress_326
                     -6.5652160738e+02 stress_327
                     -6.6504036021e+02 stress_328
                     -6.7318932865e+02 stress_329
                     -6.8092936706e+02 stress_330
                     -6.8822234186e+02 stress_331
                     -6.9503317473e+02 stress_332
                     -7.0132779077e+02 stress_333
                     -7.0707540311e+02 stress_334
                     -7.1224809329e+02 stress_335
                     -7.1681858405e+02 stress_336
                     -7.2076552665e+02 stress_337
                     -7.2406857834e+02 stress_338
                     -7.2671107990e+02 stress_339
                     -7.2868034292e+02 stress_340
                     -7.2996624773e+02 stress_341
                     -7.3056211832e+02 stress_342


Active response data for evaluation 83:
Active set vector = { 1 1 1 1 1 1 1 1 1 1 1 1 1 1 1 1 1 1 1 1 1 1 1 1 1 1 1 1 1 1 1 1 1 1 1 1 1 1 1 1 1 1 1 1 1 1 1 1 1 1 1 1 1 1 1 1 1 1 1 1 1 1 1 1 1 1 1 1 1 1 1 1 1 1 1 1 1 1 1 1 1 1 1 1 1 1 1 1 1 1 1 1 1 1 1 1 1 1 1 1 1 1 1 1 1 1 1 1 1 1 1 1 1 1 1 1 1 1 1 1 1 1 1 1 1 1 1 1 1 1 1 1 1 1 1 1 1 1 1 1 1 1 1 1 1 1 1 1 1 1 1 1 1 1 1 1 1 1 1 1 1 1 1 1 1 1 1 1 1 1 1 1 1 1 1 1 1 1 1 1 1 1 1 1 1 1 1 1 1 1 1 1 1 1 1 1 1 1 1 1 1 1 1 1 1 1 1 1 1 1 1 1 1 1 1 1 1 1 1 1 1 1 1 1 1 1 1 1 1 1 1 1 1 1 1 1 1 1 1 1 1 1 1 1 1 1 1 1 1 1 1 1 1 1 1 1 1 1 1 1 1 1 1 1 1 1 1 1 1 1 1 1 1 1 1 1 1 1 1 1 1 1 1 1 1 1 1 1 1 1 1 1 1 1 1 1 1 1 1 1 1 1 1 1 1 1 1 1 1 1 1 1 1 1 1 1 1 1 1 1 1 1 1 1 1 1 1 1 1 1 1 1 1 1 1 1 1 1 1 1 1 1 }
                      2.3893153364e+00 stress_1
                     -2.4831505693e+02 stress_2
                     -4.9107549002e+02 stress_3
                     -4.9281408241e+02 stress_4
                     -1.6904676889e+02 stress_5
                      2.3391896939e+02 stress_6
                      3.7979048435e+02 stress_7
                      3.8069528383e+02 stress_8
                      1.3482688730e+02 stress_9
                     -2.2974904843e+02 stress_10
                     -4.2572753038e+02 stress_11
                     -4.7948508889e+02 stress_12
                     -4.9605522073e+02 stress_13
                     -4.9725143697e+02 stress_14
                     -1.7102071750e+02 stress_15
                     -3.3671318458e+02 stress_16
                     -5.0081080423e+02 stress_17
                     -3.0865326298e+02 stress_18
                      2.3028659378e+01 stress_19
                      2.9637211754e+02 stress_20
                      4.1559123968e+02 stress_21
                      4.6080224809e+02 stress_22
                      4.7969948849e+02 stress_23
                      4.8597717326e+02 stress_24
                      1.5943640132e+02 stress_25
                      2.8581879641e+02 stress_26
                      4.2668135827e+02 stress_27
                      4.6012025822e+02 stress_28
                      3.3889946860e+02 stress_29
                      1.2786017081e+02 stress_30
                     -1.2396094401e+02 stress_31
                     -3.1908470377e+02 stress_32
                     -4.2270414553e+02 stress_33
                     -4.7246359773e+02 stress_34
                     -4.9960881287e+02 stress_35
                     -5.1744696280e+02 stress_36
                     -5.3087292839e+02 stress_37
                     -5.4162386902e+02 stress_38
                     -5.5026110484e+02 stress_39
                     -5.5689717698e+02 stress_40
                     -5.6149543125e+02 stress_41
                     -5.6398185138e+02 stress_42
                     -5.4872383665e+02 stress_43
                     -1.6504500160e+02 stress_44
                      1.0454372131e+02 stress_45
                     -9.8843916880e+01 stress_46
                     -4.3871420083e+02 stress_47
                     -1.4562153786e+02 stress_48
                     -2.4716748180e+02 stress_49
                     -4.0459506884e+02 stress_50
                     -5.6047579467e+02 stress_51
                     -3.9269514285e+02 stress_52
                     -5.6674794938e+01 stress_53
                      2.3212895010e+02 stress_54
                      3.6209064705e+02 stress_55
                      4.0983600090e+02 stress_56
                      4.2421238323e+02 stress_57
                      3.3900968950e+02 stress_58
                      2.8299711635e+01 stress_59
                     -3.0763462902e+02 stress_60
                     -4.6596635385e+02 stress_61
                     -5.1782014593e+02 stress_62
                     -5.2935694257e+02 stress_63
                     -2.6400430308e+02 stress_64
                      1.1437228611e+02 stress_65
                      2.0234206668e+02 stress_66
                     -6.5688947244e+01 stress_67
                     -4.2291780432e+02 stress_68
                     -5.2133377358e+02 stress_69
                     -5.2254567886e+02 stress_70
                     -4.2842019873e+02 stress_71
                     -2.5806984546e+02 stress_72
                     -3.5456066011e+01 stress_73
                      1.7617420015e+02 stress_74
                      3.1852550903e+02 stress_75
                      3.9585885158e+02 stress_76
                      4.3750195686e+02 stress_77
                      4.6281602645e+02 stress_78
                      4.8071425390e+02 stress_79
                      4.9494557831e+02 stress_80
                      5.0704924453e+02 stress_81
                      5.1762282927e+02 stress_82
                      5.2685191919e+02 stress_83
                      5.3474249396e+02 stress_84
                      5.4122368053e+02 stress_85
                      5.4620472636e+02 stress_86
                      5.4960100021e+02 stress_87
                      5.5134604783e+02 stress_88
                      4.7860600036e+02 stress_89
                      4.6893017062e+01 stress_90
                     -1.5932018197e+02 stress_91
                      1.2657642266e+02 stress_92
                      4.5860353131e+02 stress_93
                      4.6494310107e+02 stress_94
                      4.0554735573e+02 stress_95
                      2.9872054344e+02 stress_96
                      1.4936327156e+02 stress_97
                     -2.5611383142e+01 stress_98
                     -1.9224072464e+02 stress_99
                     -3.1861684000e+02 stress_100
                     -3.9941144185e+02 stress_101
                     -4.4797914001e+02 stress_102
                     -4.7828185289e+02 stress_103
                     -4.9907280329e+02 stress_104
                     -5.1499521082e+02 stress_105
                     -5.2839927394e+02 stress_106
                     -5.4046225708e+02 stress_107
                     -5.5176971194e+02 stress_108
                     -5.6260288452e+02 stress_109
                     -5.7308233457e+02 stress_110
                     -5.8324066440e+02 stress_111
                     -5.9306076614e+02 stress_112
                     -6.0249943456e+02 stress_113
                     -6.1149863576e+02 stress_114
                     -6.1999261931e+02 stress_115
                     -6.2791355882e+02 stress_116
                     -6.3519360487e+02 stress_117
                     -6.4176966193e+02 stress_118
                     -6.4758256287e+02 stress_119
                     -6.5257778456e+02 stress_120
                     -6.5671021698e+02 stress_121
                     -6.5994070895e+02 stress_122
                     -6.6223843101e+02 stress_123
                     -6.6358254356e+02 stress_124
                     -6.6394361885e+02 stress_125
                     -5.6272668737e+02 stress_126
                     -3.1378127414e+02 stress_127
                     -3.7082474390e+00 stress_128
                      2.1929929228e+02 stress_129
                      3.2806915064e+02 stress_130
                      3.7748657376e+02 stress_131
                      4.0133516096e+02 stress_132
                      4.1215412514e+02 stress_133
                      4.1275809513e+02 stress_134
                      1.2547458985e+01 stress_135
                     -9.1967039487e+00 stress_136
                      1.7429467614e+02 stress_137
                      1.3864223316e+02 stress_138
                     -3.1547974795e+01 stress_139
                     -3.1762307895e+02 stress_140
                     -5.2999184698e+02 stress_141
                     -6.1583354664e+02 stress_142
                     -6.4920060439e+02 stress_143
                     -6.6444964410e+02 stress_144
                     -6.7077551899e+02 stress_145
                     -6.5065005146e+02 stress_146
                     -4.1529299892e+02 stress_147
                     -6.2727194904e+01 stress_148
                      1.9422979923e+02 stress_149
                      3.0678111929e+02 stress_150
                      3.4751047523e+02 stress_151
                      3.5249630163e+02 stress_152
                      1.3899747472e+02 stress_153
                     -2.2451997246e+02 stress_154
                     -4.8681675048e+02 stress_155
                     -5.8681932966e+02 stress_156
                     -6.1529831464e+02 stress_157
                     -4.9417943629e+02 stress_158
                     -8.9981410511e+01 stress_159
                      9.5793128231e+01 stress_160
                     -6.8698033297e+01 stress_161
                     -4.5252911035e+02 stress_162
                     -6.1045104469e+02 stress_163
                     -6.2282793890e+02 stress_164
                     -5.8162740286e+02 stress_165
                     -5.0040338973e+02 stress_166
                     -3.8088031014e+02 stress_167
                     -2.2936638739e+02 stress_168
                     -6.2510293454e+01 stress_169
                      9.3043841157e+01 stress_170
                      2.1473539762e+02 stress_171
                      2.9794429134e+02 stress_172
                      3.5149404098e+02 stress_173
                      3.8632347534e+02 stress_174
                      4.1037943371e+02 stress_175
                      4.2843512545e+02 stress_176
                      4.4316771512e+02 stress_177
                      4.5605093801e+02 stress_178
                      4.6789229889e+02 stress_179
                      4.7913338277e+02 stress_180
                      4.9001101820e+02 stress_181
                      5.0064343783e+02 stress_182
                      5.1108054427e+02 stress_183
                      5.2133026600e+02 stress_184
                      5.3137584754e+02 stress_185
                      5.4118480978e+02 stress_186
                      5.5071542435e+02 stress_187
                      5.5992094885e+02 stress_188
                      5.6875142275e+02 stress_189
                      5.7715654206e+02 stress_190
                      5.8508658104e+02 stress_191
                      5.9249228074e+02 stress_192
                      5.9932863406e+02 stress_193
                      6.0555227147e+02 stress_194
                      6.1112268690e+02 stress_195
                      6.1600516866e+02 stress_196
                      6.2016714244e+02 stress_197
                      6.2358241702e+02 stress_198
                      6.2622881865e+02 stress_199
                      6.2808825776e+02 stress_200
                      6.2914925948e+02 stress_201
                      6.2920123027e+02 stress_202
                      2.7057766760e+02 stress_203
                     -7.7548062060e+01 stress_204
                      2.9908077180e+01 stress_205
                      4.5658971258e+02 stress_206
                      4.7465507069e+02 stress_207
                      4.1069624840e+02 stress_208
                      2.9497603363e+02 stress_209
                      1.3404596534e+02 stress_210
                     -4.9711512618e+01 stress_211
                     -2.1582387723e+02 stress_212
                     -3.3413383788e+02 stress_213
                     -4.0635302052e+02 stress_214
                     -4.4914666258e+02 stress_215
                     -4.7624215024e+02 stress_216
                     -4.9542670571e+02 stress_217
                     -5.1063021867e+02 stress_218
                     -5.2377736051e+02 stress_219
                     -5.3580415926e+02 stress_220
                     -5.4715710565e+02 stress_221
                     -5.5803239896e+02 stress_222
                     -5.6849515516e+02 stress_223
                     -5.7853942443e+02 stress_224
                     -5.8812154020e+02 stress_225
                     -5.9717735395e+02 stress_226
                     -6.0563304630e+02 stress_227
                     -6.1341314402e+02 stress_228
                     -6.2044127492e+02 stress_229
                     -6.2664790977e+02 stress_230
                     -6.3196922656e+02 stress_231
                     -6.3634791064e+02 stress_232
                     -6.3973905679e+02 stress_233
                     -6.4210600213e+02 stress_234
                     -6.4342223229e+02 stress_235
                     -6.3701716150e+02 stress_236
                     -2.7578203381e+02 stress_237
                      2.2133476465e+01 stress_238
                     -1.9554345623e+02 stress_239
                     -4.4732058796e+02 stress_240
                     -1.1924163417e+02 stress_241
                      5.8914406863e+01 stress_242
                     -2.7089239677e+02 stress_243
                     -3.9583881373e+02 stress_244
                     -5.0613845155e+02 stress_245
                     -3.2339469363e+02 stress_246
                      1.1882940777e+01 stress_247
                      2.7814838227e+02 stress_248
                      3.9251883125e+02 stress_249
                      4.3436085238e+02 stress_250
                      4.4630569588e+02 stress_251
                      3.4228712783e+02 stress_252
                      2.3060279329e+01 stress_253
                     -3.1511411118e+02 stress_254
                     -4.8831069142e+02 stress_255
                     -5.5019321687e+02 stress_256
                     -5.6251523794e+02 stress_257
                     -2.8822566775e+02 stress_258
                      9.4809327602e+01 stress_259
                      2.1591752341e+02 stress_260
                      3.8556860891e+00 stress_261
                     -3.6339325589e+02 stress_262
                     -5.2406454966e+02 stress_263
                     -5.4617234629e+02 stress_264
                     -5.0469307517e+02 stress_265
                     -4.1167249719e+02 stress_266
                     -2.7018957086e+02 stress_267
                     -9.2423930133e+01 stress_268
                      9.1771189408e+01 stress_269
                      2.4421719149e+02 stress_270
                      3.4766155554e+02 stress_271
                      4.1094742499e+02 stress_272
                      4.4971975058e+02 stress_273
                      4.7529976994e+02 stress_274
                      4.9403032227e+02 stress_275
                      5.0918065052e+02 stress_276
                      5.2240338311e+02 stress_277
                      5.3452710914e+02 stress_278
                      5.4595818790e+02 stress_279
                      5.5688094916e+02 stress_280
                      5.6735974556e+02 stress_281
                      5.7739291079e+02 stress_282
                      5.8694192778e+02 stress_283
                      5.9594928960e+02 stress_284
                      6.0434696512e+02 stress_285
                      6.1206476762e+02 stress_286
                      6.1903315682e+02 stress_287
                      6.2518548735e+02 stress_288
                      6.3046265845e+02 stress_289
                      6.3481220813e+02 stress_290
                      6.3818977850e+02 stress_291
                      6.4056185211e+02 stress_292
                      6.4190357239e+02 stress_293
                      6.4192338468e+02 stress_294
                      2.7146091479e+02 stress_295
                     -6.8927371017e+01 stress_296
                      5.9929555246e+01 stress_297
                      4.7057391478e+02 stress_298
                      4.8459700207e+02 stress_299
                      4.4166308305e+02 stress_300
                      3.6431802687e+02 stress_301
                      2.5407846286e+02 stress_302
                      1.1664074269e+02 stress_303
                     -3.3902496003e+01 stress_304
                     -1.7499415483e+02 stress_305
                     -2.8715727832e+02 stress_306
                     -3.6543834698e+02 stress_307
                     -4.1667390754e+02 stress_308
                     -4.5030819585e+02 stress_309
                     -4.7355339752e+02 stress_310
                     -4.9090955749e+02 stress_311
                     -5.0497341015e+02 stress_312
                     -5.1720533169e+02 stress_313
                     -5.2842662906e+02 stress_314
                     -5.3909912752e+02 stress_315
                     -5.4948047785e+02 stress_316
                     -5.5971076652e+02 stress_317
                     -5.6985976333e+02 stress_318
                     -5.7995475020e+02 stress_319
                     -5.8999695815e+02 stress_320
                     -5.9997047587e+02 stress_321
                     -6.0984924709e+02 stress_322
                     -6.1959987397e+02 stress_323
                     -6.2918505855e+02 stress_324
                     -6.3856539234e+02 stress_325
                     -6.4769911608e+02 stress_326
                     -6.5654538205e+02 stress_327
                     -6.6506185307e+02 stress_328
                     -6.7320891215e+02 stress_329
                     -6.8094734729e+02 stress_330
                     -6.8823897278e+02 stress_331
                     -6.9504866878e+02 stress_332
                     -7.0134232752e+02 stress_333
                     -7.0708913581e+02 stress_334
                     -7.1226115406e+02 stress_335
                     -7.1683108840e+02 stress_336
                     -7.2077757658e+02 stress_337
                     -7.2408026537e+02 stress_338
                     -7.2672248742e+02 stress_339
                     -7.2869154813e+02 stress_340
                     -7.2997732350e+02 stress_341
                     -7.3057313482e+02 stress_342


Active response data for evaluation 84:
Active set vector = { 1 1 1 1 1 1 1 1 1 1 1 1 1 1 1 1 1 1 1 1 1 1 1 1 1 1 1 1 1 1 1 1 1 1 1 1 1 1 1 1 1 1 1 1 1 1 1 1 1 1 1 1 1 1 1 1 1 1 1 1 1 1 1 1 1 1 1 1 1 1 1 1 1 1 1 1 1 1 1 1 1 1 1 1 1 1 1 1 1 1 1 1 1 1 1 1 1 1 1 1 1 1 1 1 1 1 1 1 1 1 1 1 1 1 1 1 1 1 1 1 1 1 1 1 1 1 1 1 1 1 1 1 1 1 1 1 1 1 1 1 1 1 1 1 1 1 1 1 1 1 1 1 1 1 1 1 1 1 1 1 1 1 1 1 1 1 1 1 1 1 1 1 1 1 1 1 1 1 1 1 1 1 1 1 1 1 1 1 1 1 1 1 1 1 1 1 1 1 1 1 1 1 1 1 1 1 1 1 1 1 1 1 1 1 1 1 1 1 1 1 1 1 1 1 1 1 1 1 1 1 1 1 1 1 1 1 1 1 1 1 1 1 1 1 1 1 1 1 1 1 1 1 1 1 1 1 1 1 1 1 1 1 1 1 1 1 1 1 1 1 1 1 1 1 1 1 1 1 1 1 1 1 1 1 1 1 1 1 1 1 1 1 1 1 1 1 1 1 1 1 1 1 1 1 1 1 1 1 1 1 1 1 1 1 1 1 1 1 1 1 1 1 1 1 1 1 1 1 1 1 1 1 1 1 1 1 1 1 1 1 1 1 }
                      2.3893153364e+00 stress_1
                     -2.4831504071e+02 stress_2
                     -4.9108352402e+02 stress_3
                     -4.9282283907e+02 stress_4
                     -1.6905720523e+02 stress_5
                      2.3388570238e+02 stress_6
                      3.7975423767e+02 stress_7
                      3.8065909597e+02 stress_8
                      1.3479172158e+02 stress_9
                     -2.2975725142e+02 stress_10
                     -4.2571744465e+02 stress_11
                     -4.7948202275e+02 stress_12
                     -4.9605636530e+02 stress_13
                     -4.9725290080e+02 stress_14
                     -1.7102343552e+02 stress_15
                     -3.3671587742e+02 stress_16
                     -5.0080668853e+02 stress_17
                     -3.0864936160e+02 stress_18
                      2.3027030402e+01 stress_19
                      2.9636124541e+02 stress_20
                      4.1558108284e+02 stress_21
                      4.6079490994e+02 stress_22
                      4.7969379093e+02 stress_23
                      4.8597204644e+02 stress_24
                      1.5943211961e+02 stress_25
                      2.8581451207e+02 stress_26
                      4.2667400932e+02 stress_27
                      4.6010889642e+02 stress_28
                      3.3888814246e+02 stress_29
                      1.2784984731e+02 stress_30
                     -1.2396739038e+02 stress_31
                     -3.1908942549e+02 stress_32
                     -4.2271218168e+02 stress_33
                     -4.7247543272e+02 stress_34
                     -4.9962318991e+02 stress_35
                     -5.1746285543e+02 stress_36
                     -5.3088971860e+02 stress_37
                     -5.4164120191e+02 stress_38
                     -5.5027877212e+02 stress_39
                     -5.5691505008e+02 stress_40
                     -5.6151342518e+02 stress_41
                     -5.6399990417e+02 stress_42
                     -5.4874188944e+02 stress_43
                     -1.6506334182e+02 stress_44
                      1.0452608536e+02 stress_45
                     -9.8861451331e+01 stress_46
                     -4.3871669725e+02 stress_47
                     -1.4562440554e+02 stress_48
                     -2.4717034875e+02 stress_49
                     -4.0459776197e+02 stress_50
                     -5.6049401833e+02 stress_51
                     -3.9271339625e+02 stress_52
                     -5.6693325303e+01 stress_53
                      2.3211348587e+02 stress_54
                      3.6208056010e+02 stress_55
                      4.0982897457e+02 stress_56
                      4.2420637778e+02 stress_57
                      3.3900369379e+02 stress_58
                      2.8295364189e+01 stress_59
                     -3.0763644631e+02 stress_60
                     -4.6597651478e+02 stress_61
                     -5.1783693687e+02 stress_62
                     -5.2937554020e+02 stress_63
                     -2.6402302217e+02 stress_64
                      1.1435415204e+02 stress_65
                      2.0232532498e+02 stress_66
                     -6.5704226379e+01 stress_67
                     -4.2291713516e+02 stress_68
                     -5.2133988632e+02 stress_69
                     -5.2255201542e+02 stress_70
                     -4.2842654180e+02 stress_71
                     -2.5807637533e+02 stress_72
                     -3.5463470957e+01 stress_73
                      1.7616604594e+02 stress_74
                      3.1851848382e+02 stress_75
                      3.9585387624e+02 stress_76
                      4.3749866358e+02 stress_77
                      4.6281383647e+02 stress_78
                      4.8071274900e+02 stress_79
                      4.9494450026e+02 stress_80
                      5.0704843837e+02 stress_81
                      5.1762220075e+02 stress_82
                      5.2685140928e+02 stress_83
                      5.3474206434e+02 stress_84
                      5.4122330525e+02 stress_85
                      5.4620438697e+02 stress_86
                      5.4960068277e+02 stress_87
                      5.5134574095e+02 stress_88
                      4.7860569397e+02 stress_89
                      4.6891362535e+01 stress_90
                     -1.5932697690e+02 stress_91
                      1.2656842389e+02 stress_92
                      4.5856923805e+02 stress_93
                      4.6490859261e+02 stress_94
                      4.0551284838e+02 stress_95
                      2.9868607088e+02 stress_96
                      1.4932902560e+02 stress_97
                     -2.5645063846e+01 stress_98
                     -1.9227399522e+02 stress_99
                     -3.1865065279e+02 stress_100
                     -3.9944654281e+02 stress_101
                     -4.4801557136e+02 stress_102
                     -4.7831932045e+02 stress_103
                     -4.9911099528e+02 stress_104
                     -5.1503389216e+02 stress_105
                     -5.2843828518e+02 stress_106
                     -5.4050149337e+02 stress_107
                     -5.5180910445e+02 stress_108
                     -5.6264238751e+02 stress_109
                     -5.7312191721e+02 stress_110
                     -5.8328030546e+02 stress_111
                     -5.9310045076e+02 stress_112
                     -6.0253915213e+02 stress_113
                     -6.1153837858e+02 stress_114
                     -6.2003238167e+02 stress_115
                     -6.2795333644e+02 stress_116
                     -6.3523339446e+02 stress_117
                     -6.4180946093e+02 stress_118
                     -6.4762236924e+02 stress_119
                     -6.5261759665e+02 stress_120
                     -6.5675003342e+02 stress_121
                     -6.5998052858e+02 stress_122
                     -6.6227825279e+02 stress_123
                     -6.6362236656e+02 stress_124
                     -6.6398344217e+02 stress_125
                     -5.6276650920e+02 stress_126
                     -3.1382075052e+02 stress_127
                     -3.7431611008e+00 stress_128
                      2.1927576756e+02 stress_129
                      3.2805532927e+02 stress_130
                      3.7747795630e+02 stress_131
                      4.0132901002e+02 stress_132
                      4.1214901715e+02 stress_133
                      4.1275304319e+02 stress_134
                      1.2542740963e+01 stress_135
                     -9.2014211932e+00 stress_136
                      1.7428989934e+02 stress_137
                      1.3863745676e+02 stress_138
                     -3.1552678583e+01 stress_139
                     -3.1763047713e+02 stress_140
                     -5.3001669710e+02 stress_141
                     -6.1587485529e+02 stress_142
                     -6.4924961482e+02 stress_143
                     -6.6450184237e+02 stress_144
                     -6.7082886538e+02 stress_145
                     -6.5070339785e+02 stress_146
                     -4.1534620158e+02 stress_147
                     -6.2775655471e+01 stress_148
                      1.9419662268e+02 stress_149
                      3.0676042459e+02 stress_150
                      3.4749521761e+02 stress_151
                      3.5248173106e+02 stress_152
                      1.3898311547e+02 stress_153
                     -2.2453147861e+02 stress_154
                     -4.8683500204e+02 stress_155
                     -5.8684985454e+02 stress_156
                     -6.1533413571e+02 stress_157
                     -4.9421525420e+02 stress_158
                     -9.0015245818e+01 stress_159
                      9.5764364014e+01 stress_160
                     -6.8726618897e+01 stress_161
                     -4.5254606208e+02 stress_162
                     -6.1047505319e+02 stress_163
                     -6.2285459562e+02 stress_164
                     -5.8165405962e+02 stress_165
                     -5.0043004584e+02 stress_166
                     -3.8090693146e+02 stress_167
                     -2.2939269540e+02 stress_168
                     -6.2535260233e+01 stress_169
                      9.3022118665e+01 stress_170
                      2.1471847747e+02 stress_171
                      2.9793222849e+02 stress_172
                      3.5148582446e+02 stress_173
                      3.8631793646e+02 stress_174
                      4.1037566233e+02 stress_175
                      4.2843250665e+02 stress_176
                      4.4316585394e+02 stress_177
                      4.5604958337e+02 stress_178
                      4.6789128991e+02 stress_179
                      4.7913261467e+02 stress_180
                      4.9001042145e+02 stress_181
                      5.0064296533e+02 stress_182
                      5.1108016349e+02 stress_183
                      5.2132995405e+02 stress_184
                      5.3137558801e+02 stress_185
                      5.4118459072e+02 stress_186
                      5.5071523692e+02 stress_187
                      5.5992078639e+02 stress_188
                      5.6875128021e+02 stress_189
                      5.7715641552e+02 stress_190
                      5.8508646744e+02 stress_191
                      5.9249217766e+02 stress_192
                      5.9932853953e+02 stress_193
                      6.0555218392e+02 stress_194
                      6.1112260501e+02 stress_195
                      6.1600509132e+02 stress_196
                      6.2016706872e+02 stress_197
                      6.2358234609e+02 stress_198
                      6.2622874979e+02 stress_199
                      6.2808819031e+02 stress_200
                      6.2914919281e+02 stress_201
                      6.2920116363e+02 stress_202
                      2.7057681479e+02 stress_203
                     -7.7559471496e+01 stress_204
                      2.9896665443e+01 stress_205
                      4.5656328442e+02 stress_206
                      4.7462672584e+02 stress_207
                      4.1066790291e+02 stress_208
                      2.9494764300e+02 stress_209
                      1.3401700575e+02 stress_210
                     -4.9743353119e+01 stress_211
                     -2.1586275198e+02 stress_212
                     -3.3418190207e+02 stress_213
                     -4.0640877651e+02 stress_214
                     -4.4920748900e+02 stress_215
                     -4.7630602473e+02 stress_216
                     -4.9549238344e+02 stress_217
                     -5.1069698153e+02 stress_218
                     -5.2384479561e+02 stress_219
                     -5.3587202432e+02 stress_220
                     -5.4722525440e+02 stress_221
                     -5.5810074036e+02 stress_222
                     -5.6856363084e+02 stress_223
                     -5.7860799587e+02 stress_224
                     -5.8819018131e+02 stress_225
                     -5.9724604662e+02 stress_226
                     -6.0570177765e+02 stress_227
                     -6.1348190471e+02 stress_228
                     -6.2051005799e+02 stress_229
                     -6.2671670992e+02 stress_230
                     -6.3203803967e+02 stress_231
                     -6.3641673339e+02 stress_232
                     -6.3980788644e+02 stress_233
                     -6.4217483634e+02 stress_234
                     -6.4349106894e+02 stress_235
                     -6.3708599815e+02 stress_236
                     -2.7585010579e+02 stress_237
                      2.2072856626e+01 stress_238
                     -1.9560377041e+02 stress_239
                     -4.4737989993e+02 stress_240
                     -1.1930002927e+02 stress_241
                      5.8860268933e+01 stress_242
                     -2.7094599609e+02 stress_243
                     -3.9589259588e+02 stress_244
                     -5.0619441145e+02 stress_245
                     -3.2345059154e+02 stress_246
                      1.1831127654e+01 stress_247
                      2.7811412241e+02 stress_248
                      3.9249968941e+02 stress_249
                      4.3434831657e+02 stress_250
                      4.4629505063e+02 stress_251
                      3.4227648411e+02 stress_252
                      2.3048931159e+01 stress_253
                     -3.1513586019e+02 stress_254
                     -4.8834937740e+02 stress_255
                     -5.5024104260e+02 stress_256
                     -5.6256507086e+02 stress_257
                     -2.8827529822e+02 stress_258
                      9.4766740609e+01 stress_259
                      2.1588206761e+02 stress_260
                      3.8202782773e+00 stress_261
                     -3.6343234654e+02 stress_262
                     -5.2411370532e+02 stress_263
                     -5.4622377042e+02 stress_264
                     -5.0474449922e+02 stress_265
                     -4.1172390882e+02 stress_266
                     -2.7024075254e+02 stress_267
                     -9.2473517277e+01 stress_268
                      9.1727056921e+01 stress_269
                      2.4418303410e+02 stress_270
                      3.4763826430e+02 stress_271
                      4.1093254380e+02 stress_272
                      4.4971034604e+02 stress_273
                      4.7529371619e+02 stress_274
                      4.9402630533e+02 stress_275
                      5.0917789384e+02 stress_276
                      5.2240142742e+02 stress_277
                      5.3452567754e+02 stress_278
                      5.4595710902e+02 stress_279
                      5.5688011395e+02 stress_280
                      5.6735908273e+02 stress_281
                      5.7739237250e+02 stress_282
                      5.8694148112e+02 stress_283
                      5.9594891143e+02 stress_284
                      6.0434663878e+02 stress_285
                      6.1206448087e+02 stress_286
                      6.1903290047e+02 stress_287
                      6.2518525434e+02 stress_288
                      6.3046244323e+02 stress_289
                      6.3481200622e+02 stress_290
                      6.3818958617e+02 stress_291
                      6.4056166615e+02 stress_292
                      6.4190338990e+02 stress_293
                      6.4192320224e+02 stress_294
                      2.7145988351e+02 stress_295
                     -6.8938597980e+01 stress_296
                      5.9918314117e+01 stress_297
                      4.7054473925e+02 stress_298
                      4.8456637940e+02 stress_299
                      4.4163246029e+02 stress_300
                      3.6428739669e+02 stress_301
                      2.5404772988e+02 stress_302
                      1.1660937750e+02 stress_303
                     -3.3936096673e+01 stress_304
                     -1.7503263548e+02 stress_305
                     -2.8720264433e+02 stress_306
                     -3.6549056019e+02 stress_307
                     -4.1673151873e+02 stress_308
                     -4.5036955928e+02 stress_309
                     -4.7361723117e+02 stress_310
                     -4.9097499507e+02 stress_311
                     -5.0503989621e+02 stress_312
                     -5.1727251418e+02 stress_313
                     -5.2849428342e+02 stress_314
                     -5.3916710830e+02 stress_315
                     -5.4954868905e+02 stress_316
                     -5.5977914356e+02 stress_317
                     -5.6992826188e+02 stress_318
                     -5.8002333927e+02 stress_319
                     -5.9006561570e+02 stress_320
                     -6.0003918595e+02 stress_321
                     -6.0991799801e+02 stress_322
                     -6.1966865699e+02 stress_323
                     -6.2925386709e+02 stress_324
                     -6.3863422136e+02 stress_325
                     -6.4776796168e+02 stress_326
                     -6.5661424118e+02 stress_327
                     -6.6513072332e+02 stress_328
                     -6.7327779158e+02 stress_329
                     -6.8101623435e+02 stress_330
                     -6.8830786619e+02 stress_331
                     -6.9511756749e+02 stress_332
                     -7.0141123067e+02 stress_333
                     -7.0715804265e+02 stress_334
                     -7.1233006396e+02 stress_335
                     -7.1690000084e+02 stress_336
                     -7.2084649107e+02 stress_337
                     -7.2414918149e+02 stress_338
                     -7.2679140480e+02 stress_339
                     -7.2876046641e+02 stress_340
                     -7.3004624236e+02 stress_341
                     -7.3064205395e+02 stress_342


Active response data for evaluation 85:
Active set vector = { 1 1 1 1 1 1 1 1 1 1 1 1 1 1 1 1 1 1 1 1 1 1 1 1 1 1 1 1 1 1 1 1 1 1 1 1 1 1 1 1 1 1 1 1 1 1 1 1 1 1 1 1 1 1 1 1 1 1 1 1 1 1 1 1 1 1 1 1 1 1 1 1 1 1 1 1 1 1 1 1 1 1 1 1 1 1 1 1 1 1 1 1 1 1 1 1 1 1 1 1 1 1 1 1 1 1 1 1 1 1 1 1 1 1 1 1 1 1 1 1 1 1 1 1 1 1 1 1 1 1 1 1 1 1 1 1 1 1 1 1 1 1 1 1 1 1 1 1 1 1 1 1 1 1 1 1 1 1 1 1 1 1 1 1 1 1 1 1 1 1 1 1 1 1 1 1 1 1 1 1 1 1 1 1 1 1 1 1 1 1 1 1 1 1 1 1 1 1 1 1 1 1 1 1 1 1 1 1 1 1 1 1 1 1 1 1 1 1 1 1 1 1 1 1 1 1 1 1 1 1 1 1 1 1 1 1 1 1 1 1 1 1 1 1 1 1 1 1 1 1 1 1 1 1 1 1 1 1 1 1 1 1 1 1 1 1 1 1 1 1 1 1 1 1 1 1 1 1 1 1 1 1 1 1 1 1 1 1 1 1 1 1 1 1 1 1 1 1 1 1 1 1 1 1 1 1 1 1 1 1 1 1 1 1 1 1 1 1 1 1 1 1 1 1 1 1 1 1 1 1 1 1 1 1 1 1 1 1 1 1 1 1 }
                      2.3893153364e+00 stress_1
                     -2.4831504849e+02 stress_2
                     -4.9107500121e+02 stress_3
                     -4.9281392812e+02 stress_4
                     -1.6904821629e+02 stress_5
                      2.3389677246e+02 stress_6
                      3.7976740671e+02 stress_7
                      3.8067228017e+02 stress_8
                      1.3480489455e+02 stress_9
                     -2.2974456190e+02 stress_10
                     -4.2570567239e+02 stress_11
                     -4.7947053893e+02 stress_12
                     -4.9604494548e+02 stress_13
                     -4.9724148470e+02 stress_14
                     -1.7101187271e+02 stress_15
                     -3.3670431879e+02 stress_16
                     -5.0079489223e+02 stress_17
                     -3.0863754745e+02 stress_18
                      2.3039742111e+01 stress_19
                      2.9637769691e+02 stress_20
                      4.1560064491e+02 stress_21
                      4.6081577437e+02 stress_22
                      4.7971514008e+02 stress_23
                      4.8599353814e+02 stress_24
                      1.5945357639e+02 stress_25
                      2.8583596847e+02 stress_26
                      4.2669512932e+02 stress_27
                      4.6012978386e+02 stress_28
                      3.3890902929e+02 stress_29
                      1.2787070342e+02 stress_30
                     -1.2394678391e+02 stress_31
                     -3.1906938672e+02 stress_32
                     -4.2269263503e+02 stress_33
                     -4.7245614761e+02 stress_34
                     -4.9960402750e+02 stress_35
                     -5.1744375204e+02 stress_36
                     -5.3087064547e+02 stress_37
                     -5.4162214529e+02 stress_38
                     -5.5025972494e+02 stress_39
                     -5.5689600842e+02 stress_40
                     -5.6149438665e+02 stress_41
                     -5.6398086713e+02 stress_42
                     -5.4872285240e+02 stress_43
                     -1.6504360953e+02 stress_44
                      1.0455009566e+02 stress_45
                     -9.8837420399e+01 stress_46
                     -4.3868766348e+02 stress_47
                     -1.4559516109e+02 stress_48
                     -2.4714110397e+02 stress_49
                     -4.0456825888e+02 stress_50
                     -5.6046070588e+02 stress_51
                     -3.9268007268e+02 stress_52
                     -5.6659268209e+01 stress_53
                      2.3215094681e+02 stress_54
                      3.6212109839e+02 stress_55
                      4.0987085412e+02 stress_56
                      4.2424865801e+02 stress_57
                      3.3904597342e+02 stress_58
                      2.8337389596e+01 stress_59
                     -3.0759698005e+02 stress_60
                     -4.6594012542e+02 stress_61
                     -5.1780182734e+02 stress_62
                     -5.2934071614e+02 stress_63
                     -2.6398813681e+02 stress_64
                      1.1439078442e+02 stress_65
                      2.0236308342e+02 stress_66
                     -6.5666529452e+01 stress_67
                     -4.2288140547e+02 stress_68
                     -5.2130560637e+02 stress_69
                     -5.2251775502e+02 stress_70
                     -4.2839228011e+02 stress_71
                     -2.5804204781e+02 stress_72
                     -3.5428518132e+01 stress_73
                      1.7620303271e+02 stress_74
                      3.1855818181e+02 stress_75
                      3.9589554831e+02 stress_76
                      4.3754142991e+02 stress_77
                      4.6285717098e+02 stress_78
                      4.8075638465e+02 stress_79
                      4.9498830315e+02 stress_80
                      5.0709233889e+02 stress_81
                      5.1766616089e+02 stress_82
                      5.2689540718e+02 stress_83
                      5.3478608678e+02 stress_84
                      5.4126734376e+02 stress_85
                      5.4624843586e+02 stress_86
                      5.4964473791e+02 stress_87
                      5.5138979906e+02 stress_88
                      4.7864975191e+02 stress_89
                      4.6935156951e+01 stress_90
                     -1.5928388546e+02 stress_91
                      1.2661169030e+02 stress_92
                      4.5861952300e+02 stress_93
                      4.6495915861e+02 stress_94
                      4.0556341411e+02 stress_95
                      2.9873662323e+02 stress_96
                      1.4937943427e+02 stress_97
                     -2.5595341540e+01 stress_98
                     -1.9222598344e+02 stress_99
                     -3.1860501517e+02 stress_100
                     -3.9940300501e+02 stress_101
                     -4.4797345655e+02 stress_102
                     -4.7827806437e+02 stress_103
                     -4.9907024235e+02 stress_104
                     -5.1499343716e+02 stress_105
                     -5.2839801134e+02 stress_106
                     -5.4046133322e+02 stress_107
                     -5.5176901792e+02 stress_108
                     -5.6260235011e+02 stress_109
                     -5.7308191349e+02 stress_110
                     -5.8324032542e+02 stress_111
                     -5.9306048773e+02 stress_112
                     -6.0249920156e+02 stress_113
                     -6.1149843729e+02 stress_114
                     -6.1999244739e+02 stress_115
                     -6.2791340752e+02 stress_116
                     -6.3519346965e+02 stress_117
                     -6.4176953932e+02 stress_118
                     -6.4758245009e+02 stress_119
                     -6.5257767940e+02 stress_120
                     -6.5671011760e+02 stress_121
                     -6.5994061378e+02 stress_122
                     -6.6223833870e+02 stress_123
                     -6.6358245286e+02 stress_124
                     -6.6394352857e+02 stress_125
                     -5.6272659071e+02 stress_126
                     -3.1378029339e+02 stress_127
                     -3.6972538011e+00 stress_128
                      2.1933345259e+02 stress_129
                      3.2812217004e+02 stress_130
                      3.7754942397e+02 stress_131
                      4.0140259036e+02 stress_132
                      4.1222347195e+02 stress_133
                      4.1282754463e+02 stress_134
                      1.2616897395e+01 stress_135
                     -9.1273434813e+00 stress_136
                      1.7436411864e+02 stress_137
                      1.3871167599e+02 stress_138
                     -3.1478526706e+01 stress_139
                     -3.1755825645e+02 stress_140
                     -5.2995037248e+02 stress_141
                     -6.1581253904e+02 stress_142
                     -6.4918886602e+02 stress_143
                     -6.6444168063e+02 stress_144
                     -6.7076890454e+02 stress_145
                     -6.5064343700e+02 stress_146
                     -4.1528616389e+02 stress_147
                     -6.2713640064e+01 stress_148
                      1.9426428499e+02 stress_149
                      3.0683237862e+02 stress_150
                      3.4756896877e+02 stress_151
                      3.5255570600e+02 stress_152
                      1.3905705865e+02 stress_153
                     -2.2445911824e+02 stress_154
                     -4.8676794167e+02 stress_155
                     -5.8678635215e+02 stress_156
                     -6.1527176484e+02 stress_157
                     -4.9415287858e+02 stress_158
                     -8.9951632936e+01 stress_159
                      9.5830624351e+01 stress_160
                     -6.8660370214e+01 stress_161
                     -4.5248179951e+02 stress_162
                     -6.1041407515e+02 stress_163
                     -6.2279393546e+02 stress_164
                     -5.8159339938e+02 stress_165
                     -5.0036938028e+02 stress_166
                     -3.8084619954e+02 stress_167
                     -2.2933158140e+02 stress_168
                     -6.2472869711e+01 stress_169
                      9.3087132853e+01 stress_170
                      2.1478694702e+02 stress_171
                      2.9800389692e+02 stress_172
                      3.5155985592e+02 stress_173
                      3.8639352330e+02 stress_174
                      4.1045222940e+02 stress_175
                      4.2850968844e+02 stress_176
                      4.4324342645e+02 stress_177
                      4.5612740962e+02 stress_178
                      4.6796928490e+02 stress_179
                      4.7921072460e+02 stress_180
                      4.9008861150e+02 stress_181
                      5.0072121241e+02 stress_182
                      5.1115845199e+02 stress_183
                      5.2140827316e+02 stress_184
                      5.3145393013e+02 stress_185
                      5.4126295039e+02 stress_186
                      5.5079361014e+02 stress_187
                      5.5999917022e+02 stress_188
                      5.6882967240e+02 stress_189
                      5.7723481439e+02 stress_190
                      5.8516487166e+02 stress_191
                      5.9257058620e+02 stress_192
                      5.9940695158e+02 stress_193
                      6.0563059880e+02 stress_194
                      6.1120102218e+02 stress_195
                      6.1608351033e+02 stress_196
                      6.2024548918e+02 stress_197
                      6.2366076768e+02 stress_198
                      6.2630717220e+02 stress_199
                      6.2816661328e+02 stress_200
                      6.2922761609e+02 stress_201
                      6.2927958693e+02 stress_202
                      2.7065510568e+02 stress_203
                     -7.7482767220e+01 stress_204
                      2.9973370340e+01 stress_205
                      4.5664607167e+02 stress_206
                      4.7471057293e+02 stress_207
                      4.1075174947e+02 stress_208
                      2.9503146336e+02 stress_209
                      1.3410055122e+02 stress_210
                     -4.9661047961e+01 stress_211
                     -2.1578324113e+02 stress_212
                     -3.3410582944e+02 stress_213
                     -4.0633545100e+02 stress_214
                     -4.4913590853e+02 stress_215
                     -4.7623546211e+02 stress_216
                     -4.9542240804e+02 stress_217
                     -5.1062735206e+02 stress_218
                     -5.2377537656e+02 stress_219
                     -5.3580273773e+02 stress_220
                     -5.4715605399e+02 stress_221
                     -5.5803159776e+02 stress_222
                     -5.6849452809e+02 stress_223
                     -5.7853892127e+02 stress_224
                     -5.8812112702e+02 stress_225
                     -5.9717700724e+02 stress_226
                     -6.0563274940e+02 stress_227
                     -6.1341288484e+02 stress_228
                     -6.2044104448e+02 stress_229
                     -6.2664770125e+02 stress_230
                     -6.3196903465e+02 stress_231
                     -6.3634773108e+02 stress_232
                     -6.3973888607e+02 stress_233
                     -6.4210583724e+02 stress_234
                     -6.4342207052e+02 stress_235
                     -6.3701699973e+02 stress_236
                     -2.7578077787e+02 stress_237
                      2.2144973490e+01 stress_238
                     -1.9553169617e+02 stress_239
                     -4.4730859823e+02 stress_240
                     -1.1922832812e+02 stress_241
                      5.8933635940e+01 stress_242
                     -2.7087286739e+02 stress_243
                     -3.9582004625e+02 stress_244
                     -5.0612290736e+02 stress_245
                     -3.2337905315e+02 stress_246
                      1.1904415520e+01 stress_247
                      2.7819408725e+02 stress_248
                      3.9258500771e+02 stress_249
                      4.3443587833e+02 stress_250
                      4.4638324206e+02 stress_251
                      3.4236467302e+02 stress_252
                      2.3136578946e+01 stress_253
                     -3.1505277221e+02 stress_254
                     -4.8827214205e+02 stress_255
                     -5.5016660191e+02 stress_256
                     -5.6249121487e+02 stress_257
                     -2.8820133004e+02 stress_258
                      9.4843670825e+01 stress_259
                      2.1596171952e+02 stress_260
                      3.8998799019e+00 stress_261
                     -3.6335507133e+02 stress_262
                     -5.2404001147e+02 stress_263
                     -5.4615074724e+02 stress_264
                     -5.0467147594e+02 stress_265
                     -4.1165087717e+02 stress_266
                     -2.7016759949e+02 stress_267
                     -9.2399638177e+01 stress_268
                      9.1803182676e+01 stress_269
                      2.4426297894e+02 stress_270
                      3.4772214324e+02 stress_271
                      4.1101933613e+02 stress_272
                      4.4979896918e+02 stress_273
                      4.7538342704e+02 stress_274
                      4.9411666126e+02 stress_275
                      5.0926864055e+02 stress_276
                      5.2249241803e+02 stress_277
                      5.3461682520e+02 stress_278
                      5.4604836089e+02 stress_279
                      5.5697143694e+02 stress_280
                      5.6745045547e+02 stress_281
                      5.7748378083e+02 stress_282
                      5.8703291543e+02 stress_283
                      5.9604036500e+02 stress_284
                      6.0443810682e+02 stress_285
                      6.1215595990e+02 stress_286
                      6.1912438790e+02 stress_287
                      6.2527674819e+02 stress_288
                      6.3055394196e+02 stress_289
                      6.3490350858e+02 stress_290
                      6.3828109114e+02 stress_291
                      6.4065317285e+02 stress_292
                      6.4199489755e+02 stress_293
                      6.4201470990e+02 stress_294
                      2.7155104985e+02 stress_295
                     -6.8851096266e+01 stress_296
                      6.0005816708e+01 stress_297
                      4.7063403234e+02 stress_298
                      4.8465589214e+02 stress_299
                      4.4172197287e+02 stress_300
                      3.6437690169e+02 stress_301
                      2.5413715145e+02 stress_302
                      1.1669835412e+02 stress_303
                     -3.3848544944e+01 stress_304
                     -1.7494797346e+02 stress_305
                     -2.8712183303e+02 stress_306
                     -3.6541340696e+02 stress_307
                     -4.1665714332e+02 stress_308
                     -4.5029705543e+02 stress_309
                     -4.7354592719e+02 stress_310
                     -4.9090445258e+02 stress_311
                     -5.0496984164e+02 stress_312
                     -5.1720277801e+02 stress_313
                     -5.2842475959e+02 stress_314
                     -5.3909772928e+02 stress_315
                     -5.4947941094e+02 stress_316
                     -5.5970993721e+02 stress_317
                     -5.6985910755e+02 stress_318
                     -5.7995422332e+02 stress_319
                     -5.8999652852e+02 stress_320
                     -5.9997012066e+02 stress_321
                     -6.0984894959e+02 stress_322
                     -6.1959962175e+02 stress_323
                     -6.2918484225e+02 stress_324
                     -6.3856520482e+02 stress_325
                     -6.4769895182e+02 stress_326
                     -6.5654523675e+02 stress_327
                     -6.6506172332e+02 stress_328
                     -6.7320879523e+02 stress_329
                     -6.8094724102e+02 stress_330
                     -6.8823887537e+02 stress_331
                     -6.9504857875e+02 stress_332
                     -7.0134224366e+02 stress_333
                     -7.0708905708e+02 stress_334
                     -7.1226107960e+02 stress_335
                     -7.1683101745e+02 stress_336
                     -7.2077750848e+02 stress_337
                     -7.2408019954e+02 stress_338
                     -7.2672242334e+02 stress_339
                     -7.2869148530e+02 stress_340
                     -7.2997726147e+02 stress_341
                     -7.3057307316e+02 stress_342

>>>>> Total response returned to iterator:

Active set vector = { 2 2 2 2 2 2 2 2 2 2 2 2 2 2 2 2 2 2 2 2 2 2 2 2 2 2 2 2 2 2 2 2 2 2 2 2 2 2 2 2 2 2 2 2 2 2 2 2 2 2 2 2 2 2 2 2 2 2 2 2 2 2 2 2 2 2 2 2 2 2 2 2 2 2 2 2 2 2 2 2 2 2 2 2 2 2 2 2 2 2 2 2 2 2 2 2 2 2 2 2 2 2 2 2 2 2 2 2 2 2 2 2 2 2 2 2 2 2 2 2 2 2 2 2 2 2 2 2 2 2 2 2 2 2 2 2 2 2 2 2 2 2 2 2 2 2 2 2 2 2 2 2 2 2 2 2 2 2 2 2 2 2 2 2 2 2 2 2 2 2 2 2 2 2 2 2 2 2 2 2 2 2 2 2 2 2 2 2 2 2 2 2 2 2 2 2 2 2 2 2 2 2 2 2 2 2 2 2 2 2 2 2 2 2 2 2 2 2 2 2 2 2 2 2 2 2 2 2 2 2 2 2 2 2 2 2 2 2 2 2 2 2 2 2 2 2 2 2 2 2 2 2 2 2 2 2 2 2 2 2 2 2 2 2 2 2 2 2 2 2 2 2 2 2 2 2 2 2 2 2 2 2 2 2 2 2 2 2 2 2 2 2 2 2 2 2 2 2 2 2 2 2 2 2 2 2 2 2 2 2 2 2 2 2 2 2 2 2 2 2 2 2 2 2 2 2 2 2 2 2 2 2 2 2 2 2 2 2 2 2 2 2 } Deriv vars vector = { 1 2 3 4 5 6 7 }
 [  0.0000000000e+00  1.1653236823e-05  0.0000000000e+00  0.0000000000e+00 
    0.0000000000e+00  0.0000000000e+00  0.0000000000e+00 ] stress_1 gradient
 [ -7.5217761004e-05 -1.2109114790e-03 -2.5158499284e-03  1.6285314815e-02 
   -2.8458864642e-01  4.0098212841e-01  0.0000000000e+00 ] stress_2 gradient
 [ -9.9126501976e-01 -8.5444849973e-05 -2.2131234987e+02  9.4150709453e-01 
   -1.6482201003e+01 -4.3926664421e+02  0.0000000000e+00 ] stress_3 gradient
 [ -9.9712164253e-01 -8.0457591136e-05 -2.9865513811e+02  2.9734918682e-01 
   -5.2025097539e+00 -4.5927142612e+02  0.0000000000e+00 ] stress_4 gradient
 [ -9.7454521892e-01  1.4457665680e-03 -2.9694385640e+02 -4.3876735504e+01 
    5.5234812380e+01 -4.5346285467e+02  7.4030787253e+00 ] stress_5 gradient
 [ -3.3975776818e-01  1.9292195569e-03 -2.1009819654e+02 -6.7507341308e+02 
    9.2643753973e+02 -2.9851006299e+02  2.0491647371e+02 ] stress_6 gradient
 [  3.3009252664e-01  1.0810235178e-03 -9.9099362745e+00 -8.2103513769e+02 
    1.1291509770e+03 -1.4223165944e+02  4.0412020404e+02 ] stress_7 gradient
 [  3.3504741552e-01  1.0739099824e-03 -7.5440301884e+00 -8.2013120406e+02 
    1.1279057331e+03 -1.4110344622e+02  4.0555858082e+02 ] stress_8 gradient
 [  3.2507738818e-01 -1.0191310484e-04 -8.2987854258e+00 -7.9308049527e+02 
    1.0916513649e+03 -1.4383764955e+02  4.0306306506e+02 ] stress_9 gradient
 [ -6.8843971653e-02 -9.6066990443e-04 -6.6080330583e+01 -6.6412303044e+01 
    1.0552000776e+02 -2.6149394930e+02  2.9566970120e+02 ] stress_10 gradient
 [ -7.4810747723e-01 -3.3436445177e-04 -3.7048116873e+02  4.8926452950e+02 
   -6.5720218064e+02 -4.8472502944e+02  9.1910528750e+01 ] stress_11 gradient
 [ -9.3491240913e-01 -1.6125468615e-04 -7.7311289791e+02  3.4675793813e+02 
   -4.6643269959e+02 -5.5492112573e+02  2.7837346317e+01 ] stress_12 gradient
 [ -9.7076827409e-01 -1.5832830024e-04 -1.0565733036e+03  2.4895068218e+02 
   -3.3464252964e+02 -5.7049809598e+02  1.3619351027e+01 ] stress_13 gradient
 [ -9.7269305744e-01 -1.5966061277e-04 -1.0828961472e+03  2.4140065703e+02 
   -3.2446915990e+02 -5.7140262508e+02  1.2793594646e+01 ] stress_14 gradient
 [ -9.4420068262e-01  1.3648105241e-03 -1.0787158096e+03  1.2441859786e+02 
   -2.7704232702e+02 -5.6355100330e+02  2.4403488676e+01 ] stress_15 gradient
 [ -9.4418883368e-01  5.5666218918e-04 -1.0787198349e+03  1.2455549665e+02 
   -2.7773289284e+02 -5.6330876475e+02  2.4423676420e+01 ] stress_16 gradient
 [ -9.6214576048e-01 -2.0178913763e-04 -1.1060127907e+03  1.3666161430e+02 
   -5.1631630127e+02 -5.7707461521e+02  2.3281515971e+01 ] stress_17 gradient
 [ -9.5858433661e-01  7.2707699339e-04 -1.1055191807e+03  1.1745419401e+02 
   -5.0844931346e+02 -5.7609586834e+02  2.4711740001e+01 ] stress_18 gradient
 [ -7.8561646863e-01  1.9405520510e-03 -1.0760903180e+03 -3.6353833810e+02 
   -2.8977335293e+02 -5.2688113614e+02  9.6628288095e+01 ] stress_19 gradient
 [ -8.0401359623e-02  1.6288826996e-03 -8.7767618540e+02 -1.1137628934e+03 
    1.5604932895e+02 -3.2182681296e+02  3.9627377140e+02 ] stress_20 gradient
 [  4.9689633783e-01  8.6663859603e-04 -4.9255175871e+02 -9.8117407038e+02 
    2.4350908492e+02 -1.5127695037e+02  6.4550079068e+02 ] stress_21 gradient
 [  7.3577613974e-01  5.3172896765e-04 -8.7506825447e+01 -6.9829112986e+02 
    1.9518161665e+02 -7.9870692083e+01  7.4984852274e+02 ] stress_22 gradient
 [  8.2400554762e-01  4.1883000302e-04  2.1322690859e+02 -5.3931350378e+02 
    1.5724938937e+02 -5.3294544968e+01  7.8868508383e+02 ] stress_23 gradient
 [  8.4985106533e-01  3.8938349172e-04  3.4173757342e+02 -4.8451991969e+02 
    1.4311774222e+02 -4.5479001276e+01  8.0010630009e+02 ] stress_24 gradient
 [  8.2178215414e-01 -1.1375954674e-03  3.3717382008e+02 -3.5285238348e+02 
    1.0599274862e+02 -5.8668117805e+01  7.8881591594e+02 ] stress_25 gradient
 [  8.2176976090e-01 -5.2117098712e-04  3.3717432326e+02 -3.5289527317e+02 
    1.0607772058e+02 -5.8673787218e+01  7.8879689287e+02 ] stress_26 gradient
 [  8.1242697390e-01  1.8765566085e-04  3.3901743554e+02 -3.9183230010e+02 
    2.0600610094e+02 -6.3881916274e+01  7.7181395308e+02 ] stress_27 gradient
 [  8.0995224048e-01  3.5661929446e-04  3.4452362659e+02 -4.2384380828e+02 
    3.3895991475e+02 -6.7482509009e+01  7.6007322694e+02 ] stress_28 gradient
 [  8.0928444996e-01 -2.3304032104e-04  3.4442601158e+02 -4.1907948895e+02 
    3.3756158641e+02 -6.7781957102e+01  7.5982398594e+02 ] stress_29 gradient
 [  7.7744885186e-01 -1.1878916430e-03  3.3921216240e+02 -2.7668531616e+02 
    2.9394871347e+02 -8.2768792992e+01  7.4734252488e+02 ] stress_30 gradient
 [  5.2751974299e-01 -1.8322501572e-03  2.8807095382e+02  3.6377935380e+02 
    8.3524407512e+01 -2.0457819556e+02  6.4589794572e+02 ] stress_31 gradient
 [ -2.6411022130e-02 -1.4920593682e-03  1.0428251853e+02  9.7306730336e+02 
   -1.5584229408e+02 -4.8156562012e+02  4.1521763995e+02 ] stress_32 gradient
 [ -4.9688254198e-01 -9.0198670020e-04 -2.3159110986e+02  9.3082255837e+02 
   -2.0116472204e+02 -7.2166784291e+02  2.1525531631e+02 ] stress_33 gradient
 [ -7.4276439938e-01 -5.7270168689e-04 -6.6278076456e+02  6.6619423694e+02 
   -1.5655477727e+02 -8.4927344729e+02  1.0898276048e+02 ] stress_34 gradient
 [ -8.5654915147e-01 -4.4051299067e-04 -1.1373175221e+03  4.5119163411e+02 
   -1.1000531366e+02 -9.0913935747e+02  5.9125243983e+01 ] stress_35 gradient
 [ -9.1067545872e-01 -4.0167254698e-04 -1.6206924634e+03  3.1258589217e+02 
   -7.7742267568e+01 -9.3793842993e+02  3.5141039219e+01 ] stress_36 gradient
 [ -9.3816372982e-01 -4.0324759917e-04 -2.0869747145e+03  2.2697470035e+02 
   -5.7132856803e+01 -9.5269797390e+02  2.2848644148e+01 ] stress_37 gradient
 [ -9.5305370632e-01 -4.2106523687e-04 -2.5143996501e+03  1.7386204397e+02 
   -4.4103822071e+01 -9.6075266374e+02  1.6140489695e+01 ] stress_38 gradient
 [ -9.6152480049e-01 -4.4349668401e-04 -2.8841788965e+03  1.4057878386e+02 
   -3.5844681890e+01 -9.6536292742e+02  1.2301324268e+01 ] stress_39 gradient
 [ -9.6644874814e-01 -4.6441448327e-04 -3.1802658541e+03  1.1986153033e+02 
   -3.0665101080e+01 -9.6805383705e+02  1.0060096435e+01 ] stress_40 gradient
 [ -9.6922897914e-01 -4.8037726217e-04 -3.3902151122e+03  1.0761008685e+02 
   -2.7588239226e+01 -9.6957839377e+02  8.7902096849e+00 ] stress_41 gradient
 [ -9.7055187387e-01 -4.8942832539e-04 -3.5051104958e+03  1.0161793836e+02 
   -2.6078975264e+01 -9.7030510946e+02  8.1849655864e+00 ] stress_42 gradient
 [ -9.7055166452e-01 -4.1501205973e-04 -3.5051109989e+03  1.0161453736e+02 
   -2.6078975264e+01 -9.7030510946e+02  8.1849655864e+00 ] stress_43 gradient
 [ -9.1419237578e-01  1.3245262257e-03 -3.4946994020e+03 -1.5104933589e+02 
    1.2786257681e+00 -9.4330272555e+02  5.5515908258e+01 ] stress_44 gradient
 [ -5.7240356057e-01  1.8411908975e-03 -3.4147894396e+03 -9.1853697725e+02 
    8.6233057513e+01 -7.7715026594e+02  3.4675362316e+02 ] stress_45 gradient
 [ -5.7363503840e-01  8.5212675848e-04 -3.4148322594e+03 -9.1540457762e+02 
    8.1435412200e+01 -7.7925227817e+02  3.4597127043e+02 ] stress_46 gradient
 [ -8.5339050793e-01 -1.5205891556e-04 -3.4471634076e+03 -2.4210954993e+02 
   -7.5901073433e+02 -1.2888266546e+03  1.5635757268e+02 ] stress_47 gradient
 [ -8.2655399151e-01  1.2146712857e-03 -3.4426399079e+03 -3.6543667186e+02 
   -7.3463895376e+02 -1.2707087564e+03  1.7818401816e+02 ] stress_48 gradient
 [ -8.2657505165e-01  7.1945837219e-04 -3.4426404111e+03 -3.6538803646e+02 
   -7.3468784636e+02 -1.2707458653e+03  1.7816887736e+02 ] stress_49 gradient
 [ -8.4214058538e-01 -1.1849958373e-05 -3.4437332967e+03 -3.3029097765e+02 
   -7.5947268510e+02 -1.2996712111e+03  1.6640912815e+02 ] stress_50 gradient
 [ -1.0343264238e+00 -3.2371404776e-04 -3.5241947335e+03  9.3242086393e+01 
   -5.1483805883e+02 -1.7261883760e+03 -6.9756420635e+00 ] stress_51 gradient
 [ -1.0321398542e+00  4.8947685381e-04 -3.5238304383e+03  7.7616843381e+01 
   -5.1267464560e+02 -1.7244143651e+03 -5.2076615457e+00 ] stress_52 gradient
 [ -8.9135858099e-01  1.7992708352e-03 -3.4971742444e+03 -4.0822875201e+02 
   -4.2676751627e+02 -1.6073786599e+03  1.1142675867e+02 ] stress_53 gradient
 [ -2.4669564533e-01  1.7035154655e-03 -3.3117970494e+03 -1.2786800164e+03 
   -1.7486522429e+02 -1.0643127409e+03  6.5263715824e+02 ] stress_54 gradient
 [  3.3118537183e-01  9.9145126441e-04 -2.9670937910e+03 -1.2452800894e+03 
   -3.4985183712e+01 -5.7335805720e+02  1.1419193611e+03 ] stress_55 gradient
 [  5.8167962923e-01  6.4154093924e-04 -2.6541108827e+03 -1.0047972486e+03 
    1.8039683175e+00 -3.5938049009e+02  1.3551691027e+03 ] stress_56 gradient
 [  6.5630037936e-01  5.3812194130e-04 -2.5079183153e+03 -8.9922041169e+02 
    9.1999012317e+00 -2.9545940333e+02  1.4188730823e+03 ] stress_57 gradient
 [  6.5616734043e-01  1.2288011534e-04 -2.5079364294e+03 -8.9818060072e+02 
    8.8101091982e+00 -2.9555320635e+02  1.4187791317e+03 ] stress_58 gradient
 [  6.0475713752e-01 -1.2723374903e-03 -2.5167113648e+03 -6.7067315700e+02 
   -7.2863157066e+01 -3.3544046545e+02  1.3788644674e+03 ] stress_59 gradient
 [  1.1633248421e-01 -1.7705299515e-03 -2.6443222104e+03  4.3439315198e+02 
   -4.2085771606e+02 -7.3695154989e+02  9.7707361844e+02 ] stress_60 gradient
 [ -4.4753665525e-01 -1.2287075106e-03 -2.9613179008e+03  8.1713223374e+02 
   -4.5532733575e+02 -1.2196711533e+03  4.9401195838e+02 ] stress_61 gradient
 [ -6.7556540018e-01 -9.5075084084e-04 -3.2562349878e+03  7.1494715320e+02 
   -3.6312668360e+02 -1.4204523883e+03  2.9308722285e+02 ] stress_62 gradient
 [ -7.2574693048e-01 -8.9022760460e-04 -3.3602468008e+03  6.6495338417e+02 
   -3.3150598510e+02 -1.4652366287e+03  2.4827081901e+02 ] stress_63 gradient
 [ -7.1389920154e-01  3.7626077178e-04 -3.3579447973e+03  5.8599202149e+02 
   -3.2109793088e+02 -1.4555878030e+03  2.5791861959e+02 ] stress_64 gradient
 [ -3.8451863728e-01  1.4524430062e-03 -3.2753770901e+03 -4.1833649322e+02 
   -1.6089947480e+02 -1.1805697264e+03  5.3289976527e+02 ] stress_65 gradient
 [ -1.7423305668e-01  1.3909156949e-03 -3.2033653897e+03 -7.5715760966e+02 
   -9.1879646944e+01 -1.0033088249e+03  7.1013806527e+02 ] stress_66 gradient
 [ -1.8891568296e-01  1.1799445405e-04 -3.2051166231e+03 -7.0271812612e+02 
   -1.4752283054e+02 -1.0129796067e+03  7.0046545705e+02 ] stress_67 gradient
 [ -5.9444169465e-01 -6.7828510132e-04 -3.3197144318e+03  2.2482287980e+02 
   -8.8764480270e+02 -1.3222916540e+03  3.9110299131e+02 ] stress_68 gradient
 [ -8.5463117183e-01 -5.5202789538e-04 -3.5453283834e+03  4.2921075391e+02 
   -8.0809114863e+02 -1.5502324703e+03  1.6312396101e+02 ] stress_69 gradient
 [ -8.5786314902e-01 -5.5040772882e-04 -3.5507958303e+03  4.2856446022e+02 
   -8.0255549482e+02 -1.5533068384e+03  1.6004921228e+02 ] stress_70 gradient
 [ -8.5760603114e-01 -9.1937416634e-05 -3.5507520545e+03  4.2612750157e+02 
   -8.0220346810e+02 -1.5531042857e+03  1.6025186617e+02 ] stress_71 gradient
 [ -8.4476763844e-01  7.0888736947e-04 -3.5484384781e+03  3.4965983497e+02 
   -7.8912790111e+02 -1.5427457525e+03  1.7061012007e+02 ] stress_72 gradient
 [ -7.2466849034e-01  1.5140073259e-03 -3.5242495791e+03 -8.4824562365e+01 
   -6.9524723181e+02 -1.4443490676e+03  2.6900336052e+02 ] stress_73 gradient
 [ -3.3819781085e-01  1.6442157308e-03 -3.4202936180e+03 -8.2555741756e+02 
   -4.6059728357e+02 -1.1242997703e+03  5.8904343473e+02 ] stress_74 gradient
 [  1.7286996766e-01  1.1475852508e-03 -3.1856558128e+03 -1.1373387595e+03 
   -2.1956958236e+02 -6.9769601802e+02  1.0156391979e+03 ] stress_75 gradient
 [  5.4263080905e-01  6.6422336856e-04 -2.8348712399e+03 -9.7550676923e+02 
   -8.5481123054e+01 -3.8708897363e+02  1.3262427828e+03 ] stress_76 gradient
 [  7.4652105866e-01  3.9317348849e-04 -2.4092723089e+03 -7.1224885182e+02 
   -2.9559116762e+01 -2.1491765889e+02  1.4984127944e+03 ] stress_77 gradient
 [  8.5192544682e-01  2.7160754239e-04 -1.9411615374e+03 -5.0204579707e+02 
   -8.2749881299e+00 -1.2552029115e+02  1.5878095607e+03 ] stress_78 gradient
 [  9.0758527110e-01  2.2953554460e-04 -1.4528187971e+03 -3.5840813661e+02 
   -3.7697879999e-01 -7.8138944078e+01  1.6351905845e+03 ] stress_79 gradient
 [  9.3839905486e-01  2.2733362222e-04 -9.6160043931e+02 -2.6368025610e+02 
    2.4442927729e+00 -5.1826682369e+01  1.6615029797e+03 ] stress_80 gradient
 [  9.5634118095e-01  2.4467046273e-04 -4.8258144202e+02 -2.0104086468e+02 
    3.3263827021e+00 -3.6465149811e+01  1.6768643001e+03 ] stress_81 gradient
 [  9.6727381978e-01  2.7083459920e-04 -2.9497344209e+01 -1.5903002231e+02 
    3.4737348805e+00 -2.7084332694e+01  1.6862450013e+03 ] stress_82 gradient
 [  9.7418518690e-01  2.9978626689e-04  3.8504744165e+02 -1.3044137853e+02 
    3.3611133059e+00 -2.1143303145e+01  1.6921860215e+03 ] stress_83 gradient
 [  9.7866800217e-01  3.2785330287e-04  7.4977133743e+02 -1.1081542682e+02 
    3.1786933368e+00 -1.7283979009e+01  1.6960457629e+03 ] stress_84 gradient
 [  9.8160371391e-01  3.5264167071e-04  1.0547301913e+03 -9.7395097031e+01 
    3.0023427872e+00 -1.4752843752e+01  1.6985762190e+03 ] stress_85 gradient
 [  9.8349573473e-01  3.7253871480e-04  1.2917253486e+03 -8.8465672048e+01 
    2.8600484620e+00 -1.3120568173e+01  1.7002087087e+03 ] stress_86 gradient
 [  9.8463335888e-01  3.8645949565e-04  1.4544153560e+03 -8.2977370065e+01 
    2.7622632664e+00 -1.2138728895e+01  1.7011909201e+03 ] stress_87 gradient
 [  9.8517516541e-01  3.9371149557e-04  1.5383149546e+03 -8.0329387165e+01 
    2.7126962816e+00 -1.1670229214e+01  1.7016591205e+03 ] stress_88 gradient
 [  9.8509299738e-01  3.9133711439e-05  1.5383003627e+03 -7.9457432177e+01 
    2.6432350740e+00 -1.1751147201e+01  1.7015915692e+03 ] stress_89 gradient
 [  8.5743000106e-01 -1.7680767933e-03  1.5127642255e+03  4.0860989105e+02 
   -3.6543508867e+01 -1.4113189637e+02  1.5939048619e+03 ] stress_90 gradient
 [  5.1995325074e-01 -1.9859621118e-03  1.4258931556e+03  1.0623955631e+03 
   -8.9000041441e+01 -4.8624958617e+02  1.3066536829e+03 ] stress_91 gradient
 [  5.3125197167e-01 -6.1808712744e-04  1.4265457673e+03  1.0304415121e+03 
   -4.2768211135e+01 -4.7762950121e+02  1.3199395479e+03 ] stress_92 gradient
 [  9.3951534672e-01  4.8751947567e-05  1.5114245350e+03 -2.1691493755e+01 
    1.0700529749e+03 -1.3188446508e+02  1.8528497953e+03 ] stress_93 gradient
 [  9.5411965065e-01  4.5648323173e-05  1.5188930896e+03 -5.5667547173e+01 
    1.0863665807e+03 -1.1804027364e+02  1.8741890174e+03 ] stress_94 gradient
 [  9.5406790049e-01 -2.4391727232e-04  1.5188845358e+03 -5.5134960502e+01 
    1.0862971195e+03 -1.1808923675e+02  1.8741416538e+03 ] stress_95 gradient
 [  9.5153957468e-01 -7.5902410854e-04  1.5184613696e+03 -3.7630115904e+01 
    1.0835345191e+03 -1.2051883798e+02  1.8717921110e+03 ] stress_96 gradient
 [  9.2469282127e-01 -1.4247103043e-03  1.5137758491e+03  8.7861397491e+01 
    1.0588221762e+03 -1.4661308498e+02  1.8465585954e+03 ] stress_97 gradient
 [  7.9749480805e-01 -1.9808905160e-03  1.4890898683e+03  4.6967016410e+02 
    9.5821145752e+02 -2.7126492512e+02  1.7260181961e+03 ] stress_98 gradient
 [  4.8243824066e-01 -2.0581770892e-03  1.4117399854e+03  1.0050104202e+03 
    7.4115009922e+02 -5.8190907840e+02  1.4256185065e+03 ] stress_99 gradient
 [  4.7209120339e-02 -1.6600147811e-03  1.2516528772e+03  1.2885626256e+03 
    4.7736441041e+02 -1.0130555768e+03  1.0086864611e+03 ] stress_100 gradient
 [ -3.3625646829e-01 -1.1613296710e-03  1.0062054675e+03  1.2060470249e+03 
    2.7133234581e+02 -1.3943715417e+03  6.3993984361e+02 ] stress_101 gradient
 [ -5.9526544741e-01 -7.9575095646e-04  6.9227961828e+02  9.6108107952e+02 
    1.4713941141e+02 -1.6527710222e+03  3.9005633442e+02 ] stress_102 gradient
 [ -7.5111828112e-01 -5.8122742382e-04  3.2772176866e+02  7.1634098114e+02 
    8.0063148675e+01 -1.8087046224e+03  2.3926126172e+02 ] stress_103 gradient
 [ -8.4220541962e-01 -4.7094158071e-04 -7.4682527613e+01  5.2400305602e+02 
    4.4715148157e+01 -1.9000718535e+03  1.5090532885e+02 ] stress_104 gradient
 [ -8.9601580391e-01 -4.2356428001e-04 -5.0597281635e+02  3.8481164633e+02 
    2.5823384986e+01 -1.9541693935e+03  9.8589954491e+01 ] stress_105 gradient
 [ -9.2867036076e-01 -4.1307004486e-04 -9.5935529407e+02  2.8657990431e+02 
    1.5425783668e+01 -1.9870653900e+03  6.6777951925e+01 ] stress_106 gradient
 [ -9.4912452560e-01 -4.2438399581e-04 -1.4290243835e+03  2.1733807715e+02 
    9.5091047733e+00 -2.0077082386e+03  4.6814990515e+01 ] stress_107 gradient
 [ -9.6235018615e-01 -4.4880759574e-04 -1.9096193097e+03  1.6808038578e+02 
    6.0299748469e+00 -2.0210777456e+03  3.3886293275e+01 ] stress_108 gradient
 [ -9.7116196883e-01 -4.8117268938e-04 -2.3959926420e+03  1.3256261333e+02 
    3.9191633202e+00 -2.0299983094e+03  2.5259526675e+01 ] stress_109 gradient
 [ -9.7719643042e-01 -5.1826479294e-04 -2.8831282772e+03  1.0656622487e+02 
    2.6024350450e+00 -2.0361161216e+03  1.9343741178e+01 ] stress_110 gradient
 [ -9.8143249040e-01 -5.5796855485e-04 -3.3660906190e+03  8.7253327284e+01 
    1.7597963843e+00 -2.0404150829e+03  1.5186230559e+01 ] stress_111 gradient
 [ -9.8447220487e-01 -5.9880207799e-04 -3.8399948916e+03  7.2703448993e+01 
    1.2078157971e+00 -2.0435038823e+03  1.2199220873e+01 ] stress_112 gradient
 [ -9.8669631012e-01 -6.3966983927e-04 -4.3001273970e+03  6.1600195653e+01 
    8.3892956403e-01 -2.0457659781e+03  1.0011568210e+01 ] stress_113 gradient
 [ -9.8835137301e-01 -6.7971622649e-04 -4.7419294135e+03  5.3031125338e+01 
    5.8805995535e-01 -2.0474508246e+03  8.3821843200e+00 ] stress_114 gradient
 [ -9.8960055726e-01 -7.1824140612e-04 -5.1610077625e+03  4.6355724891e+01 
    4.1440692674e-01 -2.0487233502e+03  7.1515083716e+00 ] stress_115 gradient
 [ -9.9055422971e-01 -7.5465815985e-04 -5.5532158187e+03  4.1118005499e+01 
    2.9301840394e-01 -2.0496953968e+03  6.2112253685e+00 ] stress_116 gradient
 [ -9.9128827802e-01 -7.8845940221e-04 -5.9146369056e+03  3.6990229554e+01 
    2.0636049069e-01 -2.0504447902e+03  5.4871841585e+00 ] stress_117 gradient
 [ -9.9185585496e-01 -8.1921383990e-04 -6.2417422908e+03  3.3733329100e+01 
    1.4465465554e-01 -2.0510241011e+03  4.9265860284e+00 ] stress_118 gradient
 [ -9.9229449613e-01 -8.4654563366e-04 -6.5313056473e+03  3.1172669382e+01 
    1.0048272432e-01 -2.0514714693e+03  4.4941024376e+00 ] stress_119 gradient
 [ -9.9263093494e-01 -8.7012688744e-04 -6.7804065755e+03  2.9180440277e+01 
    6.8449635788e-02 -2.0518152419e+03  4.1613928810e+00 ] stress_120 gradient
 [ -9.9288441021e-01 -8.8969291403e-04 -6.9866484759e+03  2.7662098743e+01 
    4.5520693656e-02 -2.0520744887e+03  3.9105989819e+00 ] stress_121 gradient
 [ -9.9306840378e-01 -9.0502126304e-04 -7.1479688541e+03  2.6549752544e+01 
    3.0009937219e-02 -2.0522626102e+03  3.7292975075e+00 ] stress_122 gradient
 [ -9.9319233619e-01 -9.1593996339e-04 -7.2627570624e+03  2.5795660056e+01 
    1.9557039892e-02 -2.0523893989e+03  3.6062299171e+00 ] stress_123 gradient
 [ -9.9326227845e-01 -9.2233298582e-04 -7.3299222279e+03  2.5368144425e+01 
    1.3824803400e-02 -2.0524610396e+03  3.5371257140e+00 ] stress_124 gradient
 [ -9.9328076364e-01 -9.2405108712e-04 -7.3479664129e+03  2.5254971354e+01 
    1.2476040971e-02 -2.0524795941e+03  3.5192673240e+00 ] stress_125 gradient
 [ -9.9301895643e-01 -4.3100512622e-04 -7.3479181086e+03  2.2597075654e+01 
    1.3251580135e-01 -2.0522193165e+03  3.9051638201e+00 ] stress_126 gradient
 [ -9.6457435420e-01  7.1666791465e-04 -7.3423867590e+03 -1.3315662686e+02 
    7.2566733046e+00 -2.0235253858e+03  4.6430258702e+01 ] stress_127 gradient
 [ -6.7889327634e-01  1.5617196581e-03 -7.2752974213e+03 -9.1831455769e+02 
    4.3343285888e+01 -1.7332033418e+03  4.7670495871e+02 ] stress_128 gradient
 [ -6.4320208448e-02  1.2162014187e-03 -7.0436818071e+03 -1.4966553566e+03 
    6.9744112704e+01 -1.1058618080e+03  1.4064917835e+03 ] stress_129 gradient
 [  4.1196922623e-01  6.3766598115e-04 -6.6771932935e+03 -1.3282061427e+03 
    6.1592536238e+01 -6.1820981523e+02  2.1292650473e+03 ] stress_130 gradient
 [  6.5212670428e-01  3.1997243310e-04 -6.2916351342e+03 -1.0240241694e+03 
    4.7342198095e+01 -3.7178155820e+02  2.4945153028e+03 ] stress_131 gradient
 [  7.6161393261e-01  1.8167374002e-04 -5.9760156142e+03 -8.1886710148e+02 
    3.7786561054e+01 -2.5926277754e+02  2.6612893633e+03 ] stress_132 gradient
 [  8.0688924681e-01  1.2917017947e-04 -5.7857715058e+03 -7.1773736273e+02 
    3.3088150860e+01 -2.1269061033e+02  2.7303186369e+03 ] stress_133 gradient
 [  8.0930306075e-01  1.2650379861e-04 -5.7740823598e+03 -7.1202866925e+02 
    3.2823119251e+01 -2.1020689199e+02  2.7340001826e+03 ] stress_134 gradient
 [  7.6551147917e-01 -1.7230507216e-03 -5.7821804307e+03 -4.9518888443e+02 
   -1.9970940853e+01 -2.7369334092e+02  2.6727849248e+03 ] stress_135 gradient
 [  7.5567642678e-01 -1.8061173174e-03 -5.7841144255e+03 -4.5565652826e+02 
   -2.9473986317e+01 -2.8817883577e+02  2.6588176108e+03 ] stress_136 gradient
 [  7.6445213131e-01 -9.3163259260e-04 -5.7785942866e+03 -5.6911582718e+02 
   -2.1357973316e+01 -2.7884286886e+02  2.6713467421e+03 ] stress_137 gradient
 [  7.6444231302e-01 -1.1054947195e-03 -5.7785957961e+03 -5.6902696020e+02 
   -2.1379890689e+01 -2.7885575389e+02  2.6713343189e+03 ] stress_138 gradient
 [  7.5592145329e-01 -1.9156145912e-03 -5.7798099457e+03 -5.2552526401e+02 
   -3.1888562506e+01 -2.9117600709e+02  2.6594392730e+03 ] stress_139 gradient
 [  5.2148695617e-01 -2.7629095476e-03 -5.8215363375e+03  9.4155921221e+01 
   -1.7213263378e+02 -6.4441075028e+02  2.3183912110e+03 ] stress_140 gradient
 [ -1.7561190940e-01 -2.1728529745e-03 -6.0449157103e+03  7.9297795466e+02 
   -2.8916195941e+02 -1.7227671428e+03  1.2772191755e+03 ] stress_141 gradient
 [ -6.4031471057e-01 -1.5099356302e-03 -6.4345817509e+03  6.7883682977e+02 
   -2.1377665232e+02 -2.4558140133e+03  5.6943647643e+02 ] stress_142 gradient
 [ -8.1945212018e-01 -1.2561314840e-03 -6.8400740024e+03  4.7131588396e+02 
   -1.4160915264e+02 -2.7424554176e+03  2.9267143297e+02 ] stress_143 gradient
 [ -8.8591579407e-01 -1.1760062760e-03 -7.1571074306e+03  3.5433123632e+02 
   -1.0435130604e+02 -2.8498078167e+03  1.8901707227e+02 ] stress_144 gradient
 [ -9.0854250242e-01 -1.1542670051e-03 -7.3241901134e+03  3.0687353072e+02 
   -8.9673410550e+01 -2.8865466446e+03  1.5354409995e+02 ] stress_145 gradient
 [ -9.0854197905e-01 -1.0561117561e-03 -7.3241901134e+03  3.0686429115e+02 
   -8.9673073359e+01 -2.8865461292e+03  1.5354487640e+02 ] stress_146 gradient
 [ -9.0040280184e-01  7.2751667554e-05 -7.3225648738e+03  2.4812365981e+02 
   -8.6668370242e+01 -2.8745455278e+03  1.6556745450e+02 ] stress_147 gradient
 [ -6.9306028100e-01  1.3079093714e-03 -7.2743478889e+03 -4.8882837906e+02 
   -4.4527198262e+01 -2.5657239877e+03  4.7496730639e+02 ] stress_148 gradient
 [ -1.0432358033e-01  1.1877576168e-03 -7.0625129503e+03 -1.3168109493e+03 
    1.6956627810e+01 -1.6840048499e+03  1.3583494488e+03 ] stress_149 gradient
 [  3.4159131886e-01  6.9800129777e-04 -6.7538039692e+03 -1.3178388393e+03 
    3.4465910587e+01 -1.0139255740e+03  2.0297021988e+03 ] stress_150 gradient
 [  5.2793562834e-01  4.6292609943e-04 -6.5262019924e+03 -1.1654842059e+03 
    3.4696548780e+01 -7.3334528774e+02  2.3108184776e+03 ] stress_151 gradient
 [  5.5112187476e-01  4.3328981517e-04 -6.4897130988e+03 -1.1392455574e+03 
    3.4388356809e+01 -6.9840572546e+02  2.3458244142e+03 ] stress_152 gradient
 [  5.4716474643e-01 -5.9874028351e-04 -6.4903043237e+03 -1.1149861725e+03 
    2.3985023255e+01 -7.0341594046e+02  2.3408174654e+03 ] stress_153 gradient
 [  3.6597596237e-01 -1.9484128169e-03 -6.5271373857e+03 -4.5916915168e+02 
   -2.3553487057e+02 -9.5304741591e+02  2.0913338289e+03 ] stress_154 gradient
 [ -2.0701317884e-01 -1.8911350836e-03 -6.7328927206e+03  5.8339080518e+02 
   -5.5491717700e+02 -1.7888879619e+03  1.2559773981e+03 ] stress_155 gradient
 [ -5.7566532759e-01 -1.5200949948e-03 -7.0264291087e+03  7.4139020966e+02 
   -5.0814887686e+02 -2.3499701935e+03  6.9521233426e+02 ] stress_156 gradient
 [ -6.9001150187e-01 -1.3927623112e-03 -7.1950947648e+03  6.9431506387e+02 
   -4.4630209911e+02 -2.5284026019e+03  5.1687962560e+02 ] stress_157 gradient
 [ -6.8949333042e-01 -8.0324906133e-04 -7.1949865833e+03  6.8868033334e+02 
   -4.4591972526e+02 -2.5276552702e+03  5.1762696035e+02 ] stress_158 gradient
 [ -5.5696644761e-01  8.5850587105e-04 -7.1633631942e+03  7.7521060658e+01 
   -3.8546119386e+02 -2.3330597773e+03  7.1223968708e+02 ] stress_159 gradient
 [ -2.7501175142e-01  1.1064652538e-03 -7.0765009297e+03 -6.2946827637e+02 
   -2.8404850163e+02 -1.9166841616e+03  1.1286555861e+03 ] stress_160 gradient
 [ -2.7667289580e-01  3.0809168478e-04 -7.0766482076e+03 -6.2337390183e+02 
   -2.9127192796e+02 -1.9185193507e+03  1.1268207919e+03 ] stress_161 gradient
 [ -5.2075305440e-01 -9.9439642765e-04 -7.1270087980e+03 -9.9236301025e+00 
   -8.8816711054e+02 -2.2312727833e+03  8.1413328826e+02 ] stress_162 gradient
 [ -8.6958003716e-01 -9.5186450721e-04 -7.3405199977e+03  4.2693482603e+02 
   -9.8858104498e+02 -2.7484639647e+03  2.9704518539e+02 ] stress_163 gradient
 [ -8.9922416694e-01 -9.4316475076e-04 -7.3854908307e+03  4.2643103756e+02 
   -9.3203253904e+02 -2.7985181824e+03  2.4700093226e+02 ] stress_164 gradient
 [ -8.9921451613e-01 -7.4224288191e-04 -7.3854888180e+03  4.2629923446e+02 
   -9.3202208614e+02 -2.7985042666e+03  2.4701452015e+02 ] stress_165 gradient
 [ -8.9862809811e-01 -3.4746556558e-04 -7.3853781205e+03  4.2071397507e+02 
   -9.3149640640e+02 -2.7976672550e+03  2.4785153509e+02 ] stress_166 gradient
 [ -8.9137066230e-01  2.1851188629e-04 -7.3839848424e+03  3.7120257869e+02 
   -9.2583936406e+02 -2.7872272885e+03  2.5829170464e+02 ] stress_167 gradient
 [ -8.4981118505e-01  8.6035779863e-04 -7.3756216512e+03  1.7087285877e+02 
   -8.9707230741e+02 -2.7271083163e+03  3.1840964211e+02 ] stress_168 gradient
 [ -7.1155023020e-01  1.3512085190e-03 -7.3444660594e+03 -2.7938015387e+02 
   -8.1089623507e+02 -2.5262595122e+03  5.1925684894e+02 ] stress_169 gradient
 [ -4.2829326399e-01  1.4488339936e-03 -7.2646590456e+03 -8.4519101513e+02 
   -6.5022766821e+02 -2.1134639248e+03  9.3205254193e+02 ] stress_170 gradient
 [ -5.6179335535e-02  1.1748763197e-03 -7.1147973614e+03 -1.2026543284e+03 
   -4.5650109532e+02 -1.5698362700e+03  1.4756860531e+03 ] stress_171 gradient
 [  2.8760334697e-01  7.8009568682e-04 -6.8920056913e+03 -1.2334066788e+03 
   -2.9104078398e+02 -1.0665815369e+03  1.9789513746e+03 ] stress_172 gradient
 [  5.4110246286e-01  4.5137404218e-04 -6.6073190600e+03 -1.0675420476e+03 
   -1.7752734203e+02 -6.9483399520e+02  2.3507090719e+03 ] stress_173 gradient
 [  7.0768891084e-01  2.3379604761e-04 -6.2742274594e+03 -8.5135308922e+02 
   -1.0773635986e+02 -4.5015140201e+02  2.5954000603e+03 ] stress_174 gradient
 [  8.1252168171e-01  1.0737911244e-04 -5.9032838773e+03 -6.5621385780e+02 
   -6.6451786225e+01 -2.9595006526e+02  2.7496072500e+03 ] stress_175 gradient
 [  8.7817671757e-01  4.2818360073e-05 -5.5020097012e+03 -5.0119900713e+02 
   -4.2051007282e+01 -1.9924894722e+02  2.8463123680e+03 ] stress_176 gradient
 [  9.1985882929e-01  1.7789544860e-05 -5.0759694899e+03 -3.8413889917e+02 
   -2.7384239070e+01 -1.3778271634e+02  2.9077805550e+03 ] stress_177 gradient
 [  9.4689652653e-01  1.7784082364e-05 -4.6296037200e+03 -2.9728577508e+02 
   -1.8351247056e+01 -9.7868501745e+01  2.9476967722e+03 ] stress_178 gradient
 [  9.6485992210e-01  3.3789390699e-05 -4.1668396347e+03 -2.3298864772e+02 
   -1.2639917078e+01 -7.1323278697e+01  2.9742428793e+03 ] stress_179 gradient
 [  9.7708480751e-01  6.0204460585e-05 -3.6913191795e+03 -1.8513361759e+02 
   -8.9325092928e+00 -5.3241458644e+01  2.9923252747e+03 ] stress_180 gradient
 [  9.8559793821e-01  9.3473304680e-05 -3.2065303300e+03 -1.4919267071e+02 
   -6.4656247665e+00 -4.0639384072e+01  3.0049282504e+03 ] stress_181 gradient
 [  9.9165431825e-01  1.3125568240e-04 -2.7159414381e+03 -1.2191353804e+02 
   -4.7850681136e+00 -3.1666764703e+01  3.0139009263e+03 ] stress_182 gradient
 [  9.9604876887e-01  1.7194761959e-04 -2.2229544372e+03 -1.0097757610e+02 
   -3.6156920131e+00 -2.5152093620e+01  3.0204161325e+03 ] stress_183 gradient
 [  9.9929527462e-01  2.1439355449e-04 -1.7309717639e+03 -8.4733282189e+01 
   -2.7855293953e+00 -2.0335669474e+01  3.0252324624e+03 ] stress_184 gradient
 [  1.0017332889e+00  2.5772251162e-04 -1.2433374872e+03 -7.1996192745e+01 
   -2.1856677840e+00 -1.6717037698e+01  3.0288515037e+03 ] stress_185 gradient
 [  1.0035914586e+00  3.0124499718e-04 -7.6336548560e+02 -6.1910754169e+01 
   -1.7446228185e+00 -1.3957064311e+01  3.0316117895e+03 ] stress_186 gradient
 [  1.0050266042e+00  3.4439291159e-04 -2.9430573526e+02 -5.3852959164e+01 
   -1.4158622370e+00 -1.1824334170e+01  3.0337443141e+03 ] stress_187 gradient
 [  1.0061482344e+00  3.8668389694e-04  1.6068940282e+02 -4.7362907189e+01 
   -1.1670157681e+00 -1.0157011312e+01  3.0354121324e+03 ] stress_188 gradient
 [  1.0070338906e+00  4.2769402452e-04  5.9853650189e+02 -4.2098954860e+01 
   -9.7684041510e-01 -8.8396458605e+00  3.0367289945e+03 ] stress_189 gradient
 [  1.0077394261e+00  4.6704813792e-04  1.0162980546e+03 -3.7804286359e+01 
   -8.2948823470e-01 -7.7897736295e+00  3.0377791454e+03 ] stress_190 gradient
 [  1.0083055585e+00  5.0440917187e-04  1.4111739189e+03 -3.4284464547e+01 
   -7.1450632960e-01 -6.9470926842e+00  3.0386215955e+03 ] stress_191 gradient
 [  1.0087622034e+00  5.3946722726e-04  1.7804660966e+03 -3.1391447438e+01 
   -6.2447651027e-01 -6.2672785045e+00  3.0393013789e+03 ] stress_192 gradient
 [  1.0091318653e+00  5.7195078878e-04  2.1217472947e+03 -2.9010761922e+01 
   -5.5265496841e-01 -5.7168300390e+00  3.0398522714e+03 ] stress_193 gradient
 [  1.0094312290e+00  6.0160916689e-04  2.4327119875e+03 -2.7054446405e+01 
   -4.9600698855e-01 -5.2704926033e+00  3.0402983429e+03 ] stress_194 gradient
 [  1.0096730228e+00  6.2821547291e-04  2.7112292496e+03 -2.5454434540e+01 
   -4.5116067611e-01 -4.9102271648e+00  3.0406586165e+03 ] stress_195 gradient
 [  1.0098669394e+00  6.5157783667e-04  2.9554821333e+03 -2.4157447926e+01 
   -4.1541849856e-01 -4.6210870947e+00  3.0409478448e+03 ] stress_196 gradient
 [  1.0100202429e+00  6.7152043407e-04  3.1637774711e+03 -2.3122802295e+01 
   -3.8810608237e-01 -4.3927643725e+00  3.0411761216e+03 ] stress_197 gradient
 [  1.0101384602e+00  6.8790275218e-04  3.3347582132e+03 -2.2318960085e+01 
   -3.6720028005e-01 -4.2170125611e+00  3.0413523761e+03 ] stress_198 gradient
 [  1.0102257153e+00  7.0060710345e-04  3.4672791442e+03 -2.1722392905e+01 
   -3.5168952361e-01 -4.0866160554e+00  3.0414824318e+03 ] stress_199 gradient
 [  1.0102848554e+00  7.0953862580e-04  3.5604073867e+03 -2.1316327925e+01 
   -3.4157381306e-01 -3.9984824576e+00  3.0415705590e+03 ] stress_200 gradient
 [  1.0103178273e+00  7.1463674404e-04  3.6135527220e+03 -2.1089320155e+01 
   -3.3550438979e-01 -3.9490039390e+00  3.0416198637e+03 ] stress_201 gradient
 [  1.0103194183e+00  7.1488650691e-04  3.6161561244e+03 -2.1078281428e+01 
   -3.3516719919e-01 -3.9469423385e+00  3.0416221931e+03 ] stress_202 gradient
 [  9.8171904222e-01 -9.6735239037e-04  3.6104516843e+03  1.4131371237e+02 
   -6.3452478156e+00 -5.3652748794e+01  2.9990408054e+03 ] stress_203 gradient
 [  6.4125941676e-01 -1.8701750622e-03  3.5262213520e+03  1.0472981071e+03 
   -4.0032788222e+01 -6.4923449312e+02  2.4888225143e+03 ] stress_204 gradient
 [  6.4128088512e-01 -1.3461377425e-03  3.5262219558e+03  1.0472309044e+03 
   -3.9937430794e+01 -6.4920733148e+02  2.4888670826e+03 ] stress_205 gradient
 [  8.3690289195e-01  2.7767930177e-04  3.5479534221e+03  4.6912109247e+02 
    6.4036356945e+02 -3.8330386727e+02  2.9252914819e+03 ] stress_206 gradient
 [  8.6955518788e-01  2.8964533818e-04  3.5539144790e+03  3.7425680068e+02 
    7.3530153278e+02 -3.3697600023e+02  3.0013336673e+03 ] stress_207 gradient
 [  8.6948639702e-01 -2.2135643230e-05  3.5539018997e+03  3.7499143901e+02 
    7.3524758232e+02 -3.3709145010e+02  3.0012261287e+03 ] stress_208 gradient
 [  8.6613021527e-01 -5.7868282736e-04  3.5532985987e+03  3.9823437887e+02 
    7.3306461206e+02 -3.4275467840e+02  2.9959431514e+03 ] stress_209 gradient
 [  8.3110308550e-01 -1.2816985989e-03  3.5467307186e+03  5.5481906192e+02 
    7.1336359208e+02 -4.0219229019e+02  2.9404998414e+03 ] stress_210 gradient
 [  6.7368278733e-01 -1.8101698315e-03  3.5132927973e+03  9.7619560902e+02 
    6.3506394888e+02 -6.7035712868e+02  2.6903526104e+03 ] stress_211 gradient
 [  3.2000191641e-01 -1.7950051038e-03  3.4142495380e+03  1.4362209016e+03 
    4.7701777874e+02 -1.2744794316e+03  2.1268153422e+03 ] stress_212 gradient
 [ -1.1431144389e-01 -1.3599099824e-03  3.2218317345e+03  1.5247277687e+03 
    3.0059237474e+02 -2.0177735085e+03  1.4334486336e+03 ] stress_213 gradient
 [ -4.6076160402e-01 -9.0571158597e-04  2.9413883371e+03  1.2830911661e+03 
    1.7143464978e+02 -2.6116295866e+03  8.7947635745e+02 ] stress_214 gradient
 [ -6.8052033093e-01 -6.0329098161e-04  2.5939468268e+03  9.6407241211e+02 
    9.5616390289e+01 -2.9888496582e+03  5.2758844743e+02 ] stress_215 gradient
 [ -8.0853528692e-01 -4.3782710090e-04  2.1979408423e+03  6.9624503037e+02 
    5.4451182031e+01 -3.2088692735e+03  3.2234314642e+02 ] stress_216 gradient
 [ -8.8230573930e-01 -3.5993337127e-04  1.7661619753e+03  5.0119413198e+02 
    3.2209432833e+01 -3.3358053717e+03  2.0393115651e+02 ] stress_217 gradient
 [ -9.2571804794e-01 -3.3319757483e-04  1.3077447770e+03  3.6549632278e+02 
    1.9878044915e+01 -3.4105818384e+03  1.3417590054e+02 ] stress_218 gradient
 [ -9.5209932210e-01 -3.3601646663e-04  8.3003251259e+02  2.7182255366e+02 
    1.2788618021e+01 -3.4560654783e+03  9.1746309215e+01 ] stress_219 gradient
 [ -9.6869200848e-01 -3.5611898836e-04  3.3958450831e+02  2.0663790567e+02 
    8.5555304909e+00 -3.4846960146e+03  6.5037923668e+01 ] stress_220 gradient
 [ -9.7948015720e-01 -3.8642325784e-04 -1.5743590457e+02  1.6061569892e+02 
    5.9335384137e+00 -3.5033251907e+03  4.7659769968e+01 ] stress_221 gradient
 [ -9.8671163420e-01 -4.2266223659e-04 -6.5503647266e+02  1.2757927218e+02 
    4.2546677061e+00 -3.5158205772e+03  3.6003288835e+01 ] stress_222 gradient
 [ -9.9169401012e-01 -4.6211511386e-04 -1.1473713650e+03  1.0346578184e+02 
    3.1463230615e+00 -3.5244355081e+03  2.7967013748e+01 ] stress_223 gradient
 [ -9.9521119932e-01 -5.0293132284e-04 -1.6287094736e+03  8.5587547355e+01 
    2.3943886013e+00 -3.5305203346e+03  2.2290763605e+01 ] stress_224 gradient
 [ -9.9774735465e-01 -5.4377299095e-04 -2.0935164298e+03  7.2143712393e+01 
    1.8717435740e+00 -3.5349100066e+03  1.8195757340e+01 ] stress_225 gradient
 [ -9.9960941816e-01 -5.8361394930e-04 -2.5364546045e+03  6.1911485441e+01 
    1.5008342011e+00 -3.5381343564e+03  1.5188171685e+01 ] stress_226 gradient
 [ -1.0009968750e+00 -6.2163058031e-04 -2.9524409728e+03  5.4048115969e+01 
    1.2331050697e+00 -3.5405371568e+03  1.2946167404e+01 ] stress_227 gradient
 [ -1.0020424919e+00 -6.5714650992e-04 -3.3367698875e+03  4.7963664675e+01 
    1.0368602934e+00 -3.5423493074e+03  1.1255832056e+01 ] stress_228 gradient
 [ -1.0028358268e+00 -6.8958105530e-04 -3.6849857767e+03  4.3242385929e+01 
    8.9186845105e-01 -3.5437243978e+03  9.9731338511e+00 ] stress_229 gradient
 [ -1.0034387831e+00 -7.1845127327e-04 -3.9931664291e+03  3.9585758186e+01 
    7.8396754104e-01 -3.5447696314e+03  8.9979105159e+00 ] stress_230 gradient
 [ -1.0038943184e+00 -7.4334620856e-04 -4.2578082708e+03  3.6779820501e+01 
    7.0405342844e-01 -3.5455597414e+03  8.2610578515e+00 ] stress_231 gradient
 [ -1.0042322854e+00 -7.6391679792e-04 -4.4758218371e+03  3.4671690564e+01 
    6.4571949937e-01 -3.5461457526e+03  7.7144358543e+00 ] stress_232 gradient
 [ -1.0044736396e+00 -7.7989547658e-04 -4.6448054969e+03  3.3151457008e+01 
    6.0424508917e-01 -3.5465647738e+03  7.3234924226e+00 ] stress_233 gradient
 [ -1.0046324489e+00 -7.9107067038e-04 -4.7628185227e+03  3.2144181850e+01 
    5.7760705419e-01 -3.5468405134e+03  7.0664869138e+00 ] stress_234 gradient
 [ -1.0047175059e+00 -7.9729255086e-04 -4.8284661269e+03  3.1602193109e+01 
    5.6344505635e-01 -3.5469879181e+03  6.9290549599e+00 ] stress_235 gradient
 [ -1.0047174850e+00 -7.6605360929e-04 -4.8284661269e+03  3.1602053819e+01 
    5.6344505635e-01 -3.5469879181e+03  6.9290549643e+00 ] stress_236 gradient
 [ -9.7469971574e-01  9.2561111745e-04 -4.8224562625e+03 -1.3778631087e+02 
    8.6819768709e+00 -3.4951674206e+03  5.8754876520e+01 ] stress_237 gradient
 [ -7.2259758188e-01  1.7897959944e-03 -4.7625664847e+03 -8.7927274666e+02 
    4.4349498953e+01 -3.0565647677e+03  4.9740625580e+02 ] stress_238 gradient
 [ -7.2734316735e-01  7.3922558446e-04 -4.7657530110e+03 -7.7791869308e+02 
    2.9640379634e+01 -3.0632942065e+03  4.9068253349e+02 ] stress_239 gradient
 [ -8.0388342533e-01 -3.0992163557e-04 -4.8430711439e+03  8.2274861282e+01 
   -8.3965115287e+01 -3.1852881227e+03  3.6879863980e+02 ] stress_240 gradient
 [ -7.6746594978e-01  1.2050759726e-03 -4.8363256448e+03 -9.6910623425e+01 
   -7.3775223216e+01 -3.1224571094e+03  4.3163377000e+02 ] stress_241 gradient
 [ -6.1645752926e-01  1.7212485857e-03 -4.8045280582e+03 -5.3737383921e+02 
   -4.5898382779e+01 -2.8604318330e+03  6.9367713396e+02 ] stress_242 gradient
 [ -6.4050138376e-01  1.6890637495e-04 -4.8187715475e+03 -2.2764152769e+02 
   -8.8634527113e+01 -2.8979947359e+03  6.5613119089e+02 ] stress_243 gradient
 [ -6.9581153861e-01 -3.1123087880e-04 -4.8609845048e+03  2.1049195368e+02 
   -1.4218406218e+02 -2.9892691947e+03  5.6489772802e+02 ] stress_244 gradient
 [ -7.9182649764e-01 -6.2488349667e-04 -4.9721156723e+03  6.1647961654e+02 
   -1.7656803551e+02 -3.1540671800e+03  4.0017311183e+02 ] stress_245 gradient
 [ -7.8866370907e-01  2.5900756381e-04 -4.9715153903e+03  5.9120863845e+02 
   -1.7512789557e+02 -3.1486709295e+03  4.0556945114e+02 ] stress_246 gradient
 [ -6.2923462776e-01  1.5218367165e-03 -4.9369455877e+03 -2.9144561511e+01 
   -1.3280002130e+02 -2.8734416415e+03  6.8080504004e+02 ] stress_247 gradient
 [ -2.4476106461e-02  1.4100955426e-03 -4.7311293693e+03 -9.9773622392e+02 
   -3.7509053405e+01 -1.8230905005e+03  1.7311992254e+03 ] stress_248 gradient
 [  4.5856421124e-01  8.4331027532e-04 -4.3824067877e+03 -1.0377159985e+03 
    3.6426672406e+00 -9.8100483823e+02  2.5733352442e+03 ] stress_249 gradient
 [  6.6050108092e-01  5.7767816705e-04 -4.0815970750e+03 -8.6353019830e+02 
    1.1754455247e+01 -6.2813025739e+02  2.9262348707e+03 ] stress_250 gradient
 [  7.1710815074e-01  5.0431138343e-04 -3.9534084390e+03 -7.8877507823e+02 
    1.2799070919e+01 -5.2909385654e+02  3.0252794377e+03 ] stress_251 gradient
 [  7.1686413788e-01 -2.4405163995e-06 -3.9534567434e+03 -7.8608018944e+02 
    1.2489192998e+01 -5.2948865385e+02  3.0248842238e+03 ] stress_252 gradient
 [  6.6638293817e-01 -1.4413915184e-03 -3.9645138573e+03 -5.0130288956e+02 
   -1.9467751709e+01 -6.1464282665e+02  2.9397340659e+03 ] stress_253 gradient
 [  2.5015170571e-01 -2.1189175572e-03 -4.0891134308e+03  6.3944765611e+02 
   -1.3818431036e+02 -1.3321636485e+03  2.2222381502e+03 ] stress_254 gradient
 [ -2.7691446979e-01 -1.7348790202e-03 -4.3786923856e+03  1.1053983124e+03 
   -1.6955919711e+02 -2.2530541532e+03  1.3013633293e+03 ] stress_255 gradient
 [ -5.2649424418e-01 -1.4554383561e-03 -4.6430544647e+03  1.0364504102e+03 
   -1.4904723435e+02 -2.6927650732e+03  8.6165523805e+02 ] stress_256 gradient
 [ -5.7851924813e-01 -1.3944164720e-03 -4.7220003531e+03  9.9566733892e+02 
   -1.4155115591e+02 -2.7847580013e+03  7.6966201720e+02 ] stress_257 gradient
 [ -5.6817147815e-01 -8.0827626467e-05 -4.7196113012e+03  9.1053082398e+02 
   -1.3682813082e+02 -2.7671044797e+03  7.8731503480e+02 ] stress_258 gradient
 [ -2.9842751145e-01  1.1573805790e-03 -4.6420970828e+03 -1.4795448650e+02 
   -6.9403246989e+01 -2.3010227483e+03  1.2533849035e+03 ] stress_259 gradient
 [ -5.1850033165e-02  1.1727756485e-03 -4.5441724715e+03 -6.6501844418e+02 
   -2.9690958185e+01 -1.8727792987e+03  1.6816223962e+03 ] stress_260 gradient
 [ -5.6779530142e-02  1.5001657464e-04 -4.5455743136e+03 -6.1410785463e+02 
   -3.6485754905e+01 -1.8806919440e+03  1.6737099884e+03 ] stress_261 gradient
 [ -2.7255751291e-01 -1.1374834862e-03 -4.6299871357e+03  3.6033789418e+02 
   -1.5179331248e+02 -2.2467554352e+03  1.3076553056e+03 ] stress_262 gradient
 [ -5.9568949722e-01 -1.1677312774e-03 -4.8668162469e+03  8.4913515238e+02 
   -1.8107154969e+02 -2.8102595370e+03  7.4415829647e+02 ] stress_263 gradient
 [ -6.5541369740e-01 -1.1363994734e-03 -4.9401110312e+03  8.5301769679e+02 
   -1.7361593408e+02 -2.9157807156e+03  6.3863734588e+02 ] stress_264 gradient
 [ -6.5540452808e-01 -9.3411705283e-04 -4.9401095217e+03  8.5287596928e+02 
   -1.7360885309e+02 -2.9157657690e+03  6.3865248669e+02 ] stress_265 gradient
 [ -6.5462547054e-01 -4.8225523903e-04 -4.9399444819e+03  8.4469976623e+02 
   -1.7316409903e+02 -2.9144458265e+03  6.3997167813e+02 ] stress_266 gradient
 [ -6.4345112163e-01  1.8167461792e-04 -4.9375181954e+03  7.6296198372e+02 
   -1.6842084252e+02 -2.8953440275e+03  6.5907316638e+02 ] stress_267 gradient
 [ -5.7706718318e-01  8.9358331830e-04 -4.9220230200e+03  4.3193987784e+02 
   -1.4744230949e+02 -2.7810954058e+03  7.7331805649e+02 ] stress_268 gradient
 [ -3.7268477118e-01  1.3147554006e-03 -4.8650960088e+03 -2.2088240471e+02 
   -1.0008922015e+02 -2.4275817275e+03  1.1268231213e+03 ] stress_269 gradient
 [ -2.6581157043e-02  1.2510048340e-03 -4.7304787702e+03 -8.3379127504e+02 
   -4.3308390059e+01 -1.8266735696e+03  1.7277238276e+03 ] stress_270 gradient
 [  3.2886578420e-01  9.2734984943e-04 -4.5037684109e+03 -1.0502612857e+03 
   -4.7533722214e+00 -1.2076988990e+03  2.3466983106e+03 ] stress_271 gradient
 [  5.9142241227e-01  6.2477107655e-04 -4.1975279827e+03 -9.5573457469e+02 
    1.1543036905e+01 -7.4933457895e+02  2.8050664773e+03 ] stress_272 gradient
 [  7.5604970240e-01  4.3082076698e-04 -3.8318309558e+03 -7.6136742737e+02 
    1.5314848045e+01 -4.6130210682e+02  3.0931036583e+03 ] stress_273 gradient
 [  8.5366799511e-01  3.2851519155e-04 -3.4226298370e+03 -5.7732585448e+02 
    1.4284057176e+01 -2.9017757190e+02  3.2642308952e+03 ] stress_274 gradient
 [  9.1146008485e-01  2.8546511435e-04 -2.9811111053e+03 -4.3292804242e+02 
    1.1997906672e+01 -1.8869456159e+02  3.3657166263e+03 ] stress_275 gradient
 [  9.4641779573e-01  2.7806640740e-04 -2.5156605945e+03 -3.2671294426e+02 
    9.7252437801e+00 -1.2721441487e+02  3.4271976247e+03 ] stress_276 gradient
 [  9.6820465266e-01  2.9189681320e-04 -2.0331888436e+03 -2.5007214027e+02 
    7.8180952230e+00 -8.8846403858e+01  3.4655671501e+03 ] stress_277 gradient
 [  9.8221667690e-01  3.1844683600e-04 -1.5399517671e+03 -1.9477885354e+02 
    6.3101800192e+00 -6.4139616873e+01  3.4902746196e+03 ] stress_278 gradient
 [  9.9150505506e-01  3.5260231148e-04 -1.0418757032e+03 -1.5455512424e+02 
    5.1435014417e+00 -4.7743674121e+01  3.5066705619e+03 ] stress_279 gradient
 [  9.9783653574e-01  3.9115402323e-04 -5.4470182346e+02 -1.2494740048e+02 
    4.2462379486e+00 -3.6556375822e+01  3.5178584545e+03 ] stress_280 gradient
 [  1.0022625347e+00  4.3197081747e-04 -5.4035443331e+01 -1.0287299870e+02 
    3.5546605611e+00 -2.8728977904e+01  3.5256858640e+03 ] stress_281 gradient
 [  1.0054265584e+00  4.7354841060e-04  4.2466454409e+02 -8.6207410776e+01 
    3.0192023022e+00 -2.3128628540e+01  3.5312860219e+03 ] stress_282 gradient
 [  1.0077329363e+00  5.1475869964e-04  8.8609724117e+02 -7.3480094843e+01 
    2.6017606638e+00 -1.9044074079e+01  3.5353713225e+03 ] stress_283 gradient
 [  1.0094424499e+00  5.5471505323e-04  1.3252078005e+03 -6.3663056362e+01 
    2.2746860354e+00 -1.6014030470e+01  3.5384014253e+03 ] stress_284 gradient
 [  1.0107267623e+00  5.9268642355e-04  1.7371511966e+03 -5.6031720705e+01 
    2.0170726145e+00 -1.3736472595e+01  3.5406787581e+03 ] stress_285 gradient
 [  1.0117015159e+00  6.2806159635e-04  2.1174411645e+03 -5.0068358794e+01 
    1.8137468393e+00 -1.2006786191e+01  3.5424083043e+03 ] stress_286 gradient
 [  1.0124458640e+00  6.6031739130e-04  2.4619235311e+03 -4.5400486130e+01 
    1.6529070461e+00 -1.0685812940e+01  3.5437294369e+03 ] stress_287 gradient
 [  1.0130146551e+00  6.8900125037e-04  2.7667938270e+03 -4.1758483831e+01 
    1.5267978587e+00 -9.6756265967e+00  3.5447396005e+03 ] stress_288 gradient
 [  1.0134465344e+00  7.1373513957e-04  3.0287593066e+03 -3.8945198602e+01 
    1.4286754724e+00 -8.9087096225e+00  3.5455067348e+03 ] stress_289 gradient
 [  1.0137685912e+00  7.3420003938e-04  3.2449554223e+03 -3.6817881476e+01 
    1.3541564057e+00 -8.3366143014e+00  3.5460785915e+03 ] stress_290 gradient
 [  1.0139997921e+00  7.5013574967e-04  3.4129951348e+03 -3.5274282034e+01 
    1.3002059507e+00 -7.9253241453e+00  3.5464897226e+03 ] stress_291 gradient
 [  1.0141530538e+00  7.6134849813e-04  3.5310846425e+03 -3.4242828464e+01 
    1.2634522052e+00 -7.6531923163e+00  3.5467618690e+03 ] stress_292 gradient
 [  1.0142366245e+00  7.6769806445e-04  3.5979051364e+03 -3.3677647949e+01 
    1.2435579747e+00 -7.5047567722e+00  3.5469105595e+03 ] stress_293 gradient
 [  1.0142378596e+00  7.6779190232e-04  3.5988923563e+03 -3.3669395020e+01 
    1.2435579747e+00 -7.5021797642e+00  3.5469128888e+03 ] stress_294 gradient
 [  9.8324274095e-01 -9.6659334729e-04  3.5926384544e+03  1.4166577929e+02 
   -5.2736569145e+00 -6.1213168895e+01  3.4932041719e+03 ] stress_295 gradient
 [  6.5260794303e-01 -1.8546300081e-03  3.5102930478e+03  1.0353245703e+03 
   -3.8739292359e+01 -6.3785268242e+02  2.9165803150e+03 ] stress_296 gradient
 [  6.5272127838e-01 -1.2264324152e-03  3.5102975763e+03  1.0349440011e+03 
   -3.8171463827e+01 -6.3771486414e+02  2.9167181740e+03 ] stress_297 gradient
 [  8.6220124389e-01  2.8702173062e-04  3.5414177449e+03  3.7500232684e+02 
    7.5088309838e+02 -3.5597265740e+02  3.1984522366e+03 ] stress_298 gradient
 [  8.8634174893e-01  2.9912432943e-04  3.5475981839e+03  3.0110271393e+02 
    8.2228989665e+02 -3.2141191500e+02  3.2330124900e+03 ] stress_299 gradient
 [  8.8632696915e-01  8.9760319349e-05  3.5475951649e+03  3.0128275777e+02 
    8.2227674623e+02 -3.2143665426e+02  3.2329876435e+03 ] stress_300 gradient
 [  8.8561419032e-01 -2.8580261857e-04  3.5474683661e+03  3.0730436609e+02 
    8.2174600863e+02 -3.2263032342e+02  3.2317942372e+03 ] stress_301 gradient
 [  8.7781993040e-01 -8.0524448185e-04  3.5460509357e+03  3.5391296025e+02 
    8.1662307580e+02 -3.3575913801e+02  3.2186659919e+03 ] stress_302 gradient
 [  8.3642367966e-01 -1.3788036343e-03  3.5381743101e+03  5.2567570758e+02 
    7.9213462737e+02 -4.0577432848e+02  3.1486529540e+03 ] stress_303 gradient
 [  7.0426736103e-01 -1.8043074418e-03  3.5101235297e+03  8.8444282221e+02 
    7.2082541198e+02 -6.2998858793e+02  2.9244456543e+03 ] stress_304 gradient
 [  4.3687819593e-01 -1.8683499886e-03  3.4398770006e+03  1.3002880639e+03 
    5.8790181042e+02 -1.0846793344e+03  2.4697639638e+03 ] stress_305 gradient
 [  8.1200786464e-02 -1.5861598357e-03  3.3086255679e+03  1.5123582770e+03 
    4.2369180087e+02 -1.6905494143e+03  1.8638975383e+03 ] stress_306 gradient
 [ -2.5619376653e-01 -1.1821880656e-03  3.1125346222e+03  1.4405072360e+03 
    2.7804209638e+02 -2.2660829799e+03  1.2883612573e+03 ] stress_307 gradient
 [ -5.1207318018e-01 -8.3664963937e-04  2.8600317605e+03  1.2084877212e+03 
    1.7414329978e+02 -2.7031065981e+03  8.5133114804e+02 ] stress_308 gradient
 [ -6.8427091919e-01 -6.0021891289e-04  2.5622611956e+03  9.4857024336e+02 
    1.0803645927e+02 -2.9975429301e+03  5.5688824052e+02 ] stress_309 gradient
 [ -7.9455056130e-01 -4.5721110932e-04  2.2282850218e+03  7.2366976746e+02 
    6.7834603810e+01 -3.1863075862e+03  3.6811924457e+02 ] stress_310 gradient
 [ -8.6446824399e-01 -3.7935176415e-04  1.8645126208e+03  5.4812181616e+02 
    4.3544423298e+01 -3.3061022855e+03  2.4832090014e+02 ] stress_311 gradient
 [ -9.0922681028e-01 -3.4392689240e-04  1.4754976825e+03  4.1677852370e+02 
    2.8681073116e+01 -3.3828599544e+03  1.7156088517e+02 ] stress_312 gradient
 [ -9.3841029670e-01 -3.3576919114e-04  1.0648091927e+03  3.1992932714e+02 
    1.9394176779e+01 -3.4329492194e+03  1.2147004494e+02 ] stress_313 gradient
 [ -9.5785780380e-01 -3.4530924529e-04  6.3542038402e+02  2.4856956171e+02 
    1.3450859849e+01 -3.4663539169e+03  8.8064375259e+01 ] stress_314 gradient
 [ -9.7111055363e-01 -3.6656815792e-04  1.9003428647e+02  1.9567282794e+02 
    9.5536138990e+00 -3.4891346496e+03  6.5282894184e+01 ] stress_315 gradient
 [ -9.8033956147e-01 -3.9575681014e-04 -2.6876028947e+02  1.5609557805e+02 
    6.9380284317e+00 -3.5050084910e+03  4.9408339195e+01 ] stress_316 gradient
 [ -9.8689950065e-01 -4.3041068960e-04 -7.3845000886e+02  1.2616178817e+02 
    5.1431642549e+00 -3.5162993849e+03  3.8117566812e+01 ] stress_317 gradient
 [ -9.9165172237e-01 -4.6886827085e-04 -1.2165210336e+03  1.0326530880e+02 
    3.8861186675e+00 -3.5244834404e+03  2.9933377677e+01 ] stress_318 gradient
 [ -9.9515534600e-01 -5.0996345730e-04 -1.7004645572e+03  8.5554524033e+01 
    2.9891923611e+00 -3.5305198192e+03  2.3896465717e+01 ] stress_319 gradient
 [ -9.9778053588e-01 -5.5284229500e-04 -2.1877833463e+03  7.1705390185e+01 
    2.3374034385e+00 -3.5350455571e+03  1.9370528765e+01 ] stress_320 gradient
 [ -9.9977683158e-01 -5.9684723601e-04 -2.6759580278e+03  6.0764038179e+01 
    1.8565700120e+00 -3.5384879217e+03  1.5927741928e+01 ] stress_321 gradient
 [ -1.0013156241e+00 -6.4145305158e-04 -3.1624984126e+03  5.2035608571e+01 
    1.4964507308e+00 -3.5411432686e+03  1.3272665347e+01 ] stress_322 gradient
 [ -1.0025165543e+00 -6.8621888902e-04 -3.6449042482e+03  4.5009650183e+01 
    1.2229893629e+00 -3.5432156968e+03  1.1199927533e+01 ] stress_323 gradient
 [ -1.0034644278e+00 -7.3076573889e-04 -4.1207170453e+03  3.9306772056e+01 
    1.0125825888e+00 -3.5448526110e+03  9.5631673510e+00 ] stress_324 gradient
 [ -1.0042203318e+00 -7.7475951105e-04 -4.5875356757e+03  3.4642219135e+01 
    8.4904527459e-01 -3.5461581222e+03  8.2575638205e+00 ] stress_325 gradient
 [ -1.0048287101e+00 -8.1789337903e-04 -5.0429549863e+03  3.0800834903e+01 
    7.1990137548e-01 -3.5472100561e+03  7.2058599896e+00 ] stress_326 gradient
 [ -1.0053224301e+00 -8.5989153558e-04 -5.4846941065e+03  2.7617711684e+01 
    6.1806989640e-01 -3.5480630450e+03  6.3525395794e+00 ] stress_327 gradient
 [ -1.0057259850e+00 -9.0049070788e-04 -5.9104555615e+03  2.4966292966e+01 
    5.3646983076e-01 -3.5487608982e+03  5.6548977217e+00 ] stress_328 gradient
 [ -1.0060579229e+00 -9.3945459423e-04 -6.3181194955e+03  2.2747729325e+01 
    4.7038052539e-01 -3.5493350552e+03  5.0807116937e+00 ] stress_329 gradient
 [ -1.0063323327e+00 -9.7655908595e-04 -6.7056153631e+03  2.0884912176e+01 
    4.1744163837e-01 -3.5498092243e+03  4.6062997044e+00 ] stress_330 gradient
 [ -1.0065600794e+00 -1.0115928527e-03 -7.0709485980e+03  1.9317203968e+01 
    3.7394408453e-01 -3.5502029908e+03  4.2122504679e+00 ] stress_331 gradient
 [ -1.0067495997e+00 -1.0443649999e-03 -7.4122947050e+03  1.7996340738e+01 
    3.3786472021e-01 -3.5505313013e+03  3.8841996208e+00 ] stress_332 gradient
 [ -1.0069073832e+00 -1.0746940457e-03 -7.7278920855e+03  1.6884157044e+01 
    3.0886635098e-01 -3.5508044640e+03  3.6112768527e+00 ] stress_333 gradient
 [ -1.0070386218e+00 -1.1024176272e-03 -8.0161557535e+03  1.5950020709e+01 
    2.8458864642e-01 -3.5510317559e+03  3.3841647316e+00 ] stress_334 gradient
 [ -1.0071473138e+00 -1.1273901592e-03 -8.2756516740e+03  1.5169405095e+01 
    2.6503160653e-01 -3.5512193619e+03  3.1958751908e+00 ] stress_335 gradient
 [ -1.0072366624e+00 -1.1494712263e-03 -8.5049850594e+03  1.4522995334e+01 
    2.4918365948e-01 -3.5513744977e+03  3.0413613037e+00 ] stress_336 gradient
 [ -1.0073091587e+00 -1.1685507493e-03 -8.7030640303e+03  1.3995074876e+01 
    2.3603324113e-01 -3.5515002556e+03  2.9155761302e+00 ] stress_337 gradient
 [ -1.0073667496e+00 -1.1845249409e-03 -8.8688510500e+03  1.3573490676e+01 
    2.2591752674e-01 -3.5515997280e+03  2.8158020872e+00 ] stress_338 gradient
 [ -1.0074109005e+00 -1.1973090349e-03 -9.0014972704e+03  1.3248794232e+01 
    2.1849934105e-01 -3.5516760074e+03  2.7393215959e+00 ] stress_339 gradient
 [ -1.0074427419e+00 -1.2068386030e-03 -9.1003561178e+03  1.3013765683e+01 
    2.1276710456e-01 -3.5517311553e+03  2.6841935257e+00 ] stress_340 gradient
 [ -1.0074630693e+00 -1.2130623368e-03 -9.1649128491e+03  1.2863402199e+01 
    2.0939520232e-01 -3.5517662026e+03  2.6492531980e+00 ] stress_341 gradient
 [ -1.0074723852e+00 -1.2159466810e-03 -9.1948288309e+03  1.2794546542e+01 
    2.0770924928e-01 -3.5517826954e+03  2.6329477082e+00 ] stress_342 gradient



---------------------
Begin Evaluation   86
---------------------
Parameters for evaluation 86:
                      4.8014859603e+02 fy
                      2.0711950659e+05 E
                      1.8918850246e-02 b
                      8.6731477034e-01 cR1
                      4.4732519376e-02 cR2
                      1.9574944093e-02 a1
                      2.5139234420e-02 a3

blocking fork: workflow_driver1 paramsDakota.in results.out

Active response data for evaluation 86:
Active set vector = { 1 1 1 1 1 1 1 1 1 1 1 1 1 1 1 1 1 1 1 1 1 1 1 1 1 1 1 1 1 1 1 1 1 1 1 1 1 1 1 1 1 1 1 1 1 1 1 1 1 1 1 1 1 1 1 1 1 1 1 1 1 1 1 1 1 1 1 1 1 1 1 1 1 1 1 1 1 1 1 1 1 1 1 1 1 1 1 1 1 1 1 1 1 1 1 1 1 1 1 1 1 1 1 1 1 1 1 1 1 1 1 1 1 1 1 1 1 1 1 1 1 1 1 1 1 1 1 1 1 1 1 1 1 1 1 1 1 1 1 1 1 1 1 1 1 1 1 1 1 1 1 1 1 1 1 1 1 1 1 1 1 1 1 1 1 1 1 1 1 1 1 1 1 1 1 1 1 1 1 1 1 1 1 1 1 1 1 1 1 1 1 1 1 1 1 1 1 1 1 1 1 1 1 1 1 1 1 1 1 1 1 1 1 1 1 1 1 1 1 1 1 1 1 1 1 1 1 1 1 1 1 1 1 1 1 1 1 1 1 1 1 1 1 1 1 1 1 1 1 1 1 1 1 1 1 1 1 1 1 1 1 1 1 1 1 1 1 1 1 1 1 1 1 1 1 1 1 1 1 1 1 1 1 1 1 1 1 1 1 1 1 1 1 1 1 1 1 1 1 1 1 1 1 1 1 1 1 1 1 1 1 1 1 1 1 1 1 1 1 1 1 1 1 1 1 1 1 1 1 1 1 1 1 1 1 1 1 1 1 1 1 1 }
                      2.4136126976e+00 stress_1
                     -2.5084203296e+02 stress_2
                     -4.9369002328e+02 stress_3
                     -4.9527078807e+02 stress_4
                     -1.6772729249e+02 stress_5
                      2.4626931914e+02 stress_6
                      3.9362841652e+02 stress_7
                      3.9451284608e+02 stress_8
                      1.4585695578e+02 stress_9
                     -2.3113262054e+02 stress_10
                     -4.3481057024e+02 stress_11
                     -4.8606674928e+02 stress_12
                     -5.0106469317e+02 stress_13
                     -5.0213889773e+02 stress_14
                     -1.7263403074e+02 stress_15
                     -3.4001485372e+02 stress_16
                     -5.0763240569e+02 stress_17
                     -3.1352538143e+02 stress_18
                      2.1392624281e+01 stress_19
                      2.9713160010e+02 stress_20
                      4.1718864412e+02 stress_21
                      4.6251461882e+02 stress_22
                      4.8134208884e+02 stress_23
                      4.8756957610e+02 stress_24
                      1.5799109280e+02 stress_25
                      2.8565909385e+02 stress_26
                      4.2877122500e+02 stress_27
                      4.6388092071e+02 stress_28
                      3.4143602071e+02 stress_29
                      1.2852188673e+02 stress_30
                     -1.2449694818e+02 stress_31
                     -3.1981716588e+02 stress_32
                     -4.2368611695e+02 stress_33
                     -4.7366735139e+02 stress_34
                     -5.0083803164e+02 stress_35
                     -5.1854741708e+02 stress_36
                     -5.3176356722e+02 stress_37
                     -5.4227826776e+02 stress_38
                     -5.5068947575e+02 stress_39
                     -5.5713449188e+02 stress_40
                     -5.6159314751e+02 stress_41
                     -5.6400196934e+02 stress_42
                     -5.4858881094e+02 stress_43
                     -1.6229969951e+02 stress_44
                      1.0571247502e+02 stress_45
                     -9.9770646526e+01 stress_46
                     -4.4887277328e+02 stress_47
                     -1.5328116785e+02 stress_48
                     -2.5586004323e+02 stress_49
                     -4.1500783345e+02 stress_50
                     -5.6638265571e+02 stress_51
                     -3.9696708999e+02 stress_52
                     -5.9650757509e+01 stress_53
                      2.2833303539e+02 stress_54
                      3.5955740859e+02 stress_55
                      4.0857639194e+02 stress_56
                      4.2343115308e+02 stress_57
                      3.3736250018e+02 stress_58
                      2.3738254759e+01 stress_59
                     -3.1290096697e+02 stress_60
                     -4.6928315341e+02 stress_61
                     -5.1998803713e+02 stress_62
                     -5.3122719513e+02 stress_63
                     -2.6353510319e+02 stress_64
                      1.1414654882e+02 stress_65
                      2.0140660589e+02 stress_66
                     -6.9742591551e+01 stress_67
                     -4.3428091921e+02 stress_68
                     -5.3016791255e+02 stress_69
                     -5.3129969432e+02 stress_70
                     -4.3622766833e+02 stress_71
                     -2.6445354930e+02 stress_72
                     -4.1163582443e+01 stress_73
                      1.7039152442e+02 stress_74
                      3.1402150622e+02 stress_75
                      3.9351969657e+02 stress_76
                      4.3689485990e+02 stress_77
                      4.6324074085e+02 stress_78
                      4.8164849815e+02 stress_79
                      4.9606419005e+02 stress_80
                      5.0816331338e+02 stress_81
                      5.1862950028e+02 stress_82
                      5.2770273677e+02 stress_83
                      5.3542435744e+02 stress_84
                      5.4174723503e+02 stress_85
                      5.4659676433e+02 stress_86
                      5.4989914379e+02 stress_87
                      5.5159474602e+02 stress_88
                      4.7811983545e+02 stress_89
                      4.4766624717e+01 stress_90
                     -1.5944959715e+02 stress_91
                      1.2965874564e+02 stress_92
                      4.7183486455e+02 stress_93
                      4.7817943485e+02 stress_94
                      4.1818221389e+02 stress_95
                      3.1034545783e+02 stress_96
                      1.5996712647e+02 stress_97
                     -1.5479277018e+01 stress_98
                     -1.8250150081e+02 stress_99
                     -3.1043897660e+02 stress_100
                     -3.9376160755e+02 stress_101
                     -4.4474885912e+02 stress_102
                     -4.7683411316e+02 stress_103
                     -4.9876687824e+02 stress_104
                     -5.1534663078e+02 stress_105
                     -5.2907501222e+02 stress_106
                     -5.4124019687e+02 stress_107
                     -5.5250272767e+02 stress_108
                     -5.6319375278e+02 stress_109
                     -5.7346742734e+02 stress_110
                     -5.8337956911e+02 stress_111
                     -5.9292968275e+02 stress_112
                     -6.0208684819e+02 stress_113
                     -6.1080245857e+02 stress_114
                     -6.1901824876e+02 stress_115
                     -6.2667247432e+02 stress_116
                     -6.3370235891e+02 stress_117
                     -6.4004901042e+02 stress_118
                     -6.4565682256e+02 stress_119
                     -6.5047430205e+02 stress_120
                     -6.5445875917e+02 stress_121
                     -6.5757303776e+02 stress_122
                     -6.5978783628e+02 stress_123
                     -6.6108334334e+02 stress_124
                     -6.6143134965e+02 stress_125
                     -5.5920171109e+02 stress_126
                     -3.0868742297e+02 stress_127
                     -6.1579669458e-01 stress_128
                      2.1950494606e+02 stress_129
                      3.2839753713e+02 stress_130
                      3.7876265051e+02 stress_131
                      4.0327245099e+02 stress_132
                      4.1440426089e+02 stress_133
                      4.1502540770e+02 stress_134
                      1.1369747873e+01 stress_135
                     -1.0473503635e+01 stress_136
                      1.7428469819e+02 stress_137
                      1.3826992424e+02 stress_138
                     -3.3524907714e+01 stress_139
                     -3.2019248032e+02 stress_140
                     -5.2999687714e+02 stress_141
                     -6.1443020451e+02 stress_142
                     -6.4731109219e+02 stress_143
                     -6.6232107166e+02 stress_144
                     -6.6853394036e+02 stress_145
                     -6.4820387346e+02 stress_146
                     -4.1080680744e+02 stress_147
                     -5.9167454596e+01 stress_148
                      1.9445619737e+02 stress_149
                      3.0676072887e+02 stress_150
                      3.4801535836e+02 stress_151
                      3.5309571361e+02 stress_152
                      1.3742321240e+02 stress_153
                     -2.2922791073e+02 stress_154
                     -4.9078884237e+02 stress_155
                     -5.8871682600e+02 stress_156
                     -6.1631450731e+02 stress_157
                     -4.9399623229e+02 stress_158
                     -8.8924781823e+01 stress_159
                      9.5119904444e+01 stress_160
                     -7.1094638220e+01 stress_161
                     -4.6254998655e+02 stress_162
                     -6.1912155170e+02 stress_163
                     -6.3064201157e+02 stress_164
                     -5.8902325860e+02 stress_165
                     -5.0700323807e+02 stress_166
                     -3.8651496203e+02 stress_167
                     -2.3440827644e+02 stress_168
                     -6.7806062527e+01 stress_169
                      8.7228798651e+01 stress_170
                      2.0936528432e+02 stress_171
                      2.9416337428e+02 stress_172
                      3.4968740154e+02 stress_173
                      3.8625190325e+02 stress_174
                      4.1159459751e+02 stress_175
                      4.3050967928e+02 stress_176
                      4.4576335533e+02 stress_177
                      4.5891817010e+02 stress_178
                      4.7085192156e+02 stress_179
                      4.8205773630e+02 stress_180
                      4.9280930890e+02 stress_181
                      5.0325125845e+02 stress_182
                      5.1345261572e+02 stress_183
                      5.2343548284e+02 stress_184
                      5.3319385542e+02 stress_185
                      5.4270364706e+02 stress_186
                      5.5192985405e+02 stress_187
                      5.6083124933e+02 stress_188
                      5.6936252187e+02 stress_189
                      5.7747733082e+02 stress_190
                      5.8512938487e+02 stress_191
                      5.9227246879e+02 stress_192
                      5.9886418867e+02 stress_193
                      6.0486351678e+02 stress_194
                      6.1023202313e+02 stress_195
                      6.1493673487e+02 stress_196
                      6.1894663725e+02 stress_197
                      6.2223678351e+02 stress_198
                      6.2478602880e+02 stress_199
                      6.2657710459e+02 stress_200
                      6.2759906279e+02 stress_201
                      6.2764912047e+02 stress_202
                      2.6640095128e+02 stress_203
                     -7.9204176658e+01 stress_204
                      2.9345146046e+01 stress_205
                      4.6465704613e+02 stress_206
                      4.8343821168e+02 stress_207
                      4.1883329103e+02 stress_208
                      3.0206408078e+02 stress_209
                      1.4030922503e+02 stress_210
                     -4.3285455194e+01 stress_211
                     -2.0916135943e+02 stress_212
                     -3.2877792057e+02 stress_213
                     -4.0336746377e+02 stress_214
                     -4.4838648760e+02 stress_215
                     -4.7708085423e+02 stress_216
                     -4.9726450352e+02 stress_217
                     -5.1302312907e+02 stress_218
                     -5.2642296458e+02 stress_219
                     -5.3850194875e+02 stress_220
                     -5.4977538774e+02 stress_221
                     -5.6048557959e+02 stress_222
                     -5.7072905126e+02 stress_223
                     -5.8052189702e+02 stress_224
                     -5.8983644445e+02 stress_225
                     -5.9862057690e+02 stress_226
                     -6.0680982252e+02 stress_227
                     -6.1433611993e+02 stress_228
                     -6.2112918515e+02 stress_229
                     -6.2712440950e+02 stress_230
                     -6.3226202618e+02 stress_231
                     -6.3648806297e+02 stress_232
                     -6.3976015658e+02 stress_233
                     -6.4204360809e+02 stress_234
                     -6.4331327432e+02 stress_235
                     -6.3684307019e+02 stress_236
                     -2.7297284084e+02 stress_237
                      2.3178080026e+01 stress_238
                     -1.9630646610e+02 stress_239
                     -4.4693023049e+02 stress_240
                     -1.1659649907e+02 stress_241
                      6.0629567769e+01 stress_242
                     -2.7122870973e+02 stress_243
                     -3.9542896828e+02 stress_244
                     -5.0453862014e+02 stress_245
                     -3.2008671308e+02 stress_246
                      1.4935310866e+01 stress_247
                      2.7755842401e+02 stress_248
                      3.9164899933e+02 stress_249
                      4.3414613186e+02 stress_250
                      4.4636992653e+02 stress_251
                      3.4130663346e+02 stress_252
                      2.0253495875e+01 stress_253
                     -3.1492498224e+02 stress_254
                     -4.8566813727e+02 stress_255
                     -5.4722009194e+02 stress_256
                     -5.5954943168e+02 stress_257
                     -2.8297103527e+02 stress_258
                      9.7679573857e+01 stress_259
                      2.1671057815e+02 stress_260
                      2.7165150550e+00 stress_261
                     -3.6342831835e+02 stress_262
                     -5.2202549885e+02 stress_263
                     -5.4395647157e+02 stress_264
                     -5.0205627326e+02 stress_265
                     -4.0813859043e+02 stress_266
                     -2.6569557672e+02 stress_267
                     -8.8051696745e+01 stress_268
                      9.4137803518e+01 stress_269
                      2.4418012605e+02 stress_270
                      3.4666953095e+02 stress_271
                      4.1028537573e+02 stress_272
                      4.4978709257e+02 stress_273
                      4.7600331225e+02 stress_274
                      4.9514532954e+02 stress_275
                      5.1049517846e+02 stress_276
                      5.2375299854e+02 stress_277
                      5.3579328141e+02 stress_278
                      5.4705871533e+02 stress_279
                      5.5776081400e+02 stress_280
                      5.6798412926e+02 stress_281
                      5.7774221511e+02 stress_282
                      5.8700830022e+02 stress_283
                      5.9573414853e+02 stress_284
                      6.0385925930e+02 stress_285
                      6.1131962148e+02 stress_286
                      6.1805085037e+02 stress_287
                      6.2399064789e+02 stress_288
                      6.2908348384e+02 stress_289
                      6.3327984936e+02 stress_290
                      6.3653775981e+02 stress_291
                      6.3882545305e+02 stress_292
                      6.4011932614e+02 stress_293
                      6.4013843127e+02 stress_294
                      2.6701664913e+02 stress_295
                     -7.0822717884e+01 stress_296
                      5.9347629260e+01 stress_297
                      4.7951860232e+02 stress_298
                      4.9409324297e+02 stress_299
                      4.5072379227e+02 stress_300
                      3.7262579883e+02 stress_301
                      2.6151176722e+02 stress_302
                      1.2353499434e+02 stress_303
                     -2.6875225655e+01 stress_304
                     -1.6771904005e+02 stress_305
                     -2.8056725410e+02 stress_306
                     -3.6059769512e+02 stress_307
                     -4.1394175270e+02 stress_308
                     -4.4944249163e+02 stress_309
                     -4.7409682410e+02 stress_310
                     -4.9241904992e+02 stress_311
                     -5.0709346783e+02 stress_312
                     -5.1967067054e+02 stress_313
                     -5.3104462595e+02 stress_314
                     -5.4173080199e+02 stress_315
                     -5.5202528988e+02 stress_316
                     -5.6209559310e+02 stress_317
                     -5.7203121219e+02 stress_318
                     -5.8187387026e+02 stress_319
                     -5.9163559260e+02 stress_320
                     -6.0130875848e+02 stress_321
                     -6.1087382967e+02 stress_322
                     -6.2030269823e+02 stress_323
                     -6.2956244875e+02 stress_324
                     -6.3861738240e+02 stress_325
                     -6.4742899161e+02 stress_326
                     -6.5595925304e+02 stress_327
                     -6.6416841367e+02 stress_328
                     -6.7201912316e+02 stress_329
                     -6.7947425433e+02 stress_330
                     -6.8649754137e+02 stress_331
                     -6.9305557286e+02 stress_332
                     -6.9911583474e+02 stress_333
                     -7.0464892417e+02 stress_334
                     -7.0962815594e+02 stress_335
                     -7.1402742668e+02 stress_336
                     -7.1782631044e+02 stress_337
                     -7.2100532495e+02 stress_338
                     -7.2354851242e+02 stress_339
                     -7.2544371847e+02 stress_340
                     -7.2668124469e+02 stress_341
                     -7.2725469199e+02 stress_342



------------------------------------------
Begin Dakota derivative estimation routine
------------------------------------------

>>>>> map at X performed previously and results retrieved

>>>>> Dakota finite difference gradient evaluation for x[1] + h:

---------------------
Begin Evaluation   87
---------------------
Parameters for evaluation 87:
                      4.8062874463e+02 fy
                      2.0711950659e+05 E
                      1.8918850246e-02 b
                      8.6731477034e-01 cR1
                      4.4732519376e-02 cR2
                      1.9574944093e-02 a1
                      2.5139234420e-02 a3

(Asynchronous job 87 added to queue)


>>>>> Dakota finite difference gradient evaluation for x[2] + h:

---------------------
Begin Evaluation   88
---------------------
Parameters for evaluation 88:
                      4.8014859603e+02 fy
                      2.0732662609e+05 E
                      1.8918850246e-02 b
                      8.6731477034e-01 cR1
                      4.4732519376e-02 cR2
                      1.9574944093e-02 a1
                      2.5139234420e-02 a3

(Asynchronous job 88 added to queue)


>>>>> Dakota finite difference gradient evaluation for x[3] + h:

---------------------
Begin Evaluation   89
---------------------
Parameters for evaluation 89:
                      4.8014859603e+02 fy
                      2.0711950659e+05 E
                      1.8937769096e-02 b
                      8.6731477034e-01 cR1
                      4.4732519376e-02 cR2
                      1.9574944093e-02 a1
                      2.5139234420e-02 a3

(Asynchronous job 89 added to queue)


>>>>> Dakota finite difference gradient evaluation for x[4] + h:

---------------------
Begin Evaluation   90
---------------------
Parameters for evaluation 90:
                      4.8014859603e+02 fy
                      2.0711950659e+05 E
                      1.8918850246e-02 b
                      8.6818208511e-01 cR1
                      4.4732519376e-02 cR2
                      1.9574944093e-02 a1
                      2.5139234420e-02 a3

(Asynchronous job 90 added to queue)


>>>>> Dakota finite difference gradient evaluation for x[5] + h:

---------------------
Begin Evaluation   91
---------------------
Parameters for evaluation 91:
                      4.8014859603e+02 fy
                      2.0711950659e+05 E
                      1.8918850246e-02 b
                      8.6731477034e-01 cR1
                      4.4777251895e-02 cR2
                      1.9574944093e-02 a1
                      2.5139234420e-02 a3

(Asynchronous job 91 added to queue)


>>>>> Dakota finite difference gradient evaluation for x[6] + h:

---------------------
Begin Evaluation   92
---------------------
Parameters for evaluation 92:
                      4.8014859603e+02 fy
                      2.0711950659e+05 E
                      1.8918850246e-02 b
                      8.6731477034e-01 cR1
                      4.4732519376e-02 cR2
                      1.9594519037e-02 a1
                      2.5139234420e-02 a3

(Asynchronous job 92 added to queue)


>>>>> Dakota finite difference gradient evaluation for x[7] + h:

---------------------
Begin Evaluation   93
---------------------
Parameters for evaluation 93:
                      4.8014859603e+02 fy
                      2.0711950659e+05 E
                      1.8918850246e-02 b
                      8.6731477034e-01 cR1
                      4.4732519376e-02 cR2
                      1.9574944093e-02 a1
                      2.5164373654e-02 a3

(Asynchronous job 93 added to queue)



Blocking synchronize of 7 asynchronous evaluations
First pass: initiating 7 local asynchronous jobs
Initiating evaluation 87
nonblocking fork: workflow_driver1 paramsDakota.in results.out
Initiating evaluation 88
nonblocking fork: workflow_driver1 paramsDakota.in results.out
Initiating evaluation 89
nonblocking fork: workflow_driver1 paramsDakota.in results.out
Initiating evaluation 90
nonblocking fork: workflow_driver1 paramsDakota.in results.out
Initiating evaluation 91
nonblocking fork: workflow_driver1 paramsDakota.in results.out
Initiating evaluation 92
nonblocking fork: workflow_driver1 paramsDakota.in results.out
Initiating evaluation 93
nonblocking fork: workflow_driver1 paramsDakota.in results.out
Waiting on completed jobs
Evaluation 87 has completed
Evaluation 88 has completed
Evaluation 89 has completed
Evaluation 90 has completed
Evaluation 91 has completed
Waiting on completed jobs
Evaluation 92 has completed
Waiting on completed jobs
Evaluation 93 has completed

Active response data for evaluation 87:
Active set vector = { 1 1 1 1 1 1 1 1 1 1 1 1 1 1 1 1 1 1 1 1 1 1 1 1 1 1 1 1 1 1 1 1 1 1 1 1 1 1 1 1 1 1 1 1 1 1 1 1 1 1 1 1 1 1 1 1 1 1 1 1 1 1 1 1 1 1 1 1 1 1 1 1 1 1 1 1 1 1 1 1 1 1 1 1 1 1 1 1 1 1 1 1 1 1 1 1 1 1 1 1 1 1 1 1 1 1 1 1 1 1 1 1 1 1 1 1 1 1 1 1 1 1 1 1 1 1 1 1 1 1 1 1 1 1 1 1 1 1 1 1 1 1 1 1 1 1 1 1 1 1 1 1 1 1 1 1 1 1 1 1 1 1 1 1 1 1 1 1 1 1 1 1 1 1 1 1 1 1 1 1 1 1 1 1 1 1 1 1 1 1 1 1 1 1 1 1 1 1 1 1 1 1 1 1 1 1 1 1 1 1 1 1 1 1 1 1 1 1 1 1 1 1 1 1 1 1 1 1 1 1 1 1 1 1 1 1 1 1 1 1 1 1 1 1 1 1 1 1 1 1 1 1 1 1 1 1 1 1 1 1 1 1 1 1 1 1 1 1 1 1 1 1 1 1 1 1 1 1 1 1 1 1 1 1 1 1 1 1 1 1 1 1 1 1 1 1 1 1 1 1 1 1 1 1 1 1 1 1 1 1 1 1 1 1 1 1 1 1 1 1 1 1 1 1 1 1 1 1 1 1 1 1 1 1 1 1 1 1 1 1 1 1 }
                      2.4136126976e+00 stress_1
                     -2.5084204692e+02 stress_2
                     -4.9416832242e+02 stress_3
                     -4.9575064018e+02 stress_4
                     -1.6819765157e+02 stress_5
                      2.4612287199e+02 stress_6
                      3.9382817388e+02 stress_7
                      3.9471504361e+02 stress_8
                      1.4605505931e+02 stress_9
                     -2.3114425268e+02 stress_10
                     -4.3519803640e+02 stress_11
                     -4.8653552655e+02 stress_12
                     -5.0154399775e+02 stress_13
                     -5.0261862876e+02 stress_14
                     -1.7309882520e+02 stress_15
                     -3.4047964826e+02 stress_16
                     -5.0810465123e+02 stress_17
                     -3.1399573469e+02 stress_18
                      2.1010193933e+01 stress_19
                      2.9709701716e+02 stress_20
                      4.1743269757e+02 stress_21
                      4.6287224579e+02 stress_22
                      4.8174126399e+02 stress_23
                      4.8798086216e+02 stress_24
                      1.5838721894e+02 stress_25
                      2.8605521913e+02 stress_26
                      4.2916530369e+02 stress_27
                      4.6427544831e+02 stress_28
                      3.4183016607e+02 stress_29
                      1.2889903318e+02 stress_30
                     -1.2424632922e+02 stress_31
                     -3.1983627909e+02 stress_32
                     -4.2392956215e+02 stress_33
                     -4.7402707792e+02 stress_34
                     -5.0125137923e+02 stress_35
                     -5.1898621063e+02 stress_36
                     -5.3221525645e+02 stress_37
                     -5.4273692907e+02 stress_38
                     -5.5115209694e+02 stress_39
                     -5.5759941168e+02 stress_40
                     -5.6205936385e+02 stress_41
                     -5.6446880222e+02 stress_42
                     -5.4905564365e+02 stress_43
                     -1.6273635152e+02 stress_44
                      1.0544430986e+02 stress_45
                     -1.0003906041e+02 stress_46
                     -4.4926752515e+02 stress_47
                     -1.5366210367e+02 stress_48
                     -2.5624098510e+02 stress_49
                     -4.1539586719e+02 stress_50
                     -5.6687277138e+02 stress_51
                     -3.9745595505e+02 stress_52
                     -6.0068558999e+01 stress_53
                      2.2821923418e+02 stress_54
                      3.5971263344e+02 stress_55
                      4.0885008609e+02 stress_56
                      4.2374059389e+02 stress_57
                      3.3767186532e+02 stress_58
                      2.4020156532e+01 stress_59
                     -3.1286564917e+02 stress_60
                     -4.6951725528e+02 stress_61
                     -5.2032686127e+02 stress_62
                     -5.3158866747e+02 stress_63
                     -2.6388989127e+02 stress_64
                      1.1395733416e+02 stress_65
                      2.0131867475e+02 stress_66
                     -6.9837224945e+01 stress_67
                     -4.3458769392e+02 stress_68
                     -5.3060012815e+02 stress_69
                     -5.3173329884e+02 stress_70
                     -4.3666111498e+02 stress_71
                     -2.6487991227e+02 stress_72
                     -4.1528526559e+01 stress_73
                      1.7021445884e+02 stress_74
                      3.1408909222e+02 stress_75
                      3.9376671437e+02 stress_76
                      4.3724320372e+02 stress_77
                      4.6364266521e+02 stress_78
                      4.8207925038e+02 stress_79
                      4.9651114389e+02 stress_80
                      5.0861981647e+02 stress_81
                      5.1909187970e+02 stress_82
                      5.2816886093e+02 stress_83
                      5.3589292617e+02 stress_84
                      5.4221741277e+02 stress_85
                      5.4706798304e+02 stress_86
                      5.5037099009e+02 stress_87
                      5.5206689169e+02 stress_88
                      4.7859192797e+02 stress_89
                      4.5172344415e+01 stress_90
                     -1.5920731587e+02 stress_91
                      1.2990450372e+02 stress_92
                      4.7228599254e+02 stress_93
                      4.7863837009e+02 stress_94
                      4.1864111696e+02 stress_95
                      3.1080295094e+02 stress_96
                      1.6041073275e+02 stress_97
                     -1.5097743496e+01 stress_98
                     -1.8226793939e+02 stress_99
                     -3.1040756647e+02 stress_100
                     -3.9391060005e+02 stress_101
                     -4.4502270377e+02 stress_102
                     -4.7718503918e+02 stress_103
                     -4.9916389766e+02 stress_104
                     -5.1577141507e+02 stress_105
                     -5.2951692470e+02 stress_106
                     -5.4169298959e+02 stress_107
                     -5.5296264126e+02 stress_108
                     -5.6365846116e+02 stress_109
                     -5.7393545002e+02 stress_110
                     -5.8384993762e+02 stress_111
                     -5.9340174699e+02 stress_112
                     -6.0256016131e+02 stress_113
                     -6.1127670647e+02 stress_114
                     -6.1949320587e+02 stress_115
                     -6.2714797535e+02 stress_116
                     -6.3417828028e+02 stress_117
                     -6.4052525795e+02 stress_118
                     -6.4613332293e+02 stress_119
                     -6.5095099682e+02 stress_120
                     -6.5493560072e+02 stress_121
                     -6.5804998603e+02 stress_122
                     -6.6026485651e+02 stress_123
                     -6.6156040423e+02 stress_124
                     -6.6190842128e+02 stress_125
                     -5.5967861617e+02 stress_126
                     -3.0914868706e+02 stress_127
                     -9.3511167449e-01 stress_128
                      2.1947387534e+02 stress_129
                      3.2858846548e+02 stress_130
                      3.7906771319e+02 stress_131
                      4.0363059880e+02 stress_132
                      4.1478465160e+02 stress_133
                      4.1540699014e+02 stress_134
                      1.1727723645e+01 stress_135
                     -1.0120688605e+01 stress_136
                      1.7464246288e+02 stress_137
                      1.3862768282e+02 stress_138
                     -3.3171870766e+01 stress_139
                     -3.1995916964e+02 stress_140
                     -5.3009762661e+02 stress_141
                     -6.1474615869e+02 stress_142
                     -6.4770923813e+02 stress_143
                     -6.6274966687e+02 stress_144
                     -6.6897290072e+02 stress_145
                     -6.4864283340e+02 stress_146
                     -4.1124109036e+02 stress_147
                     -5.9496465028e+01 stress_148
                      1.9440571649e+02 stress_149
                      3.0691822510e+02 stress_150
                      3.4826081897e+02 stress_151
                      3.5335220677e+02 stress_152
                      1.3767754708e+02 stress_153
                     -2.2906855942e+02 stress_154
                     -4.9091440754e+02 stress_155
                     -5.8901534285e+02 stress_156
                     -6.1666471392e+02 stress_157
                     -4.9434611393e+02 stress_158
                     -8.9205398496e+01 stress_159
                      9.4977066087e+01 stress_160
                     -7.1238115723e+01 stress_161
                     -4.6281737077e+02 stress_162
                     -6.1956214880e+02 stress_163
                     -6.3109522640e+02 stress_164
                     -5.8947646679e+02 stress_165
                     -5.0745608882e+02 stress_166
                     -3.8696373582e+02 stress_167
                     -2.3483517426e+02 stress_168
                     -6.8163981541e+01 stress_169
                      8.7007020226e+01 stress_170
                      2.0931977423e+02 stress_171
                      2.9428184945e+02 stress_172
                      3.4992920829e+02 stress_173
                      3.8657671672e+02 stress_174
                      4.1197287647e+02 stress_175
                      4.3092215193e+02 stress_176
                      4.4619794002e+02 stress_177
                      4.5936733164e+02 stress_178
                      4.7131090659e+02 stress_179
                      4.8252349174e+02 stress_180
                      4.9327983278e+02 stress_181
                      5.0372520942e+02 stress_182
                      5.1392907642e+02 stress_183
                      5.2391381326e+02 stress_184
                      5.3367360071e+02 stress_185
                      5.4318447823e+02 stress_186
                      5.5241152925e+02 stress_187
                      5.6131358800e+02 stress_188
                      5.6984538721e+02 stress_189
                      5.7796061772e+02 stress_190
                      5.8561301151e+02 stress_191
                      5.9275637055e+02 stress_192
                      5.9934831388e+02 stress_193
                      6.0534782354e+02 stress_194
                      6.1071647692e+02 stress_195
                      6.1542130684e+02 stress_196
                      6.1943130285e+02 stress_197
                      6.2272152142e+02 stress_198
                      6.2527082016e+02 stress_199
                      6.2706193220e+02 stress_200
                      6.2808391061e+02 stress_201
                      6.2813396928e+02 stress_202
                      2.6687005056e+02 stress_203
                     -7.8903005327e+01 stress_204
                      2.9646320357e+01 stress_205
                      4.6504361354e+02 stress_206
                      4.8384145986e+02 stress_207
                      4.1923649630e+02 stress_208
                      3.0246542620e+02 stress_209
                      1.4069270972e+02 stress_210
                     -4.2977198627e+01 stress_211
                     -2.0901540549e+02 stress_212
                     -3.2882969633e+02 stress_213
                     -4.0357987138e+02 stress_214
                     -4.4870379252e+02 stress_215
                     -4.7746108273e+02 stress_216
                     -4.9768194288e+02 stress_217
                     -5.1346295392e+02 stress_218
                     -5.2687665009e+02 stress_219
                     -5.3896449329e+02 stress_220
                     -5.5024377302e+02 stress_221
                     -5.6095792800e+02 stress_222
                     -5.7120415963e+02 stress_223
                     -5.8099897224e+02 stress_224
                     -5.9031494981e+02 stress_225
                     -5.9910014006e+02 stress_226
                     -6.0729017902e+02 stress_227
                     -6.1481707769e+02 stress_228
                     -6.2161060136e+02 stress_229
                     -6.2760617562e+02 stress_230
                     -6.3274405758e+02 stress_231
                     -6.3697029174e+02 stress_232
                     -6.4024252663e+02 stress_233
                     -6.4252607124e+02 stress_234
                     -6.4379578739e+02 stress_235
                     -6.3732558326e+02 stress_236
                     -2.7343884971e+02 stress_237
                      2.2837840496e+01 stress_238
                     -1.9664959923e+02 stress_239
                     -4.4731440280e+02 stress_240
                     -1.1696095891e+02 stress_241
                      6.0340694639e+01 stress_242
                     -2.7153118477e+02 stress_243
                     -3.9576051105e+02 stress_244
                     -5.0491826338e+02 stress_245
                     -3.2046449020e+02 stress_246
                      1.4639313007e+01 stress_247
                      2.7754853299e+02 stress_248
                      3.9186380988e+02 stress_249
                      4.3445648657e+02 stress_250
                      4.4670743833e+02 stress_251
                      3.4164399244e+02 stress_252
                      2.0563652268e+01 stress_253
                     -3.1481869130e+02 stress_254
                     -4.8580786768e+02 stress_255
                     -5.4747551633e+02 stress_256
                     -5.5982905737e+02 stress_257
                     -2.8324473499e+02 stress_258
                      9.7541211932e+01 stress_259
                      2.1668917035e+02 stress_260
                      2.6922422029e+00 stress_261
                     -3.6356229097e+02 stress_262
                     -5.2231382966e+02 stress_263
                     -5.4427294861e+02 stress_264
                     -5.0237274385e+02 stress_265
                     -4.0845458023e+02 stress_266
                     -2.6600525433e+02 stress_267
                     -8.8326535007e+01 stress_268
                      9.3963698215e+01 stress_269
                      2.4416950551e+02 stress_270
                      3.4682438187e+02 stress_271
                      4.1056341651e+02 stress_272
                      4.5014381522e+02 stress_273
                      4.7640767384e+02 stress_274
                      4.9557845711e+02 stress_275
                      5.1094601669e+02 stress_276
                      5.2421504802e+02 stress_277
                      5.3626264084e+02 stress_278
                      5.4753297940e+02 stress_279
                      5.5823845735e+02 stress_280
                      5.6846415747e+02 stress_281
                      5.7822396265e+02 stress_282
                      5.8749131051e+02 stress_283
                      5.9621810102e+02 stress_284
                      6.0434392382e+02 stress_285
                      6.1180482920e+02 stress_286
                      6.1853647475e+02 stress_287
                      6.2447659189e+02 stress_288
                      6.2956967129e+02 stress_289
                      6.3376621885e+02 stress_290
                      6.3702426023e+02 stress_291
                      6.3931204043e+02 stress_292
                      6.4060596096e+02 stress_293
                      6.4062506679e+02 stress_294
                      2.6748624731e+02 stress_295
                     -7.0516356863e+01 stress_296
                      5.9654010629e+01 stress_297
                      4.7992217475e+02 stress_298
                      4.9450974985e+02 stress_299
                      4.5114028948e+02 stress_300
                      3.7304188055e+02 stress_301
                      2.6192365347e+02 stress_302
                      1.2392596754e+02 stress_303
                     -2.6547650433e+01 stress_304
                     -1.6751528309e+02 stress_305
                     -2.8052608186e+02 stress_306
                     -3.6071201318e+02 stress_307
                     -4.1417648907e+02 stress_308
                     -4.4976033478e+02 stress_309
                     -4.7446921830e+02 stress_310
                     -4.9282680812e+02 stress_311
                     -5.0752431306e+02 stress_312
                     -5.2011683060e+02 stress_313
                     -5.3150114815e+02 stress_314
                     -5.4219448205e+02 stress_315
                     -5.5249401571e+02 stress_316
                     -5.6256794523e+02 stress_317
                     -5.7250621787e+02 stress_318
                     -5.8235085040e+02 stress_319
                     -5.9211406471e+02 stress_320
                     -6.0178837402e+02 stress_321
                     -6.1135433298e+02 stress_322
                     -6.2078389900e+02 stress_323
                     -6.3004420342e+02 stress_324
                     -6.3909958132e+02 stress_325
                     -6.4791154995e+02 stress_326
                     -6.5644210449e+02 stress_327
                     -6.6465150577e+02 stress_328
                     -6.7250241403e+02 stress_329
                     -6.7995771016e+02 stress_330
                     -6.8698113456e+02 stress_331
                     -6.9353928072e+02 stress_332
                     -6.9959963833e+02 stress_333
                     -7.0513280758e+02 stress_334
                     -7.1011210562e+02 stress_335
                     -7.1451143094e+02 stress_336
                     -7.1831035906e+02 stress_337
                     -7.2148940885e+02 stress_338
                     -7.2403262341e+02 stress_339
                     -7.2592784901e+02 stress_340
                     -7.2716538772e+02 stress_341
                     -7.2773884073e+02 stress_342


Active response data for evaluation 88:
Active set vector = { 1 1 1 1 1 1 1 1 1 1 1 1 1 1 1 1 1 1 1 1 1 1 1 1 1 1 1 1 1 1 1 1 1 1 1 1 1 1 1 1 1 1 1 1 1 1 1 1 1 1 1 1 1 1 1 1 1 1 1 1 1 1 1 1 1 1 1 1 1 1 1 1 1 1 1 1 1 1 1 1 1 1 1 1 1 1 1 1 1 1 1 1 1 1 1 1 1 1 1 1 1 1 1 1 1 1 1 1 1 1 1 1 1 1 1 1 1 1 1 1 1 1 1 1 1 1 1 1 1 1 1 1 1 1 1 1 1 1 1 1 1 1 1 1 1 1 1 1 1 1 1 1 1 1 1 1 1 1 1 1 1 1 1 1 1 1 1 1 1 1 1 1 1 1 1 1 1 1 1 1 1 1 1 1 1 1 1 1 1 1 1 1 1 1 1 1 1 1 1 1 1 1 1 1 1 1 1 1 1 1 1 1 1 1 1 1 1 1 1 1 1 1 1 1 1 1 1 1 1 1 1 1 1 1 1 1 1 1 1 1 1 1 1 1 1 1 1 1 1 1 1 1 1 1 1 1 1 1 1 1 1 1 1 1 1 1 1 1 1 1 1 1 1 1 1 1 1 1 1 1 1 1 1 1 1 1 1 1 1 1 1 1 1 1 1 1 1 1 1 1 1 1 1 1 1 1 1 1 1 1 1 1 1 1 1 1 1 1 1 1 1 1 1 1 1 1 1 1 1 1 1 1 1 1 1 1 1 1 1 1 1 1 }
                      2.4160263103e+00 stress_1
                     -2.5109286081e+02 stress_2
                     -4.9370538540e+02 stress_3
                     -4.9528620044e+02 stress_4
                     -1.6742471183e+02 stress_5
                      2.4666129662e+02 stress_6
                      3.9382187660e+02 stress_7
                      3.9470475505e+02 stress_8
                      1.4580432824e+02 stress_9
                     -2.3135210368e+02 stress_10
                     -4.3485818689e+02 stress_11
                     -4.8608425912e+02 stress_12
                     -5.0108660176e+02 stress_13
                     -5.0216144846e+02 stress_14
                     -1.7234206910e+02 stress_15
                     -3.3989027285e+02 stress_16
                     -5.0766794299e+02 stress_17
                     -3.1336871156e+02 stress_18
                      2.1796024140e+01 stress_19
                      2.9746253483e+02 stress_20
                      4.1736127492e+02 stress_21
                      4.6261922574e+02 stress_22
                      4.8142406916e+02 stress_23
                      4.8764570130e+02 stress_24
                      1.5775285349e+02 stress_25
                      2.8554852340e+02 stress_26
                      4.2880582004e+02 stress_27
                      4.6395019358e+02 stress_28
                      3.4138323242e+02 stress_29
                      1.2827324222e+02 stress_30
                     -1.2487176705e+02 stress_31
                     -3.2011733695e+02 stress_32
                     -4.2386597233e+02 stress_33
                     -4.7378108100e+02 stress_34
                     -5.0092540805e+02 stress_35
                     -5.1862710491e+02 stress_36
                     -5.3184359966e+02 stress_37
                     -5.4236185558e+02 stress_38
                     -5.5077752195e+02 stress_39
                     -5.5722668848e+02 stress_40
                     -5.6168850843e+02 stress_41
                     -5.6409912359e+02 stress_42
                     -5.4867055220e+02 stress_43
                     -1.6202543123e+02 stress_44
                      1.0608589062e+02 stress_45
                     -9.9602461623e+01 stress_46
                     -4.4892694267e+02 stress_47
                     -1.5305360966e+02 stress_48
                     -2.5573505779e+02 stress_49
                     -4.1503485954e+02 stress_50
                     -5.6645890976e+02 stress_51
                     -3.9687518367e+02 stress_52
                     -5.9292816612e+01 stress_53
                      2.2867450848e+02 stress_54
                      3.5976115971e+02 stress_55
                      4.0871084781e+02 stress_56
                      4.2354477704e+02 stress_57
                      3.3739013147e+02 stress_58
                      2.3479816378e+01 stress_59
                     -3.1324900763e+02 stress_60
                     -4.6951812468e+02 stress_61
                     -5.2016907088e+02 stress_62
                     -5.3139684171e+02 stress_63
                     -2.6344376402e+02 stress_64
                      1.1444961726e+02 stress_65
                      2.0169552808e+02 stress_66
                     -6.9718088516e+01 stress_67
                     -4.3440854433e+02 stress_68
                     -5.3026598127e+02 stress_69
                     -5.3139750545e+02 stress_70
                     -4.3623056586e+02 stress_71
                     -2.6429178002e+02 stress_72
                     -4.0840114739e+01 stress_73
                      1.7073835650e+02 stress_74
                      3.1426727365e+02 stress_75
                      3.9366571661e+02 stress_76
                      4.3698310673e+02 stress_77
                      4.6330186634e+02 stress_78
                      4.8169926954e+02 stress_79
                      4.9611321399e+02 stress_80
                      5.0821491027e+02 stress_81
                      5.1868570131e+02 stress_82
                      5.2776427544e+02 stress_83
                      5.3549117914e+02 stress_84
                      5.4181877452e+02 stress_85
                      5.4667211492e+02 stress_86
                      5.4997717070e+02 stress_87
                      5.5167416989e+02 stress_88
                      4.7812583775e+02 stress_89
                      4.4405844973e+01 stress_90
                     -1.5985083752e+02 stress_91
                      1.2954310631e+02 stress_92
                      4.7185568873e+02 stress_93
                      4.7819879883e+02 stress_94
                      4.1814161292e+02 stress_95
                      3.1019843510e+02 stress_96
                      1.5968365893e+02 stress_97
                     -1.5875941902e+01 stress_98
                     -1.8291694086e+02 stress_99
                     -3.1078008320e+02 stress_100
                     -3.9400573822e+02 stress_101
                     -4.4491930131e+02 stress_102
                     -4.7695970775e+02 stress_103
                     -4.9886841465e+02 stress_104
                     -5.1543704841e+02 stress_105
                     -5.2916207258e+02 stress_106
                     -5.4132856980e+02 stress_107
                     -5.5259526053e+02 stress_108
                     -5.6329219425e+02 stress_109
                     -5.7357283680e+02 stress_110
                     -5.8349255095e+02 stress_111
                     -5.9305052338e+02 stress_112
                     -6.0221560034e+02 stress_113
                     -6.1093899397e+02 stress_114
                     -6.1916229259e+02 stress_115
                     -6.2682362986e+02 stress_116
                     -6.3386012508e+02 stress_117
                     -6.4021279792e+02 stress_118
                     -6.4582596569e+02 stress_119
                     -6.5064806874e+02 stress_120
                     -6.5463636393e+02 stress_121
                     -6.5775365035e+02 stress_122
                     -6.5997059189e+02 stress_123
                     -6.6126735391e+02 stress_124
                     -6.6161569750e+02 stress_125
                     -5.5928399642e+02 stress_126
                     -3.0853488542e+02 stress_127
                     -2.9747640907e-01 stress_128
                      2.1975488490e+02 stress_129
                      3.2853448340e+02 stress_130
                      3.7883597921e+02 stress_131
                      4.0331729504e+02 stress_132
                      4.1443803553e+02 stress_133
                      4.1505861406e+02 stress_134
                      1.1022980763e+01 stress_135
                     -1.0836938007e+01 stress_136
                      1.7410107197e+02 stress_137
                      1.3805028937e+02 stress_138
                     -3.3911596061e+01 stress_139
                     -3.2074574047e+02 stress_140
                     -5.3042557118e+02 stress_141
                     -6.1472834347e+02 stress_142
                     -6.4756007107e+02 stress_143
                     -6.6255467432e+02 stress_144
                     -6.6876341283e+02 stress_145
                     -6.4841301627e+02 stress_146
                     -4.1078324553e+02 stress_147
                     -5.8897800804e+01 stress_148
                      1.9470061000e+02 stress_149
                      3.0690950548e+02 stress_150
                      3.4811750505e+02 stress_151
                      3.5319192068e+02 stress_152
                      1.3730591331e+02 stress_153
                     -2.2961663214e+02 stress_154
                     -4.9115392048e+02 stress_155
                     -5.8900692010e+02 stress_156
                     -6.1658054149e+02 stress_157
                     -4.9414027420e+02 stress_158
                     -8.8733199784e+01 stress_159
                      9.5357515920e+01 stress_160
                     -7.1022598555e+01 stress_161
                     -4.6274527546e+02 stress_162
                     -6.1930018996e+02 stress_163
                     -6.3081954946e+02 stress_164
                     -5.8915918440e+02 stress_165
                     -5.0705750246e+02 stress_166
                     -3.8645282823e+02 stress_167
                     -2.3421597727e+02 stress_168
                     -6.7516310820e+01 stress_169
                      8.7537222202e+01 stress_170
                      2.0961946988e+02 stress_171
                      2.9433843260e+02 stress_172
                      3.4979478871e+02 stress_173
                      3.8631298140e+02 stress_174
                      4.1162765550e+02 stress_175
                      4.3052753099e+02 stress_176
                      4.4577439813e+02 stress_177
                      4.5892782456e+02 stress_178
                      4.7086370947e+02 stress_179
                      4.8207397579e+02 stress_180
                      4.9283154303e+02 stress_181
                      5.0328051575e+02 stress_182
                      5.1348957074e+02 stress_183
                      5.2348055557e+02 stress_184
                      5.3324727512e+02 stress_185
                      5.4276549331e+02 stress_186
                      5.5200008454e+02 stress_187
                      5.6090971936e+02 stress_188
                      5.6944899780e+02 stress_189
                      5.7757150102e+02 stress_190
                      5.8523086821e+02 stress_191
                      5.9238082078e+02 stress_192
                      5.9897890946e+02 stress_193
                      6.0498405580e+02 stress_194
                      6.1035778399e+02 stress_195
                      6.1506708254e+02 stress_196
                      6.1908090143e+02 stress_197
                      6.2237426568e+02 stress_198
                      6.2492600692e+02 stress_199
                      6.2671883763e+02 stress_200
                      6.2774179760e+02 stress_201
                      6.2779190436e+02 stress_202
                      2.6619828622e+02 stress_203
                     -7.9584141284e+01 stress_204
                      2.9073727706e+01 stress_205
                      4.6473522180e+02 stress_206
                      4.8351846575e+02 stress_207
                      4.1884898324e+02 stress_208
                      3.0196486990e+02 stress_209
                      1.4006617651e+02 stress_210
                     -4.3636675675e+01 stress_211
                     -2.0951590060e+02 stress_212
                     -3.2905428499e+02 stress_213
                     -4.0355790398e+02 stress_214
                     -4.4851720154e+02 stress_215
                     -4.7717745695e+02 stress_216
                     -4.9734415790e+02 stress_217
                     -5.1309620720e+02 stress_218
                     -5.2649561435e+02 stress_219
                     -5.3857783966e+02 stress_220
                     -5.4985672551e+02 stress_221
                     -5.6057367409e+02 stress_222
                     -5.7082463605e+02 stress_223
                     -5.8062531264e+02 stress_224
                     -5.8994774800e+02 stress_225
                     -5.9873960939e+02 stress_226
                     -6.0693625289e+02 stress_227
                     -6.1446947681e+02 stress_228
                     -6.2126887777e+02 stress_229
                     -6.2726974831e+02 stress_230
                     -6.3241223799e+02 stress_231
                     -6.3664230392e+02 stress_232
                     -6.3991752870e+02 stress_233
                     -6.4220317079e+02 stress_234
                     -6.4347405688e+02 stress_235
                     -6.3699738256e+02 stress_236
                     -2.7277983888e+02 stress_237
                      2.3541162544e+01 stress_238
                     -1.9615996685e+02 stress_239
                     -4.4699321112e+02 stress_240
                     -1.1634891955e+02 stress_241
                      6.0978599695e+01 stress_242
                     -2.7119789346e+02 stress_243
                     -3.9549320263e+02 stress_244
                     -5.0466374147e+02 stress_245
                     -3.2002925439e+02 stress_246
                      1.5245810396e+01 stress_247
                      2.7784517091e+02 stress_248
                      3.9182528449e+02 stress_249
                      4.3426951610e+02 stress_250
                      4.4647842745e+02 stress_251
                      3.4131022443e+02 stress_252
                      1.9963320858e+01 stress_253
                     -3.1534605342e+02 stress_254
                     -4.8601378016e+02 stress_255
                     -5.4751163092e+02 stress_256
                     -5.5982911462e+02 stress_257
                     -2.8298008377e+02 stress_258
                      9.7915532798e+01 stress_259
                      2.1694846213e+02 stress_260
                      2.7432773251e+00 stress_261
                     -3.6365780450e+02 stress_262
                     -5.2225911611e+02 stress_263
                     -5.4418387085e+02 stress_264
                     -5.0224177883e+02 stress_265
                     -4.0823066058e+02 stress_266
                     -2.6565153499e+02 stress_267
                     -8.7864944211e+01 stress_268
                      9.4405808379e+01 stress_269
                      2.4443451553e+02 stress_270
                      3.4686092824e+02 stress_271
                      4.1041728673e+02 stress_272
                      4.4987991880e+02 stress_273
                      4.7607478765e+02 stress_274
                      4.9520722932e+02 stress_275
                      5.1055474897e+02 stress_276
                      5.2381463624e+02 stress_277
                      5.3585966314e+02 stress_278
                      5.4713146714e+02 stress_279
                      5.5784089507e+02 stress_280
                      5.6807205336e+02 stress_281
                      5.7783818126e+02 stress_282
                      5.8711227214e+02 stress_283
                      5.9584590590e+02 stress_284
                      6.0397843112e+02 stress_285
                      6.1144571151e+02 stress_286
                      6.1818325577e+02 stress_287
                      6.2412867409e+02 stress_288
                      6.2922635988e+02 stress_289
                      6.3342674009e+02 stress_290
                      6.3668777775e+02 stress_291
                      6.3897767191e+02 stress_292
                      6.4027279151e+02 stress_293
                      6.4029191506e+02 stress_294
                      2.6681410160e+02 stress_295
                     -7.1199502261e+01 stress_296
                      5.9100994596e+01 stress_297
                      4.7959464687e+02 stress_298
                      4.9417091491e+02 stress_299
                      4.5075810447e+02 stress_300
                      3.7258242993e+02 stress_301
                      2.6136149369e+02 stress_302
                      1.2326772162e+02 stress_303
                     -2.7229347050e+01 stress_304
                     -1.6808997028e+02 stress_305
                     -2.8088832956e+02 stress_306
                     -3.6084334987e+02 stress_307
                     -4.1412045613e+02 stress_308
                     -4.4957371808e+02 stress_309
                     -4.7419825736e+02 stress_310
                     -4.9250351619e+02 stress_311
                     -5.0716957351e+02 stress_312
                     -5.1974407445e+02 stress_313
                     -5.3111906650e+02 stress_314
                     -5.4180878829e+02 stress_315
                     -5.5210853730e+02 stress_316
                     -5.6218529350e+02 stress_317
                     -5.7212820124e+02 stress_318
                     -5.8197873244e+02 stress_319
                     -5.9174872825e+02 stress_320
                     -6.0143042672e+02 stress_321
                     -6.1100417744e+02 stress_322
                     -6.2044177915e+02 stress_323
                     -6.2971023690e+02 stress_324
                     -6.3877378236e+02 stress_325
                     -6.4759384466e+02 stress_326
                     -6.5613234397e+02 stress_327
                     -6.6434947370e+02 stress_328
                     -6.7220783564e+02 stress_329
                     -6.7967025740e+02 stress_330
                     -6.8670043069e+02 stress_331
                     -6.9326490585e+02 stress_332
                     -6.9933113248e+02 stress_333
                     -7.0486967539e+02 stress_334
                     -7.0985382027e+02 stress_335
                     -7.1425743585e+02 stress_336
                     -7.1806007426e+02 stress_337
                     -7.2124223259e+02 stress_338
                     -7.2378793622e+02 stress_339
                     -7.2568501797e+02 stress_340
                     -7.2692376925e+02 stress_341
                     -7.2749778430e+02 stress_342


Active response data for evaluation 89:
Active set vector = { 1 1 1 1 1 1 1 1 1 1 1 1 1 1 1 1 1 1 1 1 1 1 1 1 1 1 1 1 1 1 1 1 1 1 1 1 1 1 1 1 1 1 1 1 1 1 1 1 1 1 1 1 1 1 1 1 1 1 1 1 1 1 1 1 1 1 1 1 1 1 1 1 1 1 1 1 1 1 1 1 1 1 1 1 1 1 1 1 1 1 1 1 1 1 1 1 1 1 1 1 1 1 1 1 1 1 1 1 1 1 1 1 1 1 1 1 1 1 1 1 1 1 1 1 1 1 1 1 1 1 1 1 1 1 1 1 1 1 1 1 1 1 1 1 1 1 1 1 1 1 1 1 1 1 1 1 1 1 1 1 1 1 1 1 1 1 1 1 1 1 1 1 1 1 1 1 1 1 1 1 1 1 1 1 1 1 1 1 1 1 1 1 1 1 1 1 1 1 1 1 1 1 1 1 1 1 1 1 1 1 1 1 1 1 1 1 1 1 1 1 1 1 1 1 1 1 1 1 1 1 1 1 1 1 1 1 1 1 1 1 1 1 1 1 1 1 1 1 1 1 1 1 1 1 1 1 1 1 1 1 1 1 1 1 1 1 1 1 1 1 1 1 1 1 1 1 1 1 1 1 1 1 1 1 1 1 1 1 1 1 1 1 1 1 1 1 1 1 1 1 1 1 1 1 1 1 1 1 1 1 1 1 1 1 1 1 1 1 1 1 1 1 1 1 1 1 1 1 1 1 1 1 1 1 1 1 1 1 1 1 1 1 }
                      2.4136126976e+00 stress_1
                     -2.5084203297e+02 stress_2
                     -4.9369429458e+02 stress_3
                     -4.9527653944e+02 stress_4
                     -1.6773302056e+02 stress_5
                      2.4626511499e+02 stress_6
                      3.9362803429e+02 stress_7
                      3.9451250959e+02 stress_8
                      1.4585661044e+02 stress_9
                     -2.3113390062e+02 stress_10
                     -4.3481755165e+02 stress_11
                     -4.8608147687e+02 stress_12
                     -5.0108486643e+02 stress_13
                     -5.0215957615e+02 stress_14
                     -1.7265462854e+02 stress_15
                     -3.4003545153e+02 stress_16
                     -5.0765348875e+02 stress_17
                     -3.1354645498e+02 stress_18
                      2.1372115115e+01 stress_19
                      2.9711488634e+02 stress_20
                      4.1717929056e+02 stress_21
                      4.6251300531e+02 stress_22
                      4.8134622221e+02 stress_23
                      4.8757616529e+02 stress_24
                      1.5799758941e+02 stress_25
                      2.8566559046e+02 stress_26
                      4.2877774099e+02 stress_27
                      4.6388751608e+02 stress_28
                      3.4144261406e+02 stress_29
                      1.2852837532e+02 stress_30
                     -1.2449146217e+02 stress_31
                     -3.1981522321e+02 stress_32
                     -4.2369060248e+02 stress_33
                     -4.7368007496e+02 stress_34
                     -5.0085982023e+02 stress_35
                     -5.1857844057e+02 stress_36
                     -5.3180349996e+02 stress_37
                     -5.4232636784e+02 stress_38
                     -5.5074464194e+02 stress_39
                     -5.5719531614e+02 stress_40
                     -5.6165798385e+02 stress_41
                     -5.6406900133e+02 stress_42
                     -5.4865584292e+02 stress_43
                     -1.6236650783e+02 stress_44
                      1.0564727561e+02 stress_45
                     -9.9835846226e+01 stress_46
                     -4.4893847841e+02 stress_47
                     -1.5334677733e+02 stress_48
                     -2.5592565272e+02 stress_49
                     -4.1507346149e+02 stress_50
                     -5.6644993757e+02 stress_51
                     -3.9703436352e+02 stress_52
                     -5.9717481254e+01 stress_53
                      2.2826992328e+02 stress_54
                      3.5950087883e+02 stress_55
                      4.0852582263e+02 stress_56
                      4.2338336856e+02 stress_57
                      3.3731471530e+02 stress_58
                      2.3690297665e+01 stress_59
                     -3.1295141256e+02 stress_60
                     -4.6933971991e+02 stress_61
                     -5.2005026677e+02 stress_62
                     -5.3129141865e+02 stress_63
                     -2.6359927584e+02 stress_64
                      1.1408404013e+02 stress_65
                      2.0134550299e+02 stress_66
                     -6.9803720295e+01 stress_67
                     -4.3434416460e+02 stress_68
                     -5.3023553362e+02 stress_69
                     -5.3136742157e+02 stress_70
                     -4.3629539453e+02 stress_71
                     -2.6452122539e+02 stress_72
                     -4.1230766137e+01 stress_73
                      1.7032636833e+02 stress_74
                      3.1396083311e+02 stress_75
                      3.9346569420e+02 stress_76
                      4.3684895806e+02 stress_77
                      4.6320376154e+02 stress_78
                      4.8162083626e+02 stress_79
                      4.9604590604e+02 stress_80
                      5.0815417758e+02 stress_81
                      5.1862901918e+02 stress_82
                      5.2771017525e+02 stress_83
                      5.3543876426e+02 stress_84
                      5.4176746864e+02 stress_85
                      5.4662152631e+02 stress_86
                      5.4992701443e+02 stress_87
                      5.5162421982e+02 stress_88
                      4.7814930888e+02 stress_89
                      4.4795557591e+01 stress_90
                     -1.5942240179e+02 stress_91
                      1.2968594756e+02 stress_92
                      4.7186355579e+02 stress_93
                      4.7820826982e+02 stress_94
                      4.1821104865e+02 stress_95
                      3.1037428303e+02 stress_96
                      1.5999585263e+02 stress_97
                     -1.5451047332e+01 stress_98
                     -1.8247477291e+02 stress_99
                     -3.1041529971e+02 stress_100
                     -3.9374258387e+02 stress_101
                     -4.4473579190e+02 stress_102
                     -4.7682797783e+02 stress_103
                     -4.9876840791e+02 stress_104
                     -5.1535638536e+02 stress_105
                     -5.2909341944e+02 stress_106
                     -5.4126757170e+02 stress_107
                     -5.5253928140e+02 stress_108
                     -5.6323959752e+02 stress_109
                     -5.7352257881e+02 stress_110
                     -5.8344394834e+02 stress_111
                     -5.9300311719e+02 stress_112
                     -6.0216907505e+02 stress_113
                     -6.1089312782e+02 stress_114
                     -6.1911692635e+02 stress_115
                     -6.2677864690e+02 stress_116
                     -6.3381543822e+02 stress_117
                     -6.4016834075e+02 stress_118
                     -6.4578168652e+02 stress_119
                     -6.5060392640e+02 stress_120
                     -6.5459232488e+02 stress_121
                     -6.5770968639e+02 stress_122
                     -6.5992667856e+02 stress_123
                     -6.6122346918e+02 stress_124
                     -6.6157182033e+02 stress_125
                     -5.5934218052e+02 stress_126
                     -3.0882776823e+02 stress_127
                     -7.5476166679e-01 stress_128
                      2.1937050263e+02 stress_129
                      3.2827010989e+02 stress_130
                      3.7864257602e+02 stress_131
                      4.0315839443e+02 stress_132
                      4.1429383270e+02 stress_133
                      4.1491520246e+02 stress_134
                      1.1259376005e+01 stress_135
                     -1.0583914776e+01 stress_136
                      1.7417440399e+02 stress_137
                      1.3815963001e+02 stress_138
                     -3.3635227551e+01 stress_139
                     -3.2030364143e+02 stress_140
                     -5.3011239417e+02 stress_141
                     -6.1455320533e+02 stress_142
                     -6.4744185089e+02 stress_143
                     -6.6245789096e+02 stress_144
                     -6.6867395316e+02 stress_145
                     -6.4834388625e+02 stress_146
                     -4.1094678238e+02 stress_147
                     -5.9306421973e+01 stress_148
                      1.9432138912e+02 stress_149
                      3.0663184150e+02 stress_150
                      3.4789081436e+02 stress_151
                      3.5297186544e+02 stress_152
                      1.3729935300e+02 stress_153
                     -2.2935248407e+02 stress_154
                     -4.9091740956e+02 stress_155
                     -5.8885105723e+02 stress_156
                     -6.1645198143e+02 stress_157
                     -4.9413370371e+02 stress_158
                     -8.9061587089e+01 stress_159
                      9.4984827338e+01 stress_160
                     -7.1229717158e+01 stress_161
                     -4.6268595490e+02 stress_162
                     -6.1926165350e+02 stress_163
                     -6.3078299095e+02 stress_164
                     -5.8916423793e+02 stress_165
                     -5.0714421471e+02 stress_166
                     -3.8665590725e+02 stress_167
                     -2.3454904372e+02 stress_168
                     -6.7946197392e+01 stress_169
                      8.7090227936e+01 stress_170
                      2.0922959003e+02 stress_171
                      2.9403191924e+02 stress_172
                      3.4956135429e+02 stress_173
                      3.8613218893e+02 stress_174
                      4.1148194536e+02 stress_175
                      4.3040467547e+02 stress_176
                      4.4566647858e+02 stress_177
                      4.5882981293e+02 stress_178
                      4.7077240030e+02 stress_179
                      4.8198729686e+02 stress_180
                      4.9274812992e+02 stress_181
                      5.0319945186e+02 stress_182
                      5.1341022814e+02 stress_183
                      5.2340249567e+02 stress_184
                      5.3317018598e+02 stress_185
                      5.4268914924e+02 stress_186
                      5.5192431956e+02 stress_187
                      5.6083440955e+02 stress_188
                      5.6937404926e+02 stress_189
                      5.7749684162e+02 stress_190
                      5.8515644180e+02 stress_191
                      5.9230658301e+02 stress_192
                      5.9890482489e+02 stress_193
                      6.0491009568e+02 stress_194
                      6.1028392465e+02 stress_195
                      6.1499330420e+02 stress_196
                      6.1900718725e+02 stress_197
                      6.2230060106e+02 stress_198
                      6.2485237892e+02 stress_199
                      6.2664523446e+02 stress_200
                      6.2766820829e+02 stress_201
                      6.2771831573e+02 stress_202
                      2.6647001791e+02 stress_203
                     -7.9136835054e+01 stress_204
                      2.9412487653e+01 stress_205
                      4.6472471950e+02 stress_206
                      4.8350598854e+02 stress_207
                      4.1890106758e+02 stress_208
                      3.0213184334e+02 stress_209
                      1.4037684656e+02 stress_210
                     -4.3218511217e+01 stress_211
                     -2.0909634349e+02 stress_212
                     -3.2871657629e+02 stress_213
                     -4.0331144228e+02 stress_214
                     -4.4833706512e+02 stress_215
                     -4.7703896700e+02 stress_216
                     -4.9723084456e+02 stress_217
                     -5.1299821478e+02 stress_218
                     -5.2640716877e+02 stress_219
                     -5.3849551824e+02 stress_220
                     -5.4977845041e+02 stress_221
                     -5.6049814809e+02 stress_222
                     -5.7075102601e+02 stress_223
                     -5.8055306860e+02 stress_224
                     -5.8987649745e+02 stress_225
                     -5.9866909377e+02 stress_226
                     -6.0686628847e+02 stress_227
                     -6.1439993015e+02 stress_228
                     -6.2119964963e+02 stress_229
                     -6.2720076326e+02 stress_230
                     -6.3234343723e+02 stress_231
                     -6.3657364028e+02 stress_232
                     -6.3984896320e+02 stress_233
                     -6.4213466996e+02 stress_234
                     -6.4340559073e+02 stress_235
                     -6.3693538660e+02 stress_236
                     -2.7306502248e+02 stress_237
                      2.3087134261e+01 stress_238
                     -1.9639748052e+02 stress_239
                     -4.4702279268e+02 stress_240
                     -1.1668891162e+02 stress_241
                      6.0537815180e+01 stress_242
                     -2.7132075936e+02 stress_243
                     -3.9552186272e+02 stress_244
                     -5.0463368092e+02 stress_245
                     -3.2018175950e+02 stress_246
                      1.4840995119e+01 stress_247
                      2.7746816023e+02 stress_248
                      3.9156542139e+02 stress_249
                      4.3406829273e+02 stress_250
                      4.4629453183e+02 stress_251
                      3.4123123759e+02 stress_252
                      2.0177861523e+01 stress_253
                     -3.1500311954e+02 stress_254
                     -4.8575188466e+02 stress_255
                     -5.4730890521e+02 stress_256
                     -5.5963975452e+02 stress_257
                     -2.8306130285e+02 stress_258
                      9.7590907283e+01 stress_259
                      2.1662384500e+02 stress_260
                      2.6297508158e+00 stress_261
                     -3.6351678749e+02 stress_262
                     -5.2211856116e+02 stress_263
                     -5.4405094103e+02 stress_264
                     -5.0215074268e+02 stress_265
                     -4.0823305575e+02 stress_266
                     -2.6578998649e+02 stress_267
                     -8.8145773479e+01 stress_268
                      9.4044888440e+01 stress_269
                      2.4408985739e+02 stress_270
                      3.4658362945e+02 stress_271
                      4.1020532721e+02 stress_272
                      4.4971401970e+02 stress_273
                      4.7593804486e+02 stress_274
                      4.9508848765e+02 stress_275
                      5.1044722237e+02 stress_276
                      5.2371425603e+02 stress_277
                      5.3576396008e+02 stress_278
                      5.4703890902e+02 stress_279
                      5.5775050644e+02 stress_280
                      5.6798319679e+02 stress_281
                      5.7775042956e+02 stress_282
                      5.8702533197e+02 stress_283
                      5.9575957124e+02 stress_284
                      6.0389255401e+02 stress_285
                      6.1136018340e+02 stress_286
                      6.1809799531e+02 stress_287
                      6.2404361892e+02 stress_288
                      6.2914146105e+02 stress_289
                      6.3334195814e+02 stress_290
                      6.3660307988e+02 stress_291
                      6.3889302986e+02 stress_292
                      6.4018817991e+02 stress_293
                      6.4020730390e+02 stress_294
                      2.6708538099e+02 stress_295
                     -7.0755674090e+01 stress_296
                      5.9414673080e+01 stress_297
                      4.7958613668e+02 stress_298
                      4.9416088738e+02 stress_299
                      4.5079143661e+02 stress_300
                      3.7269344009e+02 stress_301
                      2.6157937669e+02 stress_302
                      1.2360243687e+02 stress_303
                     -2.6808350730e+01 stress_304
                     -1.6765353868e+02 stress_305
                     -2.8050426737e+02 stress_306
                     -3.6053843381e+02 stress_307
                     -4.1388728166e+02 stress_308
                     -4.4939367638e+02 stress_309
                     -4.7405436269e+02 stress_310
                     -4.9238351865e+02 stress_311
                     -5.0706535485e+02 stress_312
                     -5.1965039443e+02 stress_313
                     -5.3103254725e+02 stress_314
                     -5.4172722871e+02 stress_315
                     -5.5203047991e+02 stress_316
                     -5.6210975583e+02 stress_317
                     -5.7205450865e+02 stress_318
                     -5.8190641333e+02 stress_319
                     -5.9167744725e+02 stress_320
                     -6.0135994141e+02 stress_321
                     -6.1093430993e+02 stress_322
                     -6.2037239701e+02 stress_323
                     -6.2964124019e+02 stress_324
                     -6.3870509476e+02 stress_325
                     -6.4752540712e+02 stress_326
                     -6.5606411034e+02 stress_327
                     -6.6428140747e+02 stress_328
                     -6.7213990765e+02 stress_329
                     -6.7960244413e+02 stress_330
                     -6.8663271294e+02 stress_331
                     -6.9319726782e+02 stress_332
                     -6.9926356102e+02 stress_333
                     -7.0480215941e+02 stress_334
                     -7.0978635037e+02 stress_335
                     -7.1419000388e+02 stress_336
                     -7.1799267311e+02 stress_337
                     -7.2117485596e+02 stress_338
                     -7.2372057842e+02 stress_339
                     -7.2561767376e+02 stress_340
                     -7.2685643372e+02 stress_341
                     -7.2743045274e+02 stress_342


Active response data for evaluation 90:
Active set vector = { 1 1 1 1 1 1 1 1 1 1 1 1 1 1 1 1 1 1 1 1 1 1 1 1 1 1 1 1 1 1 1 1 1 1 1 1 1 1 1 1 1 1 1 1 1 1 1 1 1 1 1 1 1 1 1 1 1 1 1 1 1 1 1 1 1 1 1 1 1 1 1 1 1 1 1 1 1 1 1 1 1 1 1 1 1 1 1 1 1 1 1 1 1 1 1 1 1 1 1 1 1 1 1 1 1 1 1 1 1 1 1 1 1 1 1 1 1 1 1 1 1 1 1 1 1 1 1 1 1 1 1 1 1 1 1 1 1 1 1 1 1 1 1 1 1 1 1 1 1 1 1 1 1 1 1 1 1 1 1 1 1 1 1 1 1 1 1 1 1 1 1 1 1 1 1 1 1 1 1 1 1 1 1 1 1 1 1 1 1 1 1 1 1 1 1 1 1 1 1 1 1 1 1 1 1 1 1 1 1 1 1 1 1 1 1 1 1 1 1 1 1 1 1 1 1 1 1 1 1 1 1 1 1 1 1 1 1 1 1 1 1 1 1 1 1 1 1 1 1 1 1 1 1 1 1 1 1 1 1 1 1 1 1 1 1 1 1 1 1 1 1 1 1 1 1 1 1 1 1 1 1 1 1 1 1 1 1 1 1 1 1 1 1 1 1 1 1 1 1 1 1 1 1 1 1 1 1 1 1 1 1 1 1 1 1 1 1 1 1 1 1 1 1 1 1 1 1 1 1 1 1 1 1 1 1 1 1 1 1 1 1 1 }
                      2.4136126976e+00 stress_1
                     -2.5084202924e+02 stress_2
                     -4.9368972633e+02 stress_3
                     -4.9527070816e+02 stress_4
                     -1.6775377645e+02 stress_5
                      2.4576551447e+02 stress_6
                      3.9302085042e+02 stress_7
                      3.9390620515e+02 stress_8
                      1.4526475561e+02 stress_9
                     -2.3119340796e+02 stress_10
                     -4.3442921113e+02 stress_11
                     -4.8581931601e+02 stress_12
                     -5.0089611178e+02 stress_13
                     -5.0197615106e+02 stress_14
                     -1.7257341547e+02 stress_15
                     -3.3995422870e+02 stress_16
                     -5.0757933936e+02 stress_17
                     -3.1348907524e+02 stress_18
                      2.1013913316e+01 stress_19
                      2.9612167215e+02 stress_20
                      4.1631352238e+02 stress_21
                      4.6189444189e+02 stress_22
                      4.8086379392e+02 stress_23
                      4.8714005516e+02 stress_24
                      1.5768349115e+02 stress_25
                      2.8535148683e+02 stress_26
                      4.2844704701e+02 stress_27
                      4.6354133021e+02 stress_28
                      3.4110094745e+02 stress_29
                      1.2831688463e+02 stress_30
                     -1.2413490110e+02 stress_31
                     -3.1893177008e+02 stress_32
                     -4.2284668747e+02 stress_33
                     -4.7306494677e+02 stress_34
                     -5.0042809413e+02 stress_35
                     -5.1826209288e+02 stress_36
                     -5.3155555565e+02 stress_37
                     -5.4211840493e+02 stress_38
                     -5.5055987923e+02 stress_39
                     -5.5702377959e+02 stress_40
                     -5.6149362162e+02 stress_41
                     -5.6390792039e+02 stress_42
                     -5.4849476642e+02 stress_43
                     -1.6245443759e+02 stress_44
                      1.0485494908e+02 stress_45
                     -1.0062708035e+02 stress_46
                     -4.4919622920e+02 stress_47
                     -1.5372367101e+02 stress_48
                     -2.5630251955e+02 stress_49
                     -4.1541923650e+02 stress_50
                     -5.6633867685e+02 stress_51
                     -3.9693949975e+02 stress_52
                     -6.0081568915e+01 stress_53
                      2.2712718163e+02 stress_54
                      3.5838005616e+02 stress_55
                      4.0761423242e+02 stress_56
                      4.2256490670e+02 stress_57
                      3.3649719104e+02 stress_58
                      2.3078455956e+01 stress_59
                     -3.1256923031e+02 stress_60
                     -4.6860577974e+02 stress_61
                     -5.1939261299e+02 stress_62
                     -5.3067308217e+02 stress_63
                     -2.6306077127e+02 stress_64
                      1.1370210461e+02 stress_65
                      2.0066636949e+02 stress_66
                     -7.0444772025e+01 stress_67
                     -4.3417409562e+02 stress_68
                     -5.2986869754e+02 stress_69
                     -5.3100087416e+02 stress_70
                     -4.3593149578e+02 stress_71
                     -2.6423303600e+02 stress_72
                     -4.1344680961e+01 stress_73
                      1.6955768369e+02 stress_74
                      3.1292109817e+02 stress_75
                      3.9256977649e+02 stress_76
                      4.3619019493e+02 stress_77
                      4.6273600448e+02 stress_78
                      4.8128300267e+02 stress_79
                      4.9579199259e+02 stress_80
                      5.0795362107e+02 stress_81
                      5.1846218101e+02 stress_82
                      5.2756450684e+02 stress_83
                      5.3530623945e+02 stress_84
                      5.4164294707e+02 stress_85
                      5.4650171767e+02 stress_86
                      5.4980979416e+02 stress_87
                      5.5150814999e+02 stress_88
                      4.7803426497e+02 stress_89
                      4.5155678472e+01 stress_90
                     -1.5846513029e+02 stress_91
                      1.3062679313e+02 stress_92
                      4.7189178946e+02 stress_93
                      4.7820368614e+02 stress_94
                      4.1820707357e+02 stress_95
                      3.1038846089e+02 stress_96
                      1.6013170922e+02 stress_97
                     -1.4963384681e+01 stress_98
                     -1.8150836790e+02 stress_99
                     -3.0919293810e+02 stress_100
                     -3.9258621756e+02 stress_101
                     -4.4379606895e+02 stress_102
                     -4.7611080541e+02 stress_103
                     -4.9822866527e+02 stress_104
                     -5.1494529209e+02 stress_105
                     -5.2877203356e+02 stress_106
                     -5.4100762439e+02 stress_107
                     -5.5232090926e+02 stress_108
                     -5.6304895668e+02 stress_109
                     -5.7335000620e+02 stress_110
                     -5.8328266943e+02 stress_111
                     -5.9284836816e+02 stress_112
                     -6.0201751233e+02 stress_113
                     -6.1074242663e+02 stress_114
                     -6.1896550595e+02 stress_115
                     -6.2662547957e+02 stress_116
                     -6.3365991420e+02 stress_117
                     -6.4001016964e+02 stress_118
                     -6.4562082467e+02 stress_119
                     -6.5044052213e+02 stress_120
                     -6.5442667353e+02 stress_121
                     -6.5754219560e+02 stress_122
                     -6.5975783822e+02 stress_123
                     -6.6105382426e+02 stress_124
                     -6.6140195742e+02 stress_125
                     -5.5917545505e+02 stress_126
                     -3.0882167510e+02 stress_127
                     -1.4874424012e+00 stress_128
                      2.1811395281e+02 stress_129
                      3.2714737328e+02 stress_130
                      3.7778092788e+02 stress_131
                      4.0247631958e+02 stress_132
                      4.1370099558e+02 stress_133
                      4.1432741343e+02 stress_134
                      1.0876718182e+01 stress_135
                     -1.0929786583e+01 stress_136
                      1.7371808898e+02 stress_137
                      1.3770340716e+02 stress_138
                     -3.4049299014e+01 stress_139
                     -3.2014439142e+02 stress_140
                     -5.2932143627e+02 stress_141
                     -6.1384382213e+02 stress_142
                     -6.4689994874e+02 stress_143
                     -6.6200998748e+02 stress_144
                     -6.6826370376e+02 stress_145
                     -6.4793364969e+02 stress_146
                     -4.1059941104e+02 stress_147
                     -5.9663213818e+01 stress_148
                      1.9321987169e+02 stress_149
                      3.0551947193e+02 stress_150
                      3.4690715815e+02 stress_151
                      3.5201069766e+02 stress_152
                      1.3635946647e+02 stress_153
                     -2.2970481751e+02 stress_154
                     -4.9033234602e+02 stress_155
                     -5.8811469570e+02 stress_156
                     -6.1574946755e+02 stress_157
                     -4.9343760583e+02 stress_158
                     -8.8953241272e+01 stress_159
                      9.4459560168e+01 stress_160
                     -7.1751348855e+01 stress_161
                     -4.6268475533e+02 stress_162
                     -6.1883860247e+02 stress_163
                     -6.3035700506e+02 stress_164
                     -5.8873841687e+02 stress_165
                     -5.0672462357e+02 stress_166
                     -3.8628739257e+02 stress_167
                     -2.3437466375e+02 stress_168
                     -6.8186158844e+01 stress_169
                      8.6348006873e+01 stress_170
                      2.0817427446e+02 stress_171
                      2.9294875366e+02 stress_172
                      3.4862555176e+02 stress_173
                      3.8539236121e+02 stress_174
                      4.1092158813e+02 stress_175
                      4.2998787592e+02 stress_176
                      4.4535782522e+02 stress_177
                      4.5860030495e+02 stress_178
                      4.7059988438e+02 stress_179
                      4.8185531897e+02 stress_180
                      4.9264458472e+02 stress_181
                      5.0311543893e+02 stress_182
                      5.1333918753e+02 stress_183
                      5.2333957623e+02 stress_184
                      5.3311179423e+02 stress_185
                      5.4263262666e+02 stress_186
                      5.5186771192e+02 stress_187
                      5.6077630039e+02 stress_188
                      5.6931343863e+02 stress_189
                      5.7743305661e+02 stress_190
                      5.8508906952e+02 stress_191
                      5.9223542031e+02 stress_192
                      5.9882983808e+02 stress_193
                      6.0483139021e+02 stress_194
                      6.1020172056e+02 stress_195
                      6.1490791440e+02 stress_196
                      6.1891900150e+02 stress_197
                      6.2221006973e+02 stress_198
                      6.2476000016e+02 stress_199
                      6.2655154274e+02 stress_200
                      6.2757376206e+02 stress_201
                      6.2762383244e+02 stress_202
                      2.6654405319e+02 stress_203
                     -7.8212182315e+01 stress_204
                      3.0337124066e+01 stress_205
                      4.6520129285e+02 stress_206
                      4.8389549436e+02 stress_207
                      4.1929144719e+02 stress_208
                      3.0254689869e+02 stress_209
                      1.4094522369e+02 stress_210
                     -4.2262998679e+01 stress_211
                     -2.0773545488e+02 stress_212
                     -3.2727991722e+02 stress_213
                     -4.0209137968e+02 stress_214
                     -4.4740885039e+02 stress_215
                     -4.7636056553e+02 stress_216
                     -4.9673635481e+02 stress_217
                     -5.1263156581e+02 stress_218
                     -5.2612744665e+02 stress_219
                     -5.3827433929e+02 stress_220
                     -5.4959639272e+02 stress_221
                     -5.6034190836e+02 stress_222
                     -5.7061144071e+02 stress_223
                     -5.8042379228e+02 stress_224
                     -5.8975313095e+02 stress_225
                     -5.9854860493e+02 stress_226
                     -6.0674662350e+02 stress_227
                     -6.1427974808e+02 stress_228
                     -6.2107813720e+02 stress_229
                     -6.2707750243e+02 stress_230
                     -6.3221830796e+02 stress_231
                     -6.3644674752e+02 stress_232
                     -6.3972057777e+02 stress_233
                     -6.4200518183e+02 stress_234
                     -6.4327546886e+02 stress_235
                     -6.3680526496e+02 stress_236
                     -2.7310964491e+02 stress_237
                      2.2343044340e+01 stress_238
                     -1.9704089716e+02 stress_239
                     -4.4687100880e+02 stress_240
                     -1.1671955544e+02 stress_241
                      6.0091993809e+01 stress_242
                     -2.7146811363e+02 stress_243
                     -3.9526521246e+02 stress_244
                     -5.0400585190e+02 stress_245
                     -3.1958166234e+02 stress_246
                      1.4843335955e+01 stress_247
                      2.7660554007e+02 stress_248
                      3.9066288447e+02 stress_249
                      4.3331563183e+02 stress_250
                      4.4560705659e+02 stress_251
                      3.4054677511e+02 stress_252
                      1.9775695254e+01 stress_253
                     -3.1435405020e+02 stress_254
                     -4.8467678250e+02 stress_255
                     -5.4628178709e+02 stress_256
                     -5.5864530571e+02 stress_257
                     -2.8215728910e+02 stress_258
                      9.7497001182e+01 stress_259
                      2.1606850525e+02 stress_260
                      2.1263520022e+00 stress_261
                     -3.6311351699e+02 stress_262
                     -5.2127041046e+02 stress_263
                     -5.4319552745e+02 stress_264
                     -5.0129551149e+02 stress_265
                     -4.0738713584e+02 stress_266
                     -2.6502970226e+02 stress_267
                     -8.7709047573e+01 stress_268
                      9.3879818066e+01 stress_269
                      2.4337999095e+02 stress_270
                      3.4567955758e+02 stress_271
                      4.0937751377e+02 stress_272
                      4.4905281964e+02 stress_273
                      4.7543726222e+02 stress_274
                      4.9471408877e+02 stress_275
                      5.1016497311e+02 stress_276
                      5.2349690202e+02 stress_277
                      5.3559142625e+02 stress_278
                      5.4689682199e+02 stress_279
                      5.5762866733e+02 stress_280
                      5.6787438244e+02 stress_281
                      5.7764952986e+02 stress_282
                      5.8692874753e+02 stress_283
                      5.9566479629e+02 stress_284
                      6.0379788537e+02 stress_285
                      6.1126451579e+02 stress_286
                      6.1800067424e+02 stress_287
                      6.2394433340e+02 stress_288
                      6.2904016236e+02 stress_289
                      6.3323879739e+02 stress_290
                      6.3649835814e+02 stress_291
                      6.3878715591e+02 stress_292
                      6.4008163481e+02 stress_293
                      6.4010074879e+02 stress_294
                      2.6716042727e+02 stress_295
                     -6.9841559841e+01 stress_296
                      6.0328671353e+01 stress_297
                      4.7996808388e+02 stress_298
                      4.9447270641e+02 stress_299
                      4.5110347899e+02 stress_300
                      3.7301216418e+02 stress_301
                      2.6194599612e+02 stress_302
                      1.2413508058e+02 stress_303
                     -2.5945768282e+01 stress_304
                     -1.6642107749e+02 stress_305
                     -2.7908475389e+02 stress_306
                     -3.5918085189e+02 stress_307
                     -4.1273683079e+02 stress_308
                     -4.4848054112e+02 stress_309
                     -4.7335025265e+02 stress_310
                     -4.9184436352e+02 stress_311
                     -5.0664993536e+02 stress_312
                     -5.1932553517e+02 stress_313
                     -5.3077310906e+02 stress_314
                     -5.4151460625e+02 stress_315
                     -5.5185099670e+02 stress_316
                     -5.6195334702e+02 stress_317
                     -5.7191372900e+02 stress_318
                     -5.8177572045e+02 stress_319
                     -5.9155269054e+02 stress_320
                     -6.0123799813e+02 stress_321
                     -6.1081282621e+02 stress_322
                     -6.2024960175e+02 stress_323
                     -6.2951581046e+02 stress_324
                     -6.3857605710e+02 stress_325
                     -6.4739206517e+02 stress_326
                     -6.5592598974e+02 stress_327
                     -6.6413821554e+02 stress_328
                     -6.7199150059e+02 stress_329
                     -6.7944880268e+02 stress_330
                     -6.8647392312e+02 stress_331
                     -6.9303350426e+02 stress_332
                     -6.9909507472e+02 stress_333
                     -7.0462926609e+02 stress_334
                     -7.0960942080e+02 stress_335
                     -7.1400945732e+02 stress_336
                     -7.1780896757e+02 stress_337
                     -7.2098848309e+02 stress_338
                     -7.2353205689e+02 stress_339
                     -7.2542754281e+02 stress_340
                     -7.2666524820e+02 stress_341
                     -7.2723877758e+02 stress_342


Active response data for evaluation 91:
Active set vector = { 1 1 1 1 1 1 1 1 1 1 1 1 1 1 1 1 1 1 1 1 1 1 1 1 1 1 1 1 1 1 1 1 1 1 1 1 1 1 1 1 1 1 1 1 1 1 1 1 1 1 1 1 1 1 1 1 1 1 1 1 1 1 1 1 1 1 1 1 1 1 1 1 1 1 1 1 1 1 1 1 1 1 1 1 1 1 1 1 1 1 1 1 1 1 1 1 1 1 1 1 1 1 1 1 1 1 1 1 1 1 1 1 1 1 1 1 1 1 1 1 1 1 1 1 1 1 1 1 1 1 1 1 1 1 1 1 1 1 1 1 1 1 1 1 1 1 1 1 1 1 1 1 1 1 1 1 1 1 1 1 1 1 1 1 1 1 1 1 1 1 1 1 1 1 1 1 1 1 1 1 1 1 1 1 1 1 1 1 1 1 1 1 1 1 1 1 1 1 1 1 1 1 1 1 1 1 1 1 1 1 1 1 1 1 1 1 1 1 1 1 1 1 1 1 1 1 1 1 1 1 1 1 1 1 1 1 1 1 1 1 1 1 1 1 1 1 1 1 1 1 1 1 1 1 1 1 1 1 1 1 1 1 1 1 1 1 1 1 1 1 1 1 1 1 1 1 1 1 1 1 1 1 1 1 1 1 1 1 1 1 1 1 1 1 1 1 1 1 1 1 1 1 1 1 1 1 1 1 1 1 1 1 1 1 1 1 1 1 1 1 1 1 1 1 1 1 1 1 1 1 1 1 1 1 1 1 1 1 1 1 1 1 }
                      2.4136126976e+00 stress_1
                     -2.5084203553e+02 stress_2
                     -4.9369022927e+02 stress_3
                     -4.9527084348e+02 stress_4
                     -1.6772553100e+02 stress_5
                      2.4630399552e+02 stress_6
                      3.9367026139e+02 stress_7
                      3.9455462685e+02 stress_8
                      1.4589774144e+02 stress_9
                     -2.3112879017e+02 stress_10
                     -4.3483739306e+02 stress_11
                     -4.8608405429e+02 stress_12
                     -5.0107645544e+02 stress_13
                     -5.0215025074e+02 stress_14
                     -1.7264328276e+02 stress_15
                     -3.4002410843e+02 stress_16
                     -5.0764384771e+02 stress_17
                     -3.1353648696e+02 stress_18
                      2.1390379326e+01 stress_19
                      2.9714523232e+02 stress_20
                      4.1720272900e+02 stress_21
                      4.6252506844e+02 stress_22
                      4.8135028534e+02 stress_23
                      4.8757697546e+02 stress_24
                      1.5799671742e+02 stress_25
                      2.8566471888e+02 stress_26
                      4.2877858944e+02 stress_27
                      4.6389142618e+02 stress_28
                      3.4144645961e+02 stress_29
                      1.2853035227e+02 stress_30
                     -1.2449747851e+02 stress_31
                     -3.1982700701e+02 stress_32
                     -4.2369672457e+02 stress_33
                     -4.7367527283e+02 stress_34
                     -5.0084351854e+02 stress_35
                     -5.1855127247e+02 stress_36
                     -5.3176639387e+02 stress_37
                     -5.4228044790e+02 stress_38
                     -5.5069124724e+02 stress_39
                     -5.5713600752e+02 stress_40
                     -5.6159451126e+02 stress_41
                     -5.6400325863e+02 stress_42
                     -5.4859010021e+02 stress_43
                     -1.6229959980e+02 stress_44
                      1.0571659188e+02 stress_45
                     -9.9766592923e+01 stress_46
                     -4.4889309561e+02 stress_47
                     -1.5330049273e+02 stress_48
                     -2.5587936930e+02 stress_49
                     -4.1502816811e+02 stress_50
                     -5.6639700988e+02 stress_51
                     -3.9698133829e+02 stress_52
                     -5.9661492283e+01 stress_53
                      2.2833093888e+02 stress_54
                      3.5955906486e+02 stress_55
                      4.0857859789e+02 stress_56
                      4.2343335705e+02 stress_57
                      3.3736468639e+02 stress_58
                      2.3736707056e+01 stress_59
                     -3.1291836999e+02 stress_60
                     -4.6930235974e+02 stress_61
                     -5.2000337306e+02 stress_62
                     -5.3124119684e+02 stress_63
                     -2.6354857087e+02 stress_64
                      1.1414042575e+02 stress_65
                      2.0140347268e+02 stress_66
                     -6.9747509683e+01 stress_67
                     -4.3431410834e+02 stress_68
                     -5.3019675506e+02 stress_69
                     -5.3132830135e+02 stress_70
                     -4.3625625689e+02 stress_71
                     -2.6448153019e+02 stress_72
                     -4.1187617726e+01 stress_73
                      1.7037652330e+02 stress_74
                      3.1401516015e+02 stress_75
                      3.9351784986e+02 stress_76
                      4.3689470168e+02 stress_77
                      4.6324110421e+02 stress_78
                      4.8164897555e+02 stress_79
                      4.9606465271e+02 stress_80
                      5.0816372810e+02 stress_81
                      5.1862986511e+02 stress_82
                      5.2770305895e+02 stress_83
                      5.3542464595e+02 stress_84
                      5.4174749830e+02 stress_85
                      5.4659700975e+02 stress_86
                      5.4989937780e+02 stress_87
                      5.5159497439e+02 stress_88
                      4.7812005964e+02 stress_89
                      4.4764882315e+01 stress_90
                     -1.5945380888e+02 stress_91
                      1.2965546202e+02 stress_92
                      4.7186734506e+02 stress_93
                      4.7821241981e+02 stress_94
                      4.1821519529e+02 stress_95
                      3.1037831677e+02 stress_96
                      1.5999900485e+02 stress_97
                     -1.5451014043e+01 stress_98
                     -1.8248040119e+02 stress_99
                     -3.1042603600e+02 stress_100
                     -3.9375473599e+02 stress_101
                     -4.4474547938e+02 stress_102
                     -4.7683251589e+02 stress_103
                     -4.9876615376e+02 stress_104
                     -5.1534633012e+02 stress_105
                     -5.2907491729e+02 stress_106
                     -5.4124020101e+02 stress_107
                     -5.5250277803e+02 stress_108
                     -5.6319382295e+02 stress_109
                     -5.7346750413e+02 stress_110
                     -5.8337964604e+02 stress_111
                     -5.9292975683e+02 stress_112
                     -6.0208691818e+02 stress_113
                     -6.1080252417e+02 stress_114
                     -6.1901831013e+02 stress_115
                     -6.2667253182e+02 stress_116
                     -6.3370241299e+02 stress_117
                     -6.4004906156e+02 stress_118
                     -6.4565687123e+02 stress_119
                     -6.5047434869e+02 stress_120
                     -6.5445880420e+02 stress_121
                     -6.5757308158e+02 stress_122
                     -6.5978787926e+02 stress_123
                     -6.6108338584e+02 stress_124
                     -6.6143139201e+02 stress_125
                     -5.5920174612e+02 stress_126
                     -3.0868707889e+02 stress_127
                     -6.1370027867e-01 stress_128
                      2.1950827368e+02 stress_129
                      3.2840051848e+02 stress_130
                      3.7876498607e+02 stress_131
                      4.0327434202e+02 stress_132
                      4.1440592994e+02 stress_133
                      4.1502706416e+02 stress_134
                      1.1368875097e+01 stress_135
                     -1.0474823278e+01 stress_136
                      1.7428378710e+02 stress_137
                      1.3826901199e+02 stress_138
                     -3.3526335187e+01 stress_139
                     -3.2020041497e+02 stress_140
                     -5.3000991010e+02 stress_141
                     -6.1443982411e+02 stress_142
                     -6.4731749651e+02 stress_143
                     -6.6232581181e+02 stress_144
                     -6.6853802298e+02 stress_145
                     -6.4820795604e+02 stress_146
                     -4.1081072472e+02 stress_147
                     -5.9169309590e+01 stress_148
                      1.9445714459e+02 stress_149
                      3.0676245790e+02 stress_150
                      3.4801709511e+02 stress_151
                      3.5309743585e+02 stress_152
                      1.3742448200e+02 stress_153
                     -2.2923805975e+02 stress_154
                     -4.9081266479e+02 stress_155
                     -5.8873833465e+02 stress_156
                     -6.1633328839e+02 stress_157
                     -4.9401499163e+02 stress_158
                     -8.8940706583e+01 stress_159
                      9.5108356943e+01 stress_160
                     -7.1106374961e+01 stress_161
                     -4.6258285743e+02 stress_162
                     -6.1915602772e+02 stress_163
                     -6.3067402825e+02 stress_164
                     -5.8905527469e+02 stress_165
                     -5.0703522815e+02 stress_166
                     -3.8654669986e+02 stress_167
                     -2.3443884008e+02 stress_168
                     -6.7833372122e+01 stress_169
                      8.7207188404e+01 stress_170
                      2.0935027265e+02 stress_171
                      2.9415388716e+02 stress_172
                      3.4968167479e+02 stress_173
                      3.8624847822e+02 stress_174
                      4.1159252620e+02 stress_175
                      4.3050840094e+02 stress_176
                      4.4576254776e+02 stress_177
                      4.5891764791e+02 stress_178
                      4.7085157643e+02 stress_179
                      4.8205750362e+02 stress_180
                      4.9280914925e+02 stress_181
                      5.0325114720e+02 stress_182
                      5.1345253717e+02 stress_183
                      5.2343542678e+02 stress_184
                      5.3319381506e+02 stress_185
                      5.4270361782e+02 stress_186
                      5.5192983279e+02 stress_187
                      5.6083123387e+02 stress_188
                      5.6936251067e+02 stress_189
                      5.7747732277e+02 stress_190
                      5.8512937917e+02 stress_191
                      5.9227246487e+02 stress_192
                      5.9886418609e+02 stress_193
                      6.0486351521e+02 stress_194
                      6.1023202234e+02 stress_195
                      6.1493673466e+02 stress_196
                      6.1894663749e+02 stress_197
                      6.2223678407e+02 stress_198
                      6.2478602960e+02 stress_199
                      6.2657710554e+02 stress_200
                      6.2759906382e+02 stress_201
                      6.2764912151e+02 stress_202
                      2.6640063068e+02 stress_203
                     -7.9206126919e+01 stress_204
                      2.9343196650e+01 stress_205
                      4.6467416114e+02 stress_206
                      4.8345844065e+02 stress_207
                      4.1885351735e+02 stress_208
                      3.0208421665e+02 stress_209
                      1.4032864718e+02 stress_210
                     -4.3268554289e+01 stress_211
                     -2.0914908226e+02 stress_212
                     -3.2877047505e+02 stress_213
                     -4.0336340731e+02 stress_214
                     -4.4838435242e+02 stress_215
                     -4.7707972360e+02 stress_216
                     -4.9726389190e+02 stress_217
                     -5.1302279041e+02 stress_218
                     -5.2642277354e+02 stress_219
                     -5.3850183994e+02 stress_220
                     -5.4977532602e+02 stress_221
                     -5.6048554550e+02 stress_222
                     -5.7072903371e+02 stress_223
                     -5.8052188953e+02 stress_224
                     -5.8983644316e+02 stress_225
                     -5.9862057945e+02 stress_226
                     -6.0680982747e+02 stress_227
                     -6.1433612636e+02 stress_228
                     -6.2112919249e+02 stress_229
                     -6.2712441740e+02 stress_230
                     -6.3226203442e+02 stress_231
                     -6.3648807140e+02 stress_232
                     -6.3976016512e+02 stress_233
                     -6.4204361668e+02 stress_234
                     -6.4331328293e+02 stress_235
                     -6.3684307881e+02 stress_236
                     -2.7297241762e+02 stress_237
                      2.3180237286e+01 stress_238
                     -1.9630505489e+02 stress_239
                     -4.4693414902e+02 stress_240
                     -1.1659988235e+02 stress_241
                      6.0627540942e+01 stress_242
                     -2.7123282986e+02 stress_243
                     -3.9543557687e+02 stress_244
                     -5.0454678392e+02 stress_245
                     -3.2009479539e+02 stress_246
                      1.4929327660e+01 stress_247
                      2.7755680749e+02 stress_248
                      3.9164923647e+02 stress_249
                      4.3414674140e+02 stress_250
                      4.4637058485e+02 stress_251
                      3.4130727406e+02 stress_252
                      2.0252518554e+01 stress_253
                     -3.1493150929e+02 stress_254
                     -4.8567606984e+02 stress_255
                     -5.4722710786e+02 stress_256
                     -5.5955611090e+02 stress_257
                     -2.8297745543e+02 stress_258
                      9.7676435130e+01 stress_259
                      2.1670926979e+02 stress_260
                      2.7148525466e+00 stress_261
                     -3.6343542674e+02 stress_262
                     -5.2203391239e+02 stress_263
                     -5.4396455093e+02 stress_264
                     -5.0206435214e+02 stress_265
                     -4.0814664318e+02 stress_266
                     -2.6570337316e+02 stress_267
                     -8.8058435663e+01 stress_268
                      9.4133314257e+01 stress_269
                      2.4417823025e+02 stress_270
                      3.4666937688e+02 stress_271
                      4.1028596808e+02 stress_272
                      4.4978786436e+02 stress_273
                      4.7600403849e+02 stress_274
                      4.9514594745e+02 stress_275
                      5.1049568596e+02 stress_276
                      5.2375341161e+02 stress_277
                      5.3579361864e+02 stress_278
                      5.4705899309e+02 stress_279
                      5.5776104547e+02 stress_280
                      5.6798432469e+02 stress_281
                      5.7774238237e+02 stress_282
                      5.8700844536e+02 stress_283
                      5.9573427620e+02 stress_284
                      6.0385937313e+02 stress_285
                      6.1131972432e+02 stress_286
                      6.1805094448e+02 stress_287
                      6.2399073513e+02 stress_288
                      6.2908356570e+02 stress_289
                      6.3327992714e+02 stress_290
                      6.3653783461e+02 stress_291
                      6.3882552585e+02 stress_292
                      6.4011939784e+02 stress_293
                      6.4013850295e+02 stress_294
                      2.6701637282e+02 stress_295
                     -7.0824612184e+01 stress_296
                      5.9345741528e+01 stress_297
                      4.7953999607e+02 stress_298
                      4.9411707855e+02 stress_299
                      4.5074762718e+02 stress_300
                      3.7264960997e+02 stress_301
                      2.6153537428e+02 stress_302
                      1.2355771879e+02 stress_303
                     -2.6854852393e+01 stress_304
                     -1.6770273969e+02 stress_305
                     -2.8055573199e+02 stress_306
                     -3.6059028058e+02 stress_307
                     -4.1393721256e+02 stress_308
                     -4.4943975206e+02 stress_309
                     -4.7409516112e+02 stress_310
                     -4.9241802438e+02 stress_311
                     -5.0709282306e+02 stress_312
                     -5.1967025715e+02 stress_313
                     -5.3104435603e+02 stress_314
                     -5.4173062290e+02 stress_315
                     -5.5202516944e+02 stress_316
                     -5.6209551125e+02 stress_317
                     -5.7203115616e+02 stress_318
                     -5.8187383177e+02 stress_319
                     -5.9163556619e+02 stress_320
                     -6.0130874049e+02 stress_321
                     -6.1087381761e+02 stress_322
                     -6.2030269040e+02 stress_323
                     -6.2956244393e+02 stress_324
                     -6.3861737977e+02 stress_325
                     -6.4742899056e+02 stress_326
                     -6.5595925315e+02 stress_327
                     -6.6416841461e+02 stress_328
                     -6.7201912472e+02 stress_329
                     -6.7947425634e+02 stress_330
                     -6.8649754370e+02 stress_331
                     -6.9305557543e+02 stress_332
                     -6.9911583748e+02 stress_333
                     -7.0464892704e+02 stress_334
                     -7.0962815889e+02 stress_335
                     -7.1402742970e+02 stress_336
                     -7.1782631350e+02 stress_337
                     -7.2100532804e+02 stress_338
                     -7.2354851553e+02 stress_339
                     -7.2544372159e+02 stress_340
                     -7.2668124781e+02 stress_341
                     -7.2725469512e+02 stress_342


Active response data for evaluation 92:
Active set vector = { 1 1 1 1 1 1 1 1 1 1 1 1 1 1 1 1 1 1 1 1 1 1 1 1 1 1 1 1 1 1 1 1 1 1 1 1 1 1 1 1 1 1 1 1 1 1 1 1 1 1 1 1 1 1 1 1 1 1 1 1 1 1 1 1 1 1 1 1 1 1 1 1 1 1 1 1 1 1 1 1 1 1 1 1 1 1 1 1 1 1 1 1 1 1 1 1 1 1 1 1 1 1 1 1 1 1 1 1 1 1 1 1 1 1 1 1 1 1 1 1 1 1 1 1 1 1 1 1 1 1 1 1 1 1 1 1 1 1 1 1 1 1 1 1 1 1 1 1 1 1 1 1 1 1 1 1 1 1 1 1 1 1 1 1 1 1 1 1 1 1 1 1 1 1 1 1 1 1 1 1 1 1 1 1 1 1 1 1 1 1 1 1 1 1 1 1 1 1 1 1 1 1 1 1 1 1 1 1 1 1 1 1 1 1 1 1 1 1 1 1 1 1 1 1 1 1 1 1 1 1 1 1 1 1 1 1 1 1 1 1 1 1 1 1 1 1 1 1 1 1 1 1 1 1 1 1 1 1 1 1 1 1 1 1 1 1 1 1 1 1 1 1 1 1 1 1 1 1 1 1 1 1 1 1 1 1 1 1 1 1 1 1 1 1 1 1 1 1 1 1 1 1 1 1 1 1 1 1 1 1 1 1 1 1 1 1 1 1 1 1 1 1 1 1 1 1 1 1 1 1 1 1 1 1 1 1 1 1 1 1 1 1 }
                      2.4136126976e+00 stress_1
                     -2.5084203064e+02 stress_2
                     -4.9369900000e+02 stress_3
                     -4.9527994531e+02 stress_4
                     -1.6773634725e+02 stress_5
                      2.4626357084e+02 stress_6
                      3.9362601992e+02 stress_7
                      3.9451047237e+02 stress_8
                      1.4585453726e+02 stress_9
                     -2.3113753117e+02 stress_10
                     -4.3482045220e+02 stress_11
                     -4.8607794029e+02 stress_12
                     -5.0107611626e+02 stress_13
                     -5.0215033290e+02 stress_14
                     -1.7264530024e+02 stress_15
                     -3.4002612255e+02 stress_16
                     -5.0764502533e+02 stress_17
                     -3.1353797828e+02 stress_18
                      2.1381136674e+01 stress_19
                      2.9712463989e+02 stress_20
                      4.1718539855e+02 stress_21
                      4.6251291520e+02 stress_22
                      4.8134095613e+02 stress_23
                      4.8756861085e+02 stress_24
                      1.5798984654e+02 stress_25
                      2.8565784758e+02 stress_26
                      4.2876992345e+02 stress_27
                      4.6387957975e+02 stress_28
                      3.4143467310e+02 stress_29
                      1.2852022297e+02 stress_30
                     -1.2450108345e+02 stress_31
                     -3.1982677266e+02 stress_32
                     -4.2370041729e+02 stress_33
                     -4.7368414837e+02 stress_34
                     -5.0085600485e+02 stress_35
                     -5.1856595845e+02 stress_36
                     -5.3178240077e+02 stress_37
                     -5.4229726118e+02 stress_38
                     -5.5070856084e+02 stress_39
                     -5.5715363058e+02 stress_40
                     -5.6161231660e+02 stress_41
                     -5.6402115293e+02 stress_42
                     -5.4860799453e+02 stress_43
                     -1.6231829783e+02 stress_44
                      1.0569721816e+02 stress_45
                     -9.9785920236e+01 stress_46
                     -4.4889724881e+02 stress_47
                     -1.5330527539e+02 stress_48
                     -2.5588415118e+02 stress_49
                     -4.1503244986e+02 stress_50
                     -5.6641627733e+02 stress_51
                     -3.9700067125e+02 stress_52
                     -5.9681958243e+01 stress_53
                      2.2831223499e+02 stress_54
                      3.5954594079e+02 stress_55
                      4.0856907065e+02 stress_56
                      4.2342508863e+02 stress_57
                      3.3735643367e+02 stress_58
                      2.3731346205e+01 stress_59
                     -3.1291605578e+02 stress_60
                     -4.6930772190e+02 stress_61
                     -5.2001645070e+02 stress_62
                     -5.3125645781e+02 stress_63
                     -2.6356414795e+02 stress_64
                      1.1412310736e+02 stress_65
                      2.0138664335e+02 stress_66
                     -6.9762728547e+01 stress_67
                     -4.3430756732e+02 stress_68
                     -5.3019915361e+02 stress_69
                     -5.3133099288e+02 stress_70
                     -4.3625896194e+02 stress_71
                     -2.6448461341e+02 stress_72
                     -4.1192610355e+01 stress_73
                      1.7036882887e+02 stress_74
                      3.1400716032e+02 stress_75
                      3.9351153612e+02 stress_76
                      4.3689022132e+02 stress_77
                      4.6323797741e+02 stress_78
                      4.8164674940e+02 stress_79
                      4.9606301433e+02 stress_80
                      5.0816247680e+02 stress_81
                      5.1862887310e+02 stress_82
                      5.2770224342e+02 stress_83
                      5.3542395167e+02 stress_84
                      5.4174688701e+02 stress_85
                      5.4659645372e+02 stress_86
                      5.4989885576e+02 stress_87
                      5.5159446876e+02 stress_88
                      4.7811955611e+02 stress_89
                      4.4763607010e+01 stress_90
                     -1.5945945519e+02 stress_91
                      1.2964899497e+02 stress_92
                      4.7183222732e+02 stress_93
                      4.7817710358e+02 stress_94
                      4.1817988140e+02 stress_95
                      3.1034307072e+02 stress_96
                      1.5996419190e+02 stress_97
                     -1.5484690518e+01 stress_98
                     -1.8251288239e+02 stress_99
                     -3.1045857515e+02 stress_100
                     -3.9378858608e+02 stress_101
                     -4.4478097303e+02 stress_102
                     -4.7686941256e+02 stress_103
                     -4.9880409041e+02 stress_104
                     -5.1538499935e+02 stress_105
                     -5.2911409650e+02 stress_106
                     -5.4127973712e+02 stress_107
                     -5.5254256712e+02 stress_108
                     -5.6323379417e+02 stress_109
                     -5.7350760863e+02 stress_110
                     -5.8341984959e+02 stress_111
                     -5.9297003507e+02 stress_112
                     -6.0212725350e+02 stress_113
                     -6.1084290360e+02 stress_114
                     -6.1905872397e+02 stress_115
                     -6.2671297270e+02 stress_116
                     -6.3374287521e+02 stress_117
                     -6.4008954064e+02 stress_118
                     -6.4569736357e+02 stress_119
                     -6.5051485137e+02 stress_120
                     -6.5449931477e+02 stress_121
                     -6.5761359792e+02 stress_122
                     -6.5982839952e+02 stress_123
                     -6.6112390832e+02 stress_124
                     -6.6147191509e+02 stress_125
                     -5.5924226981e+02 stress_126
                     -3.0872733816e+02 stress_127
                     -6.4980286746e-01 stress_128
                      2.1948302811e+02 stress_129
                      3.2838497745e+02 stress_130
                      3.7875491993e+02 stress_131
                      4.0326697213e+02 stress_132
                      4.1439972695e+02 stress_133
                      4.1502092441e+02 stress_134
                      1.1363901216e+01 stress_135
                     -1.0479655155e+01 stress_136
                      1.7427875778e+02 stress_137
                      1.3826398351e+02 stress_138
                     -3.3531120259e+01 stress_139
                     -3.2020600419e+02 stress_140
                     -5.3003162129e+02 stress_141
                     -6.1447903832e+02 stress_142
                     -6.4736542842e+02 stress_143
                     -6.6237747664e+02 stress_144
                     -6.6859105542e+02 stress_145
                     -6.4826098849e+02 stress_146
                     -4.1086364238e+02 stress_147
                     -5.9217884221e+01 stress_148
                      1.9442286801e+02 stress_149
                      3.0674024110e+02 stress_150
                      3.4800032011e+02 stress_151
                      3.5308135974e+02 stress_152
                      1.3740875229e+02 stress_153
                     -2.2924757113e+02 stress_154
                     -4.9082536774e+02 stress_155
                     -5.8876424227e+02 stress_156
                     -6.1636530449e+02 stress_157
                     -4.9404701061e+02 stress_158
                     -8.8971429504e+01 stress_159
                      9.5081547856e+01 stress_160
                     -7.1133022851e+01 stress_161
                     -4.6259476137e+02 stress_162
                     -6.1917698685e+02 stress_163
                     -6.3069838341e+02 stress_164
                     -5.8907963007e+02 stress_165
                     -5.0705958892e+02 stress_166
                     -3.8657107497e+02 stress_167
                     -2.3446310177e+02 stress_168
                     -6.7856800998e+01 stress_169
                      8.7186167800e+01 stress_170
                      2.0933319400e+02 stress_171
                      2.9414112350e+02 stress_172
                      3.4967257280e+02 stress_173
                      3.8624208285e+02 stress_174
                      4.1158801054e+02 stress_175
                      4.3050516456e+02 stress_176
                      4.4576018321e+02 stress_177
                      4.5891588457e+02 stress_178
                      4.7085023445e+02 stress_179
                      4.8205646221e+02 stress_180
                      4.9280832609e+02 stress_181
                      5.0325048523e+02 stress_182
                      5.1345199616e+02 stress_183
                      5.2343497787e+02 stress_184
                      5.3319343725e+02 stress_185
                      5.4270329556e+02 stress_186
                      5.5192955441e+02 stress_187
                      5.6083099049e+02 stress_188
                      5.6936229544e+02 stress_189
                      5.7747713034e+02 stress_190
                      5.8512920532e+02 stress_191
                      5.9227230620e+02 stress_192
                      5.9886403985e+02 stress_193
                      6.0486337916e+02 stress_194
                      6.1023189459e+02 stress_195
                      6.1493661362e+02 stress_196
                      6.1894652179e+02 stress_197
                      6.2223667251e+02 stress_198
                      6.2478592111e+02 stress_199
                      6.2657699914e+02 stress_200
                      6.2759895858e+02 stress_201
                      6.2764901632e+02 stress_202
                      2.6639972922e+02 stress_203
                     -7.9217443366e+01 stress_204
                      2.9331879491e+01 stress_205
                      4.6464851578e+02 stress_206
                      4.8343064867e+02 stress_207
                      4.1882572510e+02 stress_208
                      3.0205638680e+02 stress_209
                      1.4030029029e+02 stress_210
                     -4.3299649522e+01 stress_211
                     -2.0918695450e+02 stress_212
                     -3.2881745460e+02 stress_213
                     -4.0341835457e+02 stress_214
                     -4.4844481328e+02 stress_215
                     -4.7714364958e+02 stress_216
                     -4.9732994719e+02 stress_217
                     -5.1309016866e+02 stress_218
                     -5.2649099384e+02 stress_219
                     -5.3857061142e+02 stress_220
                     -5.4984446853e+02 stress_221
                     -5.6055494439e+02 stress_222
                     -5.7079861405e+02 stress_223
                     -5.8059160102e+02 stress_224
                     -5.8990625121e+02 stress_225
                     -5.9869045973e+02 stress_226
                     -6.0687976243e+02 stress_227
                     -6.1440610312e+02 stress_228
                     -6.2119920135e+02 stress_229
                     -6.2719445092e+02 stress_230
                     -6.3233208672e+02 stress_231
                     -6.3655813774e+02 stress_232
                     -6.3983024154e+02 stress_233
                     -6.4211369976e+02 stress_234
                     -6.4338336959e+02 stress_235
                     -6.3691316547e+02 stress_236
                     -2.7304177489e+02 stress_237
                      2.3118104203e+01 stress_238
                     -1.9636659711e+02 stress_239
                     -4.4699294121e+02 stress_240
                     -1.1665782425e+02 stress_241
                      6.0573603970e+01 stress_242
                     -2.7128550515e+02 stress_243
                     -3.9548768394e+02 stress_244
                     -5.0460069779e+02 stress_245
                     -3.2014866179e+02 stress_246
                      1.4879117213e+01 stress_247
                      2.7752256469e+02 stress_248
                      3.9162921173e+02 stress_249
                      4.3413320525e+02 stress_250
                      4.4635895390e+02 stress_251
                      3.4129565107e+02 stress_252
                      2.0240664912e+01 stress_253
                     -3.1495213407e+02 stress_254
                     -4.8571294124e+02 stress_255
                     -5.4727330719e+02 stress_256
                     -5.5960441662e+02 stress_257
                     -2.8302561078e+02 stress_258
                      9.7634535402e+01 stress_259
                      2.1667385005e+02 stress_260
                      2.6796055706e+00 stress_261
                     -3.6347275552e+02 stress_262
                     -5.2208098120e+02 stress_263
                     -5.4401400865e+02 stress_264
                     -5.0211380992e+02 stress_265
                     -4.0819609423e+02 stress_266
                     -2.6575264301e+02 stress_267
                     -8.8106322797e+01 stress_268
                      9.4090289105e+01 stress_269
                      2.4414422447e+02 stress_270
                      3.4664544152e+02 stress_271
                      4.1027011669e+02 stress_272
                      4.4977749366e+02 stress_273
                      4.7599715100e+02 stress_274
                      4.9514124973e+02 stress_275
                      5.1049238325e+02 stress_276
                      5.2375101825e+02 stress_277
                      5.3579183349e+02 stress_278
                      5.4705762522e+02 stress_279
                      5.5775997080e+02 stress_280
                      5.6798346056e+02 stress_281
                      5.7774167237e+02 stress_282
                      5.8700785009e+02 stress_283
                      5.9573376757e+02 stress_284
                      6.0385893066e+02 stress_285
                      6.1131933279e+02 stress_286
                      6.1805059234e+02 stress_287
                      6.2399041340e+02 stress_288
                      6.2908326728e+02 stress_289
                      6.3327964622e+02 stress_290
                      6.3653756632e+02 stress_291
                      6.3882526598e+02 stress_292
                      6.4011914256e+02 stress_293
                      6.4013824774e+02 stress_294
                      2.6701525982e+02 stress_295
                     -7.0835778997e+01 stress_296
                      5.9334569150e+01 stress_297
                      4.7951088336e+02 stress_298
                      4.9408628132e+02 stress_299
                      4.5071682997e+02 stress_300
                      3.7261880822e+02 stress_301
                      2.6150448821e+02 stress_302
                      1.2352626814e+02 stress_303
                     -2.6888361329e+01 stress_304
                     -1.6774082156e+02 stress_305
                     -2.8060042393e+02 stress_306
                     -3.6064178457e+02 stress_307
                     -4.1399431777e+02 stress_308
                     -4.4950091789e+02 stress_309
                     -4.7415910459e+02 stress_310
                     -4.9248383311e+02 stress_311
                     -5.0715988733e+02 stress_312
                     -5.1973817698e+02 stress_313
                     -5.3111286874e+02 stress_314
                     -5.4179955403e+02 stress_315
                     -5.5209440127e+02 stress_316
                     -5.6216496301e+02 stress_317
                     -5.7210077145e+02 stress_318
                     -5.8194357053e+02 stress_319
                     -5.9170539951e+02 stress_320
                     -6.0137864716e+02 stress_321
                     -6.1094378190e+02 stress_322
                     -6.2037270042e+02 stress_323
                     -6.2963249062e+02 stress_324
                     -6.3868745613e+02 stress_325
                     -6.4749909113e+02 stress_326
                     -6.5602937360e+02 stress_327
                     -6.6423855150e+02 stress_328
                     -6.7208927527e+02 stress_329
                     -6.7954441830e+02 stress_330
                     -6.8656771521e+02 stress_331
                     -6.9312575495e+02 stress_332
                     -6.9918602371e+02 stress_333
                     -7.0471911889e+02 stress_334
                     -7.0969835542e+02 stress_335
                     -7.1409763009e+02 stress_336
                     -7.1789651705e+02 stress_337
                     -7.2107553410e+02 stress_338
                     -7.2361872352e+02 stress_339
                     -7.2551393097e+02 stress_340
                     -7.2675145809e+02 stress_341
                     -7.2732490580e+02 stress_342


Active response data for evaluation 93:
Active set vector = { 1 1 1 1 1 1 1 1 1 1 1 1 1 1 1 1 1 1 1 1 1 1 1 1 1 1 1 1 1 1 1 1 1 1 1 1 1 1 1 1 1 1 1 1 1 1 1 1 1 1 1 1 1 1 1 1 1 1 1 1 1 1 1 1 1 1 1 1 1 1 1 1 1 1 1 1 1 1 1 1 1 1 1 1 1 1 1 1 1 1 1 1 1 1 1 1 1 1 1 1 1 1 1 1 1 1 1 1 1 1 1 1 1 1 1 1 1 1 1 1 1 1 1 1 1 1 1 1 1 1 1 1 1 1 1 1 1 1 1 1 1 1 1 1 1 1 1 1 1 1 1 1 1 1 1 1 1 1 1 1 1 1 1 1 1 1 1 1 1 1 1 1 1 1 1 1 1 1 1 1 1 1 1 1 1 1 1 1 1 1 1 1 1 1 1 1 1 1 1 1 1 1 1 1 1 1 1 1 1 1 1 1 1 1 1 1 1 1 1 1 1 1 1 1 1 1 1 1 1 1 1 1 1 1 1 1 1 1 1 1 1 1 1 1 1 1 1 1 1 1 1 1 1 1 1 1 1 1 1 1 1 1 1 1 1 1 1 1 1 1 1 1 1 1 1 1 1 1 1 1 1 1 1 1 1 1 1 1 1 1 1 1 1 1 1 1 1 1 1 1 1 1 1 1 1 1 1 1 1 1 1 1 1 1 1 1 1 1 1 1 1 1 1 1 1 1 1 1 1 1 1 1 1 1 1 1 1 1 1 1 1 1 }
                      2.4136126976e+00 stress_1
                     -2.5084203296e+02 stress_2
                     -4.9369002328e+02 stress_3
                     -4.9527078807e+02 stress_4
                     -1.6772712637e+02 stress_5
                      2.4627484509e+02 stress_6
                      3.9363937568e+02 stress_7
                      3.9452384234e+02 stress_8
                      1.4586789839e+02 stress_9
                     -2.3112466153e+02 stress_10
                     -4.3480856302e+02 stress_11
                     -4.8606630929e+02 stress_12
                     -5.0106453103e+02 stress_13
                     -5.0213875005e+02 stress_14
                     -1.7263356994e+02 stress_15
                     -3.4001439286e+02 stress_16
                     -5.0763205452e+02 stress_17
                     -3.1352499118e+02 stress_18
                      2.1394916140e+01 stress_19
                      2.9714165349e+02 stress_20
                      4.1720506576e+02 stress_21
                      4.6253368393e+02 stress_22
                      4.8136213270e+02 stress_23
                      4.8758990705e+02 stress_24
                      1.5801111351e+02 stress_25
                      2.8567911449e+02 stress_26
                      4.2879102968e+02 stress_27
                      4.6390057141e+02 stress_28
                      3.4145566418e+02 stress_29
                      1.2854118581e+02 stress_30
                     -1.2448034130e+02 stress_31
                     -3.1980651907e+02 stress_32
                     -4.2368058282e+02 stress_33
                     -4.7366453683e+02 stress_34
                     -5.0083649835e+02 stress_35
                     -5.1854650268e+02 stress_36
                     -5.3176297110e+02 stress_37
                     -5.4227784579e+02 stress_38
                     -5.5068915363e+02 stress_39
                     -5.5713422816e+02 stress_40
                     -5.6159291689e+02 stress_41
                     -5.6400175452e+02 stress_42
                     -5.4858859611e+02 stress_43
                     -1.6229816721e+02 stress_44
                      1.0572152918e+02 stress_45
                     -9.9761600601e+01 stress_46
                     -4.4886822198e+02 stress_47
                     -1.5327603249e+02 stress_48
                     -2.5585490809e+02 stress_49
                     -4.1500296791e+02 stress_50
                     -5.6638256449e+02 stress_51
                     -3.9696694665e+02 stress_52
                     -5.9647540091e+01 stress_53
                      2.2834968332e+02 stress_54
                      3.5958610834e+02 stress_55
                      4.0861044638e+02 stress_56
                      4.2346683057e+02 stress_57
                      3.3739817502e+02 stress_58
                      2.3772849527e+01 stress_59
                     -3.1287686495e+02 stress_60
                     -4.6927121101e+02 stress_61
                     -5.1998102685e+02 stress_62
                     -5.3122127402e+02 stress_63
                     -2.6352890216e+02 stress_64
                      1.1415994719e+02 stress_65
                      2.0142447290e+02 stress_66
                     -6.9724948512e+01 stress_67
                     -4.3427163577e+02 stress_68
                     -5.3016452601e+02 stress_69
                     -5.3129638160e+02 stress_70
                     -4.3622434926e+02 stress_71
                     -2.6444993548e+02 stress_72
                     -4.1157353610e+01 stress_73
                      1.7040588573e+02 stress_74
                      3.1404659085e+02 stress_75
                      3.9355272512e+02 stress_76
                      4.3693241156e+02 stress_77
                      4.6328070075e+02 stress_78
                      4.8168976122e+02 stress_79
                      4.9610618906e+02 stress_80
                      5.0820574794e+02 stress_81
                      5.1867220378e+02 stress_82
                      5.2774561216e+02 stress_83
                      5.3546734530e+02 stress_84
                      5.4179029705e+02 stress_85
                      5.4663987440e+02 stress_86
                      5.4994228286e+02 stress_87
                      5.5163789893e+02 stress_88
                      4.7816298614e+02 stress_89
                      4.4806848979e+01 stress_90
                     -1.5941668298e+02 stress_91
                      1.2969186999e+02 stress_92
                      4.7188191545e+02 stress_93
                      4.7822708477e+02 stress_94
                      4.1822986230e+02 stress_95
                      3.1039303833e+02 stress_96
                      1.6001402633e+02 stress_97
                     -1.5435459142e+01 stress_98
                     -1.8246510291e+02 stress_99
                     -3.1041279474e+02 stress_100
                     -3.9374460116e+02 stress_101
                     -4.4473823753e+02 stress_102
                     -4.7682745210e+02 stress_103
                     -4.9876259533e+02 stress_104
                     -5.1534378563e+02 stress_105
                     -5.2907305691e+02 stress_106
                     -5.4123880847e+02 stress_107
                     -5.5250171127e+02 stress_108
                     -5.6319298745e+02 stress_109
                     -5.7346683595e+02 stress_110
                     -5.8337910105e+02 stress_111
                     -5.9292930401e+02 stress_112
                     -6.0208653533e+02 stress_113
                     -6.1080219509e+02 stress_114
                     -6.1901802280e+02 stress_115
                     -6.2667227717e+02 stress_116
                     -6.3370218404e+02 stress_117
                     -6.4004885285e+02 stress_118
                     -6.4565667842e+02 stress_119
                     -6.5047416823e+02 stress_120
                     -6.5445863316e+02 stress_121
                     -6.5757291742e+02 stress_122
                     -6.5978771977e+02 stress_123
                     -6.6108322900e+02 stress_124
                     -6.6143123587e+02 stress_125
                     -5.5920158453e+02 stress_126
                     -3.0868607136e+02 stress_127
                     -6.0319627095e-01 stress_128
                      2.1954055911e+02 stress_129
                      3.2845096620e+02 stress_130
                      3.7882527323e+02 stress_131
                      4.0333936059e+02 stress_132
                      4.1447296945e+02 stress_133
                      4.1509421269e+02 stress_134
                      1.1436869932e+01 stress_135
                     -1.0406757897e+01 stress_136
                      1.7435180752e+02 stress_137
                      1.3833703316e+02 stress_138
                     -3.3458134825e+01 stress_139
                     -3.2013474635e+02 stress_140
                     -5.2996537802e+02 stress_141
                     -6.1441612484e+02 stress_142
                     -6.4730381538e+02 stress_143
                     -6.6231635253e+02 stress_144
                     -6.6853009913e+02 stress_145
                     -6.4820003220e+02 stress_146
                     -4.1080260574e+02 stress_147
                     -5.9155010327e+01 stress_148
                      1.9449064710e+02 stress_149
                      3.0681170400e+02 stress_150
                      3.4807334634e+02 stress_151
                      3.5315458229e+02 stress_152
                      1.3748194474e+02 stress_153
                     -2.2917585249e+02 stress_154
                     -4.9075842905e+02 stress_155
                     -5.8870039051e+02 stress_156
                     -6.1630241103e+02 stress_157
                     -4.9398411179e+02 stress_158
                     -8.8907356029e+01 stress_159
                      9.5147979209e+01 stress_160
                     -7.1066599461e+01 stress_161
                     -4.6253015261e+02 stress_162
                     -6.1911540549e+02 stress_163
                     -6.3063706807e+02 stress_164
                     -5.8901831462e+02 stress_165
                     -5.0699826760e+02 stress_166
                     -3.8650968603e+02 stress_167
                     -2.3440134684e+02 stress_168
                     -6.7793884394e+01 stress_169
                      8.7251389037e+01 stress_170
                      2.0940141156e+02 stress_171
                      2.9421213821e+02 stress_172
                      3.4974569750e+02 stress_173
                      3.8631663137e+02 stress_174
                      4.1166347830e+02 stress_175
                      4.3058122146e+02 stress_176
                      4.4583662181e+02 stress_177
                      4.5899257523e+02 stress_178
                      4.7092709524e+02 stress_179
                      4.8213344042e+02 stress_180
                      4.9288538711e+02 stress_181
                      5.0332760584e+02 stress_182
                      5.1352916045e+02 stress_183
                      5.2351217474e+02 stress_184
                      5.3327065880e+02 stress_185
                      5.4278053606e+02 stress_186
                      5.5200680966e+02 stress_187
                      5.6090825733e+02 stress_188
                      5.6943957149e+02 stress_189
                      5.7755441378e+02 stress_190
                      5.8520649471e+02 stress_191
                      5.9234960041e+02 stress_192
                      5.9894133798e+02 stress_193
                      6.0494068047e+02 stress_194
                      6.1030919848e+02 stress_195
                      6.1501391958e+02 stress_196
                      6.1902382940e+02 stress_197
                      6.2231398138e+02 stress_198
                      6.2486323092e+02 stress_199
                      6.2665430959e+02 stress_200
                      6.2767626938e+02 stress_201
                      6.2772632715e+02 stress_202
                      2.6647692812e+02 stress_203
                     -7.9141450390e+01 stress_204
                      2.9407872630e+01 stress_205
                      4.6472960269e+02 stress_206
                      4.8351277608e+02 stress_207
                      4.1890785196e+02 stress_208
                      3.0213848949e+02 stress_209
                      1.4038215871e+02 stress_210
                     -4.3218774171e+01 stress_211
                     -2.0910823182e+02 stress_212
                     -3.2874136400e+02 stress_213
                     -4.0334440856e+02 stress_214
                     -4.4837227129e+02 stress_215
                     -4.7707195167e+02 stress_216
                     -4.9725874941e+02 stress_217
                     -5.1301927227e+02 stress_218
                     -5.2642028436e+02 stress_219
                     -5.3850002155e+02 stress_220
                     -5.4977395762e+02 stress_221
                     -5.6048448712e+02 stress_222
                     -5.7072819417e+02 stress_223
                     -5.8052120781e+02 stress_224
                     -5.8983587741e+02 stress_225
                     -5.9862010028e+02 stress_226
                     -6.0680941376e+02 stress_227
                     -6.1433576263e+02 stress_228
                     -6.2112886710e+02 stress_229
                     -6.2712412143e+02 stress_230
                     -6.3226176084e+02 stress_231
                     -6.3648781455e+02 stress_232
                     -6.3975992027e+02 stress_233
                     -6.4204337976e+02 stress_234
                     -6.4331305027e+02 stress_235
                     -6.3684284614e+02 stress_236
                     -2.7297112523e+02 stress_237
                      2.3191302302e+01 stress_238
                     -1.9629344288e+02 stress_239
                     -4.4692051633e+02 stress_240
                     -1.1658500534e+02 stress_241
                      6.0647947684e+01 stress_242
                     -2.7121139721e+02 stress_243
                     -3.9541412041e+02 stress_244
                     -5.0452808744e+02 stress_245
                     -3.2007601478e+02 stress_246
                      1.4953400489e+01 stress_247
                      2.7760262977e+02 stress_248
                      3.9171384691e+02 stress_249
                      4.3421979148e+02 stress_250
                      4.4644609580e+02 stress_251
                      3.4138279019e+02 stress_252
                      2.0327278676e+01 stress_253
                     -3.1486959046e+02 stress_254
                     -4.8563541489e+02 stress_255
                     -5.4719817167e+02 stress_256
                     -5.5952978414e+02 stress_257
                     -2.8295086193e+02 stress_258
                      9.7711994974e+01 stress_259
                      2.1675367179e+02 stress_260
                      2.7593757499e+00 stress_261
                     -3.6339512490e+02 stress_262
                     -5.2200649008e+02 stress_263
                     -5.4394010159e+02 stress_264
                     -5.0203990274e+02 stress_265
                     -4.0812217771e+02 stress_266
                     -2.6567860214e+02 stress_267
                     -8.8031588358e+01 stress_268
                      9.4167044884e+01 stress_269
                      2.4422428111e+02 stress_270
                      3.4672885583e+02 stress_271
                      4.1035604118e+02 stress_272
                      4.4986502718e+02 stress_273
                      4.7608566176e+02 stress_274
                      4.9523035220e+02 stress_275
                      5.1058185090e+02 stress_276
                      5.2384071758e+02 stress_277
                      5.3588168416e+02 stress_278
                      5.4714757761e+02 stress_279
                      5.5784999338e+02 stress_280
                      5.6807353274e+02 stress_281
                      5.7783178036e+02 stress_282
                      5.8709798441e+02 stress_283
                      5.9582392156e+02 stress_284
                      6.0394909952e+02 stress_285
                      6.1140951301e+02 stress_286
                      6.1814078127e+02 stress_287
                      6.2408060902e+02 stress_288
                      6.2917346800e+02 stress_289
                      6.3336985075e+02 stress_290
                      6.3662777360e+02 stress_291
                      6.3891547508e+02 stress_292
                      6.4020935265e+02 stress_293
                      6.4022845785e+02 stress_294
                      2.6710512722e+02 stress_295
                     -7.0749229023e+01 stress_296
                      5.9421119409e+01 stress_297
                      4.7959895167e+02 stress_298
                      4.9417456489e+02 stress_299
                      4.5080511336e+02 stress_300
                      3.7270708357e+02 stress_301
                      2.6159268158e+02 stress_302
                      1.2361405020e+02 stress_303
                     -2.6801832554e+01 stress_304
                     -1.6765675024e+02 stress_305
                     -2.8051958970e+02 stress_306
                     -3.6056405436e+02 stress_307
                     -4.1391899693e+02 stress_308
                     -4.4942726325e+02 stress_309
                     -4.7408654564e+02 stress_310
                     -4.9241198564e+02 stress_311
                     -5.0708850504e+02 stress_312
                     -5.1966710370e+02 stress_313
                     -5.3104200479e+02 stress_314
                     -5.4172883485e+02 stress_315
                     -5.5202378426e+02 stress_316
                     -5.6209441949e+02 stress_317
                     -5.7203028176e+02 stress_318
                     -5.8187312093e+02 stress_319
                     -5.9163498022e+02 stress_320
                     -6.0130825113e+02 stress_321
                     -6.1087340392e+02 stress_322
                     -6.2030233665e+02 stress_323
                     -6.2956213814e+02 stress_324
                     -6.3861711270e+02 stress_325
                     -6.4742875503e+02 stress_326
                     -6.5595904348e+02 stress_327
                     -6.6416822629e+02 stress_328
                     -6.7201895412e+02 stress_329
                     -6.7947410052e+02 stress_330
                     -6.8649740024e+02 stress_331
                     -6.9305544232e+02 stress_332
                     -6.9911571304e+02 stress_333
                     -7.0464880985e+02 stress_334
                     -7.0962804774e+02 stress_335
                     -7.1402732353e+02 stress_336
                     -7.1782621139e+02 stress_337
                     -7.2100522916e+02 stress_338
                     -7.2354841914e+02 stress_339
                     -7.2544362699e+02 stress_340
                     -7.2668115437e+02 stress_341
                     -7.2725460219e+02 stress_342

>>>>> Total response returned to iterator:

Active set vector = { 2 2 2 2 2 2 2 2 2 2 2 2 2 2 2 2 2 2 2 2 2 2 2 2 2 2 2 2 2 2 2 2 2 2 2 2 2 2 2 2 2 2 2 2 2 2 2 2 2 2 2 2 2 2 2 2 2 2 2 2 2 2 2 2 2 2 2 2 2 2 2 2 2 2 2 2 2 2 2 2 2 2 2 2 2 2 2 2 2 2 2 2 2 2 2 2 2 2 2 2 2 2 2 2 2 2 2 2 2 2 2 2 2 2 2 2 2 2 2 2 2 2 2 2 2 2 2 2 2 2 2 2 2 2 2 2 2 2 2 2 2 2 2 2 2 2 2 2 2 2 2 2 2 2 2 2 2 2 2 2 2 2 2 2 2 2 2 2 2 2 2 2 2 2 2 2 2 2 2 2 2 2 2 2 2 2 2 2 2 2 2 2 2 2 2 2 2 2 2 2 2 2 2 2 2 2 2 2 2 2 2 2 2 2 2 2 2 2 2 2 2 2 2 2 2 2 2 2 2 2 2 2 2 2 2 2 2 2 2 2 2 2 2 2 2 2 2 2 2 2 2 2 2 2 2 2 2 2 2 2 2 2 2 2 2 2 2 2 2 2 2 2 2 2 2 2 2 2 2 2 2 2 2 2 2 2 2 2 2 2 2 2 2 2 2 2 2 2 2 2 2 2 2 2 2 2 2 2 2 2 2 2 2 2 2 2 2 2 2 2 2 2 2 2 2 2 2 2 2 2 2 2 2 2 2 2 2 2 2 2 2 2 } Deriv vars vector = { 1 2 3 4 5 6 7 }
 [  0.0000000000e+00  1.1653237012e-05  0.0000000000e+00  0.0000000000e+00 
    0.0000000000e+00  0.0000000000e+00  0.0000000000e+00 ] stress_1 gradient
 [ -2.9074332623e-05 -1.2110295845e-03 -5.2857226422e-04  4.2891002792e-03 
   -5.7452610053e-02  1.1851885811e-01  0.0000000000e+00 ] stress_2 gradient
 [ -9.9614815903e-01 -7.4170319605e-05 -2.2576953380e+02  3.4237858061e-01 
   -4.6049273070e+00 -4.5858215265e+02  0.0000000000e+00 ] stress_3 gradient
 [ -9.9938251192e-01 -7.4412933161e-05 -3.0400208920e+02  9.2134946489e-02 
   -1.2386961609e+00 -4.6780414578e+02  0.0000000000e+00 ] stress_4 gradient
 [ -9.7961148671e-01  1.4608989032e-03 -3.0277051330e+02 -3.0535580513e+01 
    3.9378287308e+01 -4.6256888178e+02  6.6079975712e+00 ] stress_5 gradient
 [ -3.0500380759e-01  1.8925184134e-03 -2.2222016377e+02 -5.8087869275e+02 
    7.7519398603e+02 -2.9365601111e+02  2.1981377427e+02 ] stress_6 gradient
 [  4.1603237342e-01  9.3405050634e-04 -2.0203659048e+01 -7.0051395500e+02 
    9.3544630582e+02 -1.2243202272e+02  4.3593849427e+02 ] stress_7 gradient
 [  4.2111448762e-01  9.2656154489e-04 -1.7785964560e+01 -6.9944724885e+02 
    9.3401334383e+02 -1.2126267072e+02  4.3741427509e+02 ] stress_8 gradient
 [  4.1258796055e-01 -2.5409262926e-04 -1.8253751972e+01 -6.8279728451e+02 
    9.1176755902e+02 -1.2355182158e+02  4.3528016077e+02 ] stress_9 gradient
 [ -2.4226125196e-02 -1.0596932352e-03 -6.7661617029e+01 -7.0086918935e+01 
    8.5628309191e+01 -2.5086304087e+02  3.1659715117e+02 ] stress_10 gradient
 [ -8.0697134846e-01 -2.2989939859e-04 -3.6901872520e+02  4.3970092871e+02 
   -5.9962685702e+02 -5.0482698459e+02  7.9844118021e+01 ] stress_11 gradient
 [ -9.7631706908e-01 -8.4539791971e-05 -7.7846115427e+02  2.8528658621e+02 
   -3.8685525075e+02 -5.7170073881e+02  1.7502124077e+01 ] stress_12 gradient
 [ -9.9824217744e-01 -1.0577753086e-04 -1.0663047562e+03  1.9437163503e+02 
   -2.6294673683e+02 -5.8355671137e+02  6.4496793052e+00 ] stress_13 gradient
 [ -9.9913033999e-01 -1.0887786656e-04 -1.0930061674e+03  1.8764429659e+02 
   -2.5379768809e+02 -5.8417382680e+02  5.8744827917e+00 ] stress_14 gradient
 [ -9.6802211615e-01  1.4096288892e-03 -1.0887448091e+03  6.9888432750e+01 
   -2.0682984391e+02 -5.7571045652e+02  1.8329913803e+01 ] stress_15 gradient
 [ -9.6802228277e-01  6.0149269402e-04 -1.0887453377e+03  6.9899674344e+01 
   -2.0688997913e+02 -5.7567622909e+02  1.8332300512e+01 ] stress_16 gradient
 [ -9.8354039541e-01 -1.7157872083e-04 -1.1143943594e+03  6.1184626176e+01 
   -2.5578751565e+02 -6.4468332273e+02  1.3969001367e+01 ] stress_17 gradient
 [ -9.7959936546e-01  7.5642257256e-04 -1.1138916861e+03  4.1860453946e+01 
   -2.4826524763e+02 -6.4351907930e+02  1.5523543537e+01 ] stress_18 gradient
 [ -7.9648332029e-01  1.9476671495e-03 -1.0840598521e+03 -4.3664766006e+02 
   -5.0186196336e+01 -5.8685260839e+02  9.1166618749e+01 ] stress_19 gradient
 [ -7.2025494369e-02  1.5977960524e-03 -8.8344480677e+02 -1.1644307056e+03 
    3.0474965842e+02 -3.5556729904e+02  3.9990835966e+02 ] stress_20 gradient
 [  5.0828733441e-01  8.3348402497e-04 -4.9440425175e+02 -1.0090013106e+03 
    3.1486891855e+02 -1.6580226153e+02  6.5322752975e+02 ] stress_21 gradient
 [  7.4482560806e-01  5.0505585748e-04 -8.5285838147e+01 -7.1505403944e+02 
    2.3360231317e+02 -8.7030644477e+01  7.5838069217e+02 ] stress_22 gradient
 [  8.3135752827e-01  3.9581168066e-04  2.1847892162e+02 -5.5146636072e+02 
    1.8323358743e+02 -5.7865299365e+01  7.9731385870e+02 ] stress_23 gradient
 [  8.5658078228e-01  3.6754239740e-04  3.4828702137e+02 -4.9523074516e+02 
    1.6541344202e+02 -4.9310485660e+01  8.0873385642e+02 ] stress_24 gradient
 [  8.2500738995e-01 -1.1502504710e-03  3.4339348932e+02 -3.5465976197e+02 
    1.2573894962e+02 -6.3666082216e+01  7.9639298737e+02 ] stress_25 gradient
 [  8.2500559883e-01 -5.3384855836e-04  3.4339348932e+02 -3.5466595349e+02 
    1.2574811521e+02 -6.3666593072e+01  7.9639020288e+02 ] stress_26 gradient
 [  8.2074318920e-01  1.6702936662e-04  3.4441786447e+02 -3.7377201575e+02 
    1.6463280188e+02 -6.6490611356e+01  7.8779964692e+02 ] stress_27 gradient
 [  8.2167812894e-01  3.3445845416e-04  3.4861367970e+02 -3.9154239224e+02 
    2.3485084557e+02 -6.8503899354e+01  7.8167455984e+02 ] stress_28 gradient
 [  8.2088204205e-01 -2.5486875123e-04  3.4850690788e+02 -3.8633408707e+02 
    2.3336266648e+02 -6.8843619353e+01  7.8138696159e+02 ] stress_29 gradient
 [  7.8547860624e-01 -1.2004881341e-03  3.4296957350e+02 -2.3636412870e+02 
    1.8924800387e+02 -8.4994367908e+01  7.6768765817e+02 ] stress_30 gradient
 [  5.2196124714e-01 -1.8096744057e-03  2.8997586685e+02  4.1743446829e+02 
   -1.1855580848e+01 -2.1125322148e+02  6.6059609145e+02 ] stress_31 gradient
 [ -3.9806864287e-02 -1.4492650883e-03  1.0268435844e+02  1.0208471368e+03 
   -2.1999945761e+02 -4.9076921775e+02  4.2351369267e+02 ] stress_32 gradient
 [ -5.0702053908e-01 -8.6836523978e-04 -2.3709316061e+02  9.6784870811e+02 
   -2.3713441917e+02 -7.3054308264e+02  2.2013916206e+02 ] stress_33 gradient
 [ -7.4919833771e-01 -5.4910139501e-04 -6.7253399834e+02  6.9456285146e+02 
   -1.7708459328e+02 -8.5808572021e+02  1.1195885893e+02 ] stress_34 gradient
 [ -8.6087430728e-01 -4.2186470719e-04 -1.1516867947e+03  4.7265136490e+02 
   -1.2266020507e+02 -9.1817426986e+02  6.0991913054e+01 ] stress_35 gradient
 [ -9.1387031770e-01 -3.8474323985e-04 -1.6398189952e+03  3.2897421992e+02 
   -8.6187633825e+01 -9.4719912926e+02  3.6373422701e+01 ] stress_36 gradient
 [ -9.4072800323e-01 -3.8640706189e-04 -2.1107382045e+03  2.3983399927e+02 
   -6.3190046960e+01 -9.6212535324e+02  2.3712734847e+01 ] stress_37 gradient
 [ -9.5524867466e-01 -4.0357290039e-04 -2.5424420287e+03  1.8431927539e+02 
   -4.8737250450e+01 -9.7029242638e+02  1.6785316246e+01 ] stress_38 gradient
 [ -9.6349587153e-01 -4.2509854070e-04 -2.9159377701e+03  1.4942270607e+02 
   -3.9601838321e+01 -9.7497545380e+02  1.2813437144e+01 ] stress_39 gradient
 [ -9.6828316034e-01 -4.4513721339e-04 -3.2150082700e+03  1.2764949219e+02 
   -3.3882285665e+01 -9.7771415894e+02  1.0490375149e+01 ] stress_40 gradient
 [ -9.7098344940e-01 -4.6041496318e-04 -3.4270761255e+03  1.1475175266e+02 
   -3.0486769335e+01 -9.7926665379e+02  9.1737081636e+00 ] stress_41 gradient
 [ -9.7226751022e-01 -4.6907339439e-04 -3.5431323325e+03  1.0843692880e+02 
   -2.8822208497e+01 -9.8000739665e+02  8.5452085138e+00 ] stress_42 gradient
 [ -9.7226715616e-01 -3.9465746779e-04 -3.5431318039e+03  1.0843182108e+02 
   -2.8821761392e+01 -9.8000739665e+02  8.5456062987e+00 ] stress_43 gradient
 [ -9.0941015679e-01  1.3242030387e-03 -3.5313097324e+03 -1.7841052095e+02 
    2.2290271461e+00 -9.5010846068e+02  6.0952532381e+01 ] stress_44 gradient
 [ -5.5850451759e-01  1.8028992351e-03 -3.4462670380e+03 -9.8871363584e+02 
    9.2032822149e+01 -7.7940759001e+02  3.6016053030e+02 ] stress_45 gradient
 [ -5.5902253223e-01  8.1201865421e-04 -3.4462823666e+03 -9.8745444363e+02 
    9.0618705509e+01 -7.8026838430e+02  3.5983295469e+02 ] stress_46 gradient
 [ -8.2214521351e-01 -2.6153688222e-04 -3.4729980493e+03 -3.7293948064e+02 
   -4.5430774487e+02 -1.2503499312e+03  1.8104369942e+02 ] stress_47 gradient
 [ -7.9337068388e-01  1.0986806301e-03 -3.4679422452e+03 -5.1019903631e+02 
   -4.3200964913e+02 -1.2315508992e+03  2.0427670605e+02 ] stress_48 gradient
 [ -7.9338328415e-01  6.0344601076e-04 -3.4679427738e+03 -5.1016809022e+02 
   -4.3203625170e+02 -1.2315718444e+03  2.0426795479e+02 ] stress_49 gradient
 [ -8.0815344084e-01 -1.3048548852e-04 -3.4689232774e+03 -4.7434110898e+02 
   -4.5458338327e+02 -1.2575468866e+03  1.9354368231e+02 ] stress_50 gradient
 [ -1.0207583112e+00 -3.6816450201e-04 -3.5563397947e+03  5.0706919223e+01 
   -3.2088892377e+02 -1.7175844713e+03  3.6285910072e+00 ] stress_51 gradient
 [ -1.0181536800e+00  4.4373570367e-04 -3.5558994931e+03  3.1811103585e+01 
   -3.1852218920e+02 -1.7155226519e+03  5.7018442794e+00 ] stress_52 gradient
 [ -8.7015039396e-01  1.7281853501e-03 -3.5268393233e+03 -4.9671863173e+02 
   -2.3997695971e+02 -1.5939117809e+03  1.2798392927e+02 ] stress_53 gradient
 [ -2.3701248101e-01  1.6486766294e-03 -3.3359379232e+03 -1.3903300177e+03 
   -4.6867693331e+01 -1.0626032903e+03  6.6222899719e+02 ] stress_54 gradient
 [  3.2328502318e-01  9.8373699010e-04 -2.9880124460e+03 -1.3574684420e+03 
    3.7026083553e+01 -5.8584075365e+02  1.1416318222e+03 ] stress_55 gradient
 [  5.7001968195e-01  6.4917048237e-04 -2.6729589453e+03 -1.1093544730e+03 
    4.9314235612e+01 -3.7401332874e+02  1.3546331376e+03 ] stress_56 gradient
 [  6.4446884268e-01  5.4859130302e-04 -2.5257623681e+03 -9.9876816310e+02 
    4.9269972511e+01 -3.0980675966e+02  1.4191955651e+03 ] stress_57 gradient
 [  6.4431124563e-01  1.3340747308e-04 -2.5257813968e+03 -9.9768754043e+02 
    4.8872945913e+01 -3.0991199623e+02  1.4190901522e+03 ] stress_58 gradient
 [  5.8711360468e-01 -1.2477742211e-03 -2.5348841698e+03 -7.6073742264e+02 
   -3.4599057276e+01 -3.5292841539e+02  1.3761265527e+03 ] stress_59 gradient
 [  7.3555978903e-02 -1.6803857142e-03 -2.6664194358e+03  3.8248704086e+02 
   -3.8904627423e+02 -7.7082263574e+02  9.5874120895e+02 ] stress_60 gradient
 [ -4.8756129235e-01 -1.1344719475e-03 -2.9899544245e+03  7.8100096201e+02 
   -4.2935945187e+02 -1.2550988592e+03  4.7505026607e+02 ] stress_61 gradient
 [ -7.0566516866e-01 -8.7405456388e-04 -3.2892929111e+03  6.8651447014e+02 
   -3.4283626798e+02 -1.4515275173e+03  2.7885813398e+02 ] stress_62 gradient
 [ -7.5283431626e-01 -8.1907582147e-04 -3.3946840936e+03  6.3888334311e+02 
   -3.1300964478e+02 -1.4949049081e+03  2.3553263004e+02 ] stress_63 gradient
 [ -7.3891308426e-01  4.4099742948e-04 -3.3919952410e+03  5.4689708537e+02 
   -3.0107135006e+02 -1.4837723092e+03  2.4666741621e+02 ] stress_64 gradient
 [ -3.9407521247e-01  1.4632539687e-03 -3.3040427503e+03 -5.1243703578e+02 
   -1.3688184984e+02 -1.1975237267e+03  5.3296650869e+02 ] stress_65 gradient
 [ -1.8313318153e-01  1.3949540280e-03 -3.2297364377e+03 -8.5348068004e+02 
   -7.0043226801e+01 -1.0198006138e+03  7.1072212071e+02 ] stress_66 gradient
 [ -1.9709188943e-01  1.1830384981e-04 -3.2311024827e+03 -8.0960280859e+02 
   -1.0994533884e+02 -1.0287128231e+03  7.0181289952e+02 ] stress_67 gradient
 [ -6.3891618664e-01 -6.1619073019e-04 -3.3429827488e+03  1.2316588354e+02 
   -7.4194636169e+02 -1.3613377322e+03  3.6928093533e+02 ] stress_68 gradient
 [ -9.0017049632e-01 -4.7348857486e-04 -3.5742695312e+03  3.4499010075e+02 
   -6.4477723148e+02 -1.5959718634e+03  1.3471134178e+02 ] stress_69 gradient
 [ -9.0306318415e-01 -4.7224489674e-04 -3.5798819230e+03  3.4453484504e+02 
   -6.3951305223e+02 -1.5989092920e+03  1.3177489595e+02 ] stress_70 gradient
 [ -9.0273439011e-01 -1.3989652871e-05 -3.5798264228e+03  3.4148219324e+02 
   -6.3910015351e+02 -1.5986564177e+03  1.3202748916e+02 ] stress_71 gradient
 [ -8.8798129063e-01  7.8104318935e-04 -3.5771777418e+03  2.5424829317e+02 
   -6.2551562913e+02 -1.5869322463e+03  1.4375218989e+02 ] stress_72 gradient
 [ -7.6006494451e-01  1.5617442767e-03 -3.5511510016e+03 -2.0880368258e+02 
   -5.3731118514e+02 -1.4829116171e+03  2.4777337670e+02 ] stress_73 gradient
 [ -3.6877246224e-01  1.6745505323e-03 -3.4439772583e+03 -9.6140496913e+02 
   -3.3535155653e+02 -1.1594183816e+03  5.7127077778e+02 ] stress_74 gradient
 [  1.4076059070e-01  1.1865972165e-03 -3.2070188838e+03 -1.2687528077e+03 
   -1.4186703742e+02 -7.3287054777e+02  9.9782792033e+02 ] stress_75 gradient
 [  5.1446115232e-01  7.0500380387e-04 -2.8544213468e+03 -1.0952425953e+03 
   -4.1283389037e+01 -4.1688241669e+02  1.3138248146e+03 ] stress_76 gradient
 [  7.2549169752e-01  4.2606720851e-04 -2.4262489212e+03 -8.1246739258e+02 
   -3.5370241192e+00 -2.3696517231e+02  1.4937471592e+03 ] stress_77 gradient
 [  8.3708327655e-01  2.9512184056e-04 -1.9546277664e+03 -5.8195292789e+02 
    8.1229495916e+00 -1.4117230613e+02  1.5895432348e+03 ] stress_78 gradient
 [  8.9712275233e-01  2.4513089490e-04 -1.4621337788e+03 -4.2141041811e+02 
    1.0672325338e+01 -8.9336142763e+01  1.6413813289e+03 ] stress_79 gradient
 [  9.3086566053e-01  2.3669397831e-04 -9.6644403662e+02 -3.1383929954e+02 
    1.0342811147e+01 -6.0062495934e+01  1.6706558879e+03 ] stress_80 gradient
 [  9.5075377450e-01  2.4911651660e-04 -4.8289403854e+02 -2.4177186550e+02 
    9.2711075930e+00 -4.2737286811e+01  1.6879813956e+03 ] stress_81 gradient
 [  9.6299233991e-01  2.7134590520e-04 -2.5429663734e+01 -1.9291643095e+02 
    8.1558115898e+00 -3.2039938253e+01  1.6986794143e+03 ] stress_82 gradient
 [  9.7079146716e-01  2.9711672751e-04  3.9317822718e+02 -1.5937688914e+02 
    7.2023665224e+00 -2.5203137118e+01  1.7055169336e+03 ] stress_83 gradient
 [  9.7588274520e-01  3.2262388561e-04  7.6150610701e+02 -1.3618814534e+02 
    6.4496702633e+00 -2.0729050265e+01  1.7099908168e+03 ] stress_84 gradient
 [  9.7923381196e-01  3.4540199124e-04  1.0694946964e+03 -1.2024234288e+02 
    5.8854275073e+00 -1.7778850263e+01  1.7129407873e+03 ] stress_85 gradient
 [  9.8140182829e-01  3.6380247926e-04  1.3088522652e+03 -1.0958727241e+02 
    5.4863889485e+00 -1.5867733699e+01  1.7148521423e+03 ] stress_86 gradient
 [  9.8270890282e-01  3.7672410139e-04  1.4731677474e+03 -1.0301868832e+02 
    5.2313172442e+00 -1.4714218274e+01  1.7160057176e+03 ] stress_87 gradient
 [  9.8333239731e-01  3.8346880653e-04  1.5579065121e+03 -9.9843831746e+01 
    5.1052344722e+00 -1.4164025126e+01  1.7165562514e+03 ] stress_88 gradient
 [  9.8322170241e-01  2.8979887500e-05  1.5578869549e+03 -9.8661389067e+01 
    5.0117901511e+00 -1.4270283411e+01  1.7164679433e+03 ] stress_89 gradient
 [  8.4498778368e-01 -1.7418916738e-03  1.5293146055e+03  4.4857273081e+02 
   -3.8951573136e+01 -1.5416171743e+02  1.6000591477e+03 ] stress_90 gradient
 [  5.0459645618e-01 -1.9372408549e-03  1.4374742464e+03  1.1350744778e+03 
   -9.4153650606e+01 -5.0360501431e+02  1.3092749544e+03 ] stress_91 gradient
 [  5.1183754786e-01 -5.5832177232e-04  1.4378209905e+03  1.1161432079e+03 
   -7.3405657581e+01 -4.9811994117e+02  1.3176355909e+03 ] stress_92 gradient
 [  9.3955911509e-01  1.0054185790e-04  1.5165424762e+03  6.5633506942e+01 
    7.2610508984e+02 -1.3472477814e+02  1.8716122860e+03 ] stress_93 gradient
 [  9.5581918554e-01  9.3491821795e-05  1.5241396610e+03  2.7961347863e+01 
    7.3738212067e+02 -1.1909459301e+02  1.8954403783e+03 ] stress_94 gradient
 [  9.5575218545e-01 -1.9602678023e-04  1.5241285609e+03  2.8662811761e+01 
    7.3730253651e+02 -1.1915691759e+02  1.8953803129e+03 ] stress_95 gradient
 [  9.5281567785e-01 -7.0984492201e-04  1.5236232448e+03  4.9581837495e+01 
    7.3456493081e+02 -1.2194721929e+02  1.8926789577e+03 ] stress_96 gradient
 [  9.2389373553e-01 -1.3686182662e-03  1.5183882544e+03  1.8976126734e+02 
    7.1264441272e+02 -1.4991460441e+02  1.8656041475e+03 ] stress_97 gradient
 [  7.9461551101e-01 -1.9151498115e-03  1.4921459620e+03  5.9481557866e+02 
    6.3182166787e+02 -2.7655251399e+02  1.7430075741e+03 ] stress_98 gradient
 [  4.8643570330e-01 -2.0057987625e-03  1.4127655567e+03  1.1450662942e+03 
    4.7168414153e+02 -5.8143614337e+02  1.4478523646e+03 ] stress_99 gradient
 [  6.5417519200e-02 -1.6469071679e-03  1.2514972999e+03  1.4366623775e+03 
    2.8928842329e+02 -1.0012059246e+03  1.0414740387e+03 ] stress_100 gradient
 [ -3.1030497898e-01 -1.1786947257e-03  1.0055410214e+03  1.3552057802e+03 
    1.5361441958e+02 -1.3782174739e+03  6.7648798352e+02 ] stress_101 gradient
 [ -5.7033312658e-01 -8.2291713035e-04  6.9069842142e+02  1.0985517630e+03 
    7.5554429913e+01 -1.6405620291e+03  4.2251047994e+02 ] stress_102 gradient
 [ -7.3086961599e-01 -6.0638706643e-04  3.2429719144e+02  8.3396221849e+02 
    3.5707132580e+01 -1.8032950609e+03  2.6496670061e+02 ] stress_103 gradient
 [ -8.2686781401e-01 -4.9023103460e-04 -8.0854279204e+01  6.2055091001e+02 
    1.6195823756e+01 -1.9010102825e+03  1.7036755887e+02 ] stress_104 gradient
 [ -8.8469339182e-01 -4.3654811413e-04 -5.1560110012e+02  4.6273706355e+02 
    6.7212847455e+00 -1.9600858024e+03  1.1317568199e+02 ] stress_105 gradient
 [ -9.2036607761e-01 -4.2033877656e-04 -9.7295658883e+02  3.4932952875e+02 
    2.1221697605e+00 -1.9966483590e+03  7.7779218225e+01 ] stress_106 gradient
 [ -9.4302622926e-01 -4.2667603576e-04 -1.4469605522e+03  2.6815233402e+02 
   -9.2550118908e-02 -2.0199419121e+03  5.5228412162e+01 ] stress_107 gradient
 [ -9.5785678392e-01 -4.4676072054e-04 -1.9321327419e+03  2.0963370649e+02 
   -1.1258028976e+00 -2.0352267578e+03  4.0430825500e+01 ] stress_108 gradient
 [ -9.6784283832e-01 -4.7528826049e-04 -2.4232307674e+03  1.6694757769e+02 
   -1.5686574566e+00 -2.0455430069e+03  3.0443647851e+01 ] stress_109 gradient
 [ -9.7474549310e-01 -5.0893062530e-04 -2.9151597102e+03  1.3538468848e+02 
   -1.7166482249e+00 -2.0526898983e+03  2.3524582733e+01 ] stress_110 gradient
 [ -9.7963112646e-01 -5.4549106389e-04 -3.4029145092e+03  1.1172377471e+02 
   -1.7197779390e+00 -2.0577570903e+03  1.8618705414e+01 ] stress_111 gradient
 [ -9.8316280397e-01 -5.8343432732e-04 -3.8815487751e+03  9.3754416252e+01 
   -1.6560659007e+00 -2.0614270880e+03  1.5065693475e+01 ] stress_112 gradient
 [ -9.8576383209e-01 -6.2163217807e-04 -4.3462926621e+03  7.9943132956e+01 
   -1.5646335377e+00 -2.0641341201e+03  1.2445088613e+01 ] stress_113 gradient
 [ -9.8771068773e-01 -6.5921072452e-04 -4.7925348962e+03  6.9215862629e+01 
   -1.4664946416e+00 -2.0661632446e+03  1.0480828316e+01 ] stress_114 gradient
 [ -9.8918775130e-01 -6.9546240416e-04 -5.2158344041e+03  6.0811612812e+01 
   -1.3719325645e+00 -2.0677050115e+03  8.9883405434e+00 ] stress_115 gradient
 [ -9.9032056728e-01 -7.2979866789e-04 -5.6119995993e+03  5.4184191953e+01 
   -1.2854183227e+00 -2.0688886675e+03  7.8423231459e+00 ] stress_116 gradient
 [ -9.9119600459e-01 -7.6171565199e-04 -5.9770709387e+03  4.8938068913e+01 
   -1.2089638742e+00 -2.0698041235e+03  6.9560590868e+00 ] stress_117 gradient
 [ -9.9187529430e-01 -7.9078741882e-04 -6.3074831952e+03  4.4782795507e+01 
   -1.1432398803e+00 -2.0705152366e+03  6.2678917468e+00 ] stress_118 gradient
 [ -9.9240188129e-01 -8.1664509919e-04 -6.5999761283e+03  4.1504988997e+01 
   -1.0880227771e+00 -2.0710664515e+03  5.7336670468e+00 ] stress_119 gradient
 [ -9.9280675595e-01 -8.3896825009e-04 -6.8515976560e+03  3.8947705211e+01 
   -1.0426419236e+00 -2.0714909738e+03  5.3231533522e+00 ] stress_120 gradient
 [ -9.9311245298e-01 -8.5749895279e-04 -7.0599274407e+03  3.6994227583e+01 
   -1.0066502100e+00 -2.0718117920e+03  5.0124835914e+00 ] stress_121 gradient
 [ -9.9333471750e-01 -8.7202114845e-04 -7.2228823751e+03  3.5560515115e+01 
   -9.7960053637e-01 -2.0720447429e+03  4.7869397321e+00 ] stress_122 gradient
 [ -9.9348458777e-01 -8.8236792860e-04 -7.3388328674e+03  3.4587281372e+01 
   -9.6082225167e-01 -2.0722020869e+03  4.6345882317e+00 ] stress_123 gradient
 [ -9.9356926989e-01 -8.8842703921e-04 -7.4066784280e+03  3.4035025125e+01 
   -9.5009180218e-01 -2.0722909760e+03  4.5482689801e+00 ] stress_124 gradient
 [ -9.9359163797e-01 -8.9005547106e-04 -7.4249057513e+03  3.3888769113e+01 
   -9.4696208806e-01 -2.0723144755e+03  4.5259930391e+00 ] stress_125 gradient
 [ -9.9324476618e-01 -3.9728430874e-04 -7.4248396796e+03  3.0272792414e+01 
   -7.8309919803e-01 -2.0719711795e+03  5.0343617430e+00 ] stress_126 gradient
 [ -9.6066945485e-01  7.3647119247e-04 -7.4182763844e+03 -1.5479054963e+02 
    7.6919432394e+00 -2.0390959898e+03  5.3764962663e+01 ] stress_127 gradient
 [ -6.6503366364e-01  1.5368918686e-03 -7.3453180506e+03 -1.0049935000e+03 
    4.6865589939e+01 -1.7372296298e+03  5.0122543191e+02 ] stress_128 gradient
 [ -6.4710633868e-02  1.2067373282e-03 -7.1063213806e+03 -1.6037928761e+03 
    7.4389282035e+01 -1.1196941302e+03  1.4166322413e+03 ] stress_129 gradient
 [  3.9764429507e-01  6.6119445849e-04 -6.7354642773e+03 -1.4414188398e+03 
    6.6648381125e+01 -6.4162022330e+02  2.1253260584e+03 ] stress_130 gradient
 [  6.3535056131e-01  3.5404053055e-04 -6.3468175094e+03 -1.1319104247e+03 
    5.2211680285e+01 -3.9492220071e+02  2.4910352859e+03 ] stress_131 gradient
 [  7.4591035558e-01  2.1651292406e-04 -6.0287257691e+03 -9.1792672883e+02 
    4.2274167125e+01 -2.7989147627e+02  2.6615607652e+03 ] stress_132 gradient
 [  7.9223538951e-01  1.6306836839e-04 -5.8369398015e+03 -8.1085360708e+02 
    3.7311781749e+01 -2.3161956318e+02  2.7331206214e+03 ] stress_133 gradient
 [  7.9471739197e-01  1.6032463840e-04 -5.8251552587e+03 -8.0477618262e+02 
    3.7030331023e+01 -2.2903207175e+02  2.7369564582e+03 ] stress_134 gradient
 [  7.4555205400e-01 -1.6742368486e-03 -5.8339627707e+03 -5.6845531503e+02 
   -1.9510995852e+01 -2.9868064870e+02  2.6700120568e+03 ] stress_135 gradient
 [  7.3480383555e-01 -1.7547085641e-03 -5.8360386368e+03 -5.2608691055e+02 
   -2.9500752884e+01 -3.1425479280e+02  2.6550425874e+03 ] stress_136 gradient
 [  7.4511243593e-01 -8.8657134727e-04 -5.8298574472e+03 -6.5329131865e+02 
   -2.0367509201e+01 -3.0347008767e+02  2.6695057168e+03 ] stress_137 gradient
 [  7.4509971071e-01 -1.0604258074e-03 -5.8298590329e+03 -6.5318509424e+02 
   -2.0393441119e+01 -3.0348643510e+02  2.6694894076e+03 ] stress_138 gradient
 [  7.3526602164e-01 -1.8669817893e-03 -5.8312125507e+03 -6.0461474650e+02 
   -3.1911303453e+01 -3.1737229851e+02  2.6561226123e+03 ] stress_139 gradient
 [  4.8591348996e-01 -2.6712121862e-03 -5.8756799993e+03  5.5445729330e+01 
   -1.7737990417e+02 -6.9087655811e+02  2.2965683455e+03 ] stress_140 gradient
 [ -2.0982977110e-01 -2.0697907554e-03 -6.1059223207e+03  7.7877247465e+02 
   -2.9135314044e+02 -1.7749297181e+03  1.2529864464e+03 ] stress_141 gradient
 [ -6.5803416403e-01 -1.4394537961e-03 -6.5014955137e+03  6.7608946608e+02 
   -2.1504713203e+02 -2.4947100624e+03  5.6006757265e+02 ] stress_142 gradient
 [ -8.2921400435e-01 -1.2021025161e-03 -6.9115563736e+03  4.7404179435e+02 
   -1.4316922206e+02 -2.7758051181e+03  2.8946028660e+02 ] stress_143 gradient
 [ -8.9263035140e-01 -1.1278641198e-03 -7.2319035364e+03  3.5867506313e+02 
   -1.0596653321e+02 -2.8814886894e+03  1.8771971816e+02 ] stress_144 gradient
 [ -9.1421773098e-01 -1.1079230237e-03 -7.4007034349e+03  3.1157845945e+02 
   -9.1267383484e+01 -2.9177636334e+03  1.5279820920e+02 ] stress_145 gradient
 [ -9.1421685625e-01 -1.0097687729e-03 -7.4007029063e+03  3.1156366667e+02 
   -9.1266489280e+01 -2.9177621008e+03  1.5279940255e+02 ] stress_146 gradient
 [ -9.0447608009e-01  1.1375997552e-04 -7.3987022562e+03  2.3912471815e+02 
   -8.7571191041e+01 -2.9034535031e+03  1.6713715023e+02 ] stress_147 gradient
 [ -6.8522627103e-01  1.3019236886e-03 -7.3454451614e+03 -5.7160242043e+02 
   -4.1468578696e+01 -2.5762334115e+03  4.9501384140e+02 ] stress_148 gradient
 [ -1.0513595253e-01  1.1800560654e-03 -7.1256047934e+03 -1.4254636520e+03 
    2.1175199010e+01 -1.7026541604e+03  1.3703571646e+03 ] stress_149 gradient
 [  3.2801560038e-01  7.1831288347e-04 -6.8126428574e+03 -1.4311493156e+03 
    3.8652640722e+01 -1.0466323634e+03  2.0277121072e+03 ] stress_150 gradient
 [  5.1121801048e-01  4.9317754606e-04 -6.5830638955e+03 -1.2777370430e+03 
    3.8825222104e+01 -7.6823974202e+02  2.3066724719e+03 ] stress_151 gradient
 [  5.3419537643e-01  4.6450028578e-04 -6.5462841763e+03 -1.2510059636e+03 
    3.8500849584e+01 -7.3327770092e+02  2.3417053605e+03 ] stress_152 gradient
 [  5.2969993477e-01 -5.6633531015e-04 -6.5468777642e+03 -1.2264819722e+03 
    2.8382036552e+01 -7.3870504720e+02  2.3362819654e+03 ] stress_153 gradient
 [  3.3187915432e-01 -1.8767976827e-03 -6.5846147297e+03 -5.4986585760e+02 
   -2.2688236973e+02 -1.0043655761e+03  2.0707965537e+03 ] stress_154 gradient
 [ -2.6151314622e-01 -1.7626447456e-03 -6.7957189960e+03  5.2633295963e+02 
   -5.3255261122e+02 -1.8659246140e+03  1.2097949958e+03 ] stress_155 gradient
 [ -6.2171763589e-01 -1.4006121624e-03 -7.0951050542e+03  6.9424656491e+02 
   -4.8082804859e+02 -2.4222940191e+03  6.5377846140e+02 ] stress_156 gradient
 [ -7.2937130899e-01 -1.2844477296e-03 -7.2665155764e+03  6.5148176801e+02 
   -4.1985294507e+02 -2.5950102212e+03  4.8117137530e+02 ] stress_157 gradient
 [ -7.2869449768e-01 -6.9545313415e-04 -7.2663728615e+03  6.4408733612e+02 
   -4.1936694516e+02 -2.5940467446e+03  4.8213480958e+02 ] stress_158 gradient
 [ -5.8443714158e-01  9.2498307937e-04 -7.2311617366e+03 -3.2813287601e+01 
   -3.5599962225e+02 -2.3830301011e+03  6.9317122824e+02 ] stress_159 gradient
 [ -2.9748781561e-01  1.1472192065e-03 -7.1398158050e+03 -7.6136634424e+02 
   -2.5814555409e+02 -1.9594736934e+03  1.1167708822e+03 ] stress_160 gradient
 [ -2.9881895768e-01  3.4781690140e-04 -7.1399126397e+03 -7.5717681453e+02 
   -2.6237603345e+02 -1.9609062901e+03  1.1153386190e+03 ] stress_161 gradient
 [ -5.5687806277e-01 -9.4288033618e-04 -7.1869245874e+03 -1.5538623878e+02 
   -7.3483185072e+02 -2.2873536592e+03  7.8896356463e+02 ] stress_162 gradient
 [ -9.1762655070e-01 -8.6248882562e-04 -7.4054077376e+03  3.2623591766e+02 
   -7.7071491794e+02 -2.8319442312e+03  2.4448676111e+02 ] stress_163 gradient
 [ -9.4390535293e-01 -8.5717609570e-04 -7.4517942775e+03  3.2860792846e+02 
   -7.1573612322e+02 -2.8797957089e+03  1.9664481095e+02 ] stress_164 gradient
 [ -9.4389152388e-01 -6.5626749619e-04 -7.4517916346e+03  3.2841793976e+02 
   -7.1572293372e+02 -2.8797768072e+03  1.9666390461e+02 ] stress_165 gradient
 [ -9.4314708767e-01 -2.6199555462e-04 -7.4516494484e+03  3.2123804359e+02 
   -7.1514147753e+02 -2.8787234197e+03  1.9771763598e+02 ] stress_166 gradient
 [ -9.3465604962e-01  2.9999009279e-04 -7.4499886709e+03  2.6238393232e+02 
   -7.0950240324e+02 -2.8665696175e+03  2.0987114849e+02 ] stress_167 gradient
 [ -8.8909521662e-01  9.2844548140e-04 -7.4405832368e+03  3.8754891707e+01 
   -6.8325326690e+02 -2.8007911410e+03  2.7564880792e+02 ] stress_168 gradient
 [ -7.4543384477e-01  1.3989590443e-03 -7.4071554654e+03 -4.3824494866e+02 
   -6.1050876144e+02 -2.5920110300e+03  4.8442736149e+02 ] stress_169 gradient
 [ -4.6189539412e-01  1.4891091432e-03 -7.3244786653e+03 -1.0155387734e+03 
   -4.8309925981e+02 -2.1778274716e+03  8.9861073820e+02 ] stress_170 gradient
 [ -9.4783344939e-02  1.2272410464e-03 -7.1724385063e+03 -1.3732152394e+03 
   -3.3558740285e+02 -1.6393569171e+03  1.4370859270e+03 ] stress_171 gradient
 [  2.4674688415e-01  8.4520440824e-04 -6.9483630501e+03 -1.4004380665e+03 
   -2.1208552821e+02 -1.1366969885e+03  1.9397539792e+03 ] stress_172 gradient
 [  5.0360815797e-01  5.1847926721e-04 -6.6625216839e+03 -1.2242957417e+03 
   -1.2802207611e+02 -7.5753677403e+02  2.3189234416e+03 ] stress_173 gradient
 [  6.7648530618e-01  2.9489327686e-04 -6.3277798832e+03 -9.9103816676e+02 
   -7.6566892449e+01 -5.0168214803e+02  2.5747848530e+03 ] stress_174 gradient
 [  7.8783727189e-01  1.5960828869e-04 -5.9544923996e+03 -7.7596900574e+02 
   -4.6304344779e+01 -3.3650006706e+02  2.7399716654e+03 ] stress_175 gradient
 [  8.5905207973e-01  8.6190384934e-05 -5.5502215322e+03 -6.0163089324e+02 
   -2.8577420137e+01 -2.3063769575e+02  2.8458376578e+03 ] stress_176 gradient
 [  9.0510457302e-01  5.3316079118e-05 -5.1206468015e+03 -4.6756970349e+02 
   -1.8053309120e+01 -1.6205001583e+02  2.9144276542e+03 ] stress_177 gradient
 [  9.3546361212e-01  4.6612992465e-05 -4.6703245097e+03 -3.6649341262e+02 
   -1.1673610323e+01 -1.1675793244e+02  2.9597213963e+03 ] stress_178 gradient
 [  9.5592288261e-01  5.6913567410e-05 -4.2032818573e+03 -2.9059482050e+02 
   -7.7154160952e+00 -8.6187219334e+01  2.9902931308e+03 ] stress_179 gradient
 [  9.7002353823e-01  7.8406376433e-05 -3.7232410577e+03 -2.3338393041e+02 
   -5.2015849601e+00 -6.5087797643e+01  3.0113932165e+03 ] stress_180 gradient
 [  9.7995471378e-01  1.0734928045e-04 -3.2337578238e+03 -1.8992433386e+02 
   -3.5689919153e+00 -5.0207550805e+01  3.0262739401e+03 ] stress_181 gradient
 [  9.8709227501e-01  1.4125806150e-04 -2.7383582684e+03 -1.5659772512e+02 
   -2.4870050152e+00 -3.9500495959e+01  3.0369815057e+03 ] stress_182 gradient
 [  9.9231926103e-01  1.7842365796e-04 -2.2404945041e+03 -1.3078088127e+02 
   -1.7559932038e+00 -3.1650665109e+01  3.0448313867e+03 ] stress_183 gradient
 [  9.9621330553e-01  2.1761702093e-04 -1.7436138862e+03 -1.1057878095e+02 
   -1.2532269768e+00 -2.5796753112e+01  3.0506855825e+03 ] stress_184 gradient
 [  9.9916003913e-01  2.5791728109e-04 -1.2511035127e+03 -9.4615234061e+01 
   -9.0225188566e-01 -2.1362513119e+01  3.0551200851e+03 ] stress_185 gradient
 [  1.0014215890e+00  2.9860176388e-04 -7.6631612447e+02 -8.1885380520e+01 
   -6.5366316075e-01 -1.7956628550e+01  3.0585259167e+03 ] stress_186 gradient
 [  1.0031794407e+00  3.3908196846e-04 -2.9253839044e+02 -7.1648877807e+01 
   -4.7526945355e-01 -1.5307323411e+01  3.0611755599e+03 ] stress_187 gradient
 [  1.0045612421e+00  3.7886354257e-04  1.6704080633e+02 -6.3355245269e+01 
   -3.4560986508e-01 -1.3223026272e+01  3.0632595533e+03 ] stress_188 gradient
 [  1.0056581316e+00  4.1751707227e-04  6.0930711169e+02 -5.6592187380e+01 
   -2.5037713443e-01 -1.1567338273e+01  3.0649151328e+03 ] stress_189 gradient
 [  1.0065361098e+00  4.5466601168e-04  1.0312888863e+03 -5.1047453029e+01 
   -1.7995856553e-01 -1.0241663988e+01  3.0662413466e+03 ] stress_190 gradient
 [  1.0072436825e+00  4.8997480572e-04  1.4301572055e+03 -4.6482951033e+01 
   -1.2742407657e-01 -9.1724399892e+00  3.0673105916e+03 ] stress_191 gradient
 [  1.0078166718e+00  5.2313754405e-04  1.8031867453e+03 -4.2716302393e+01 
   -8.7631995272e-02 -8.3060262739e+00  3.0681769664e+03 ] stress_192 gradient
 [  1.0082820485e+00  5.5388694136e-04  2.1479222823e+03 -3.9605678555e+01 
   -5.7676161243e-02 -7.6025759885e+00  3.0688806473e+03 ] stress_193 gradient
 [  1.0086601606e+00  5.8197811489e-04  2.4620365082e+03 -3.7041419216e+01 
   -3.5097511397e-02 -7.0304159940e+00  3.0694526616e+03 ] stress_194 gradient
 [  1.0089663783e+00  6.0718983968e-04  2.7433760152e+03 -3.4938376511e+01 
   -1.7660531293e-02 -6.5665577067e+00  3.0699164784e+03 ] stress_195 gradient
 [  1.0092125105e+00  6.2933555679e-04  2.9901040108e+03 -3.3229539016e+01 
   -4.6945724460e-03 -6.1941428508e+00  3.0702888048e+03 ] stress_196 gradient
 [  1.0094075126e+00  6.4824497805e-04  3.2005116174e+03 -3.1863575884e+01 
    5.3652234742e-03 -5.8983565630e+00  3.0705847565e+03 ] stress_197 gradient
 [  1.0095581118e+00  6.6378185361e-04  3.3732256014e+03 -3.0800559282e+01 
    1.2518856467e-02 -5.6705142827e+00  3.0708122893e+03 ] stress_198 gradient
 [  1.0096694315e+00  6.7583262584e-04  3.5070905016e+03 -3.0010603866e+01 
    1.7884079942e-02 -5.5014205680e+00  3.0709813477e+03 ] stress_199 gradient
 [  1.0097449290e+00  6.8430560856e-04  3.6011633431e+03 -2.9472402494e+01 
    2.1237347790e-02 -5.3869885645e+00  3.0710959097e+03 ] stress_200 gradient
 [  1.0097870201e+00  6.8914228482e-04  3.6548468380e+03 -2.9171335327e+01 
    2.3025754767e-02 -5.3236422750e+00  3.0711591574e+03 ] stress_201 gradient
 [  1.0097890820e+00  6.8937924946e-04  3.6574770189e+03 -2.9156692431e+01 
    2.3249305957e-02 -5.3205771356e+00  3.0711627375e+03 ] stress_202 gradient
 [  9.7698771563e-01 -9.7849335072e-04  3.6506779800e+03  1.6499420383e+02 
   -7.1670454623e+00 -6.2429807934e+01  3.0222415978e+03 ] stress_203 gradient
 [  6.2724609316e-01 -1.8345187871e-03  3.5594977033e+03  1.1437535448e+03 
   -4.3598282127e+01 -6.7773925366e+02  2.4951542657e+03 ] stress_204 gradient
 [  6.2725229958e-01 -1.3104431566e-03  3.5594978619e+03  1.1437347246e+03 
   -4.3578944965e+01 -6.7773143755e+02  2.4951668357e+03 ] stress_205 gradient
 [  8.0509953209e-01  3.7744233408e-04  3.5770339698e+03  6.2750772685e+02 
    3.8260778152e+02 -4.3577902238e+02  2.8861881308e+03 ] stress_206 gradient
 [  8.3984038136e-01  3.8747712044e-04  3.5825041754e+03  5.2723958549e+02 
    4.5222067262e+02 -3.8636176758e+02  2.9660569115e+03 ] stress_207 gradient
 [  8.3975101319e-01  7.5764037191e-05  3.5824877896e+03  5.2824669390e+02 
    4.5216143160e+02 -3.8651093787e+02  2.9659188802e+03 ] stress_208 gradient
 [  8.3587752482e-01 -4.7900307236e-04  3.5817483155e+03  5.5668129555e+02 
    4.5013941269e+02 -3.9305246357e+02  2.9598638032e+03 ] stress_209 gradient
 [  7.9867918634e-01 -1.1734699643e-03  3.5742938456e+03  7.3329624002e+02 
    4.3418412982e+02 -4.5643757436e+02  2.9011893832e+03 ] stress_210 gradient
 [  6.4200243330e-01 -1.6957383048e-03  3.5384801999e+03  1.1788759398e+03 
    3.7782144256e+02 -7.2512738390e+02  2.6524683245e+03 ] stress_211 gradient
 [  3.0397660475e-01 -1.7117710246e-03  3.4365693028e+03  1.6440450443e+03 
    2.7445737847e+02 -1.3075424317e+03  2.1133344442e+03 ] stress_212 gradient
 [ -1.0783278432e-01 -1.3343234761e-03  3.2424951412e+03  1.7271738027e+03 
    1.6644535349e+02 -2.0196241590e+03  1.4541640127e+03 ] stress_213 gradient
 [ -4.4237890469e-01 -9.1947017999e-04  2.9611466485e+03  1.4713044602e+03 
    9.0682574033e+01 -2.5997928658e+03  9.1710072052e+02 ] stress_214 gradient
 [ -6.6084733481e-01 -6.3110395614e-04  2.6123405681e+03  1.1272000010e+03 
    4.7732165096e+01 -2.9796090208e+03  5.6550290126e+02 ] stress_215 gradient
 [ -7.9189755659e-01 -4.6641053560e-04  2.2140473367e+03  8.3048130233e+02 
    2.5275348131e+01 -3.2079453051e+03  3.5413011595e+02 ] stress_216 gradient
 [ -8.6939618995e-01 -3.8458173888e-04  1.7791229151e+03  6.0894697988e+02 
    1.3672827030e+01 -3.3432366238e+03  2.2888962742e+02 ] stress_217 gradient
 [ -9.1601819444e-01 -3.5283074590e-04  1.3169029659e+03  4.5146614977e+02 
    7.5707785910e+00 -3.4247653369e+03  1.5341755980e+02 ] stress_218 gradient
 [ -9.4488563280e-01 -3.5076256794e-04  8.3492441636e+02  3.4072742689e+02 
    4.2707185437e+00 -3.4753233357e+03  1.0661502078e+02 ] stress_219 gradient
 [ -9.6333623345e-01 -3.6641121472e-04  3.3989961950e+02  2.6243005168e+02 
    2.4324585681e+00 -3.5076815379e+03  7.6661045749e+01 ] stress_220 gradient
 [ -9.7550067598e-01 -3.9270936543e-04 -1.6188457333e+02  2.0637838317e+02 
    1.3797568511e+00 -3.5290414967e+03  5.6887969463e+01 ] stress_221 gradient
 [ -9.8375464159e-01 -4.2533173940e-04 -6.6433741144e+02  1.6565062064e+02 
    7.6208540398e-01 -3.5435503504e+03  4.3456772858e+01 ] stress_222 gradient
 [ -9.8950277878e-01 -4.6149583675e-04 -1.1615267162e+03  1.3560307517e+02 
    3.9233202818e-01 -3.5536648110e+03  3.4093719229e+01 ] stress_223 gradient
 [ -9.9359911482e-01 -4.9930410565e-04 -1.6476466378e+03  1.1311318953e+02 
    1.6743970906e-01 -3.5608786247e+03  2.7415711573e+01 ] stress_224 gradient
 [ -9.9657765107e-01 -5.3738806081e-04 -2.1170948276e+03  9.6059127377e+01 
    2.8838080621e-02 -3.5661281927e+03  2.2555977267e+01 ] stress_225 gradient
 [ -9.9878071906e-01 -5.7470439150e-04 -2.5644724372e+03  8.2982525447e+01 
   -5.7005510215e-02 -3.5700142830e+03  1.8959209020e+01 ] stress_226 gradient
 [ -1.0004329992e+00 -6.1042232131e-04 -2.9846396195e+03  7.2867455002e+01 
   -1.1065775004e-01 -3.5729302556e+03  1.6259842810e+01 ] stress_227 gradient
 [ -1.0016852366e+00 -6.4386441527e-04 -3.3728381572e+03  6.4995837645e+01 
   -1.4374330073e-01 -3.5751412453e+03  1.4212843321e+01 ] stress_228 gradient
 [ -1.0026400451e+00 -6.7445419460e-04 -3.7245646053e+03  5.8857466454e+01 
   -1.6408644376e-01 -3.5768275847e+03  1.2651538815e+01 ] stress_229 gradient
 [ -1.0033687987e+00 -7.0171473656e-04 -4.0358562495e+03  5.4083098322e+01 
   -1.7660530023e-01 -3.5781159664e+03  1.1458980620e+01 ] stress_230 gradient
 [ -1.0039212943e+00 -7.2524221632e-04 -4.3031711199e+03  5.0406405489e+01 
   -1.8420603306e-01 -3.5790927253e+03  1.0554816253e+01 ] stress_231 gradient
 [ -1.0043323546e+00 -7.4469542991e-04 -4.5233885192e+03  4.7636050270e+01 
   -1.8845350312e-01 -3.5798196750e+03  9.8817647262e+00 ] stress_232 gradient
 [ -1.0046265968e+00 -7.5981312718e-04 -4.6940812388e+03  4.5633732243e+01 
   -1.9091256621e-01 -3.5803402384e+03  9.4000475927e+00 ] stress_233 gradient
 [ -1.0048204951e+00 -7.7038953322e-04 -4.8132877429e+03  4.4304860605e+01 
   -1.9203031962e-01 -3.5806830235e+03  9.0826154931e+00 ] stress_234 gradient
 [ -1.0049244629e+00 -7.7627917645e-04 -4.8795993836e+03  4.3589088175e+01 
   -1.9247742200e-01 -3.5808669321e+03  8.9123636901e+00 ] stress_235 gradient
 [ -1.0049244629e+00 -7.4504025499e-04 -4.8795993836e+03  4.3588822989e+01 
   -1.9270097065e-01 -3.5808674430e+03  8.9123636901e+00 ] stress_236 gradient
 [ -9.7055135400e-01  9.3183864321e-04 -4.8724758006e+03 -1.5773289546e+02 
    9.4611259532e+00 -3.5215451790e+03  6.8244321659e+01 ] stress_237 gradient
 [ -7.0861298525e-01  1.7530097671e-03 -4.8071507421e+03 -9.6278273420e+02 
    4.8225765732e+01 -3.0639077545e+03  5.2596176077e+02 ] stress_238 gradient
 [ -7.1463945294e-01  7.0731749227e-04 -4.8107796624e+03 -8.4678721627e+02 
    3.1547742441e+01 -3.0718355932e+03  5.1804361988e+02 ] stress_239 gradient
 [ -8.0011128466e-01 -3.0407869852e-04 -4.8925906594e+03  6.8281657393e+01 
   -8.7599134918e+01 -3.2036219211e+03  3.8641431309e+02 ] stress_240 gradient
 [ -7.5905634841e-01  1.1953462234e-03 -4.8846810878e+03 -1.4188201817e+02 
   -7.5633566972e+01 -3.1328406206e+03  4.5720286497e+02 ] stress_241 gradient
 [ -6.0163277033e-01  1.6851716758e-03 -4.8497973083e+03 -6.1981414175e+02 
   -4.5309922810e+01 -2.8589506430e+03  7.3112469111e+02 ] stress_242 gradient
 [ -6.2996131302e-01  1.4878497206e-04 -4.8654981039e+03 -2.7602885156e+02 
   -9.2105923330e+01 -2.9014345957e+03  6.8866536310e+02 ] stress_243 gradient
 [ -6.9050034248e-01 -3.1013182224e-04 -4.9101525088e+03  1.8880783033e+02 
   -1.4773569860e+02 -2.9995314276e+03  5.9062538468e+02 ] stress_244 gradient
 [ -7.9067864227e-01 -6.0410210541e-04 -5.0246594673e+03  6.1427322377e+02 
   -1.8250212852e+02 -3.1712810880e+03  4.1897457274e+02 ] stress_245 gradient
 [ -7.8679209545e-01  2.7741805177e-04 -5.0239004360e+03  5.8231539145e+02 
   -1.8068085842e+02 -3.1646940960e+03  4.2556188551e+02 ] stress_246 gradient
 [ -6.1647136209e-01  1.4991322407e-03 -4.9852790087e+03 -1.0604559515e+02 
   -1.3375517595e+02 -2.8706928987e+03  7.1957732275e+02 ] stress_247 gradient
 [ -2.0599914447e-02  1.3844514441e-03 -4.7711028327e+03 -1.0986598783e+03 
   -3.6137468280e+01 -1.8318989740e+03  1.7584370018e+03 ] stress_248 gradient
 [  4.4738348039e-01  8.5112775182e-04 -4.4177071499e+03 -1.1369745953e+03 
    5.3012887120e+00 -1.0108636789e+03  2.5795367877e+03 ] stress_249 gradient
 [  6.4637221178e-01  5.9571520825e-04 -4.1143689488e+03 -9.5755319568e+02 
    1.3626328418e+01 -6.6036510443e+02  2.9300661575e+03 ] stress_250 gradient
 [  7.0293197312e-01  5.2385659752e-04 -3.9851628941e+03 -8.7957678814e+02 
    1.4716810258e+01 -5.6054464053e+02  3.0298961666e+03 ] stress_251 gradient
 [  7.0261369665e-01  1.7337671662e-05 -3.9852247372e+03 -8.7610447324e+02 
    1.4320677863e+01 -5.6104323710e+02  3.0293973447e+03 ] stress_252 gradient
 [  6.4595917923e-01 -1.4010028403e-03 -3.9978302601e+03 -5.5089644192e+02 
   -2.1848109913e+01 -6.5547890912e+02  2.9349661079e+03 ] stress_253 gradient
 [  2.2137092741e-01 -2.0329865928e-03 -4.1301294203e+03  6.5827547221e+02 
   -1.4591286364e+02 -1.3870706282e+03  2.2033996372e+03 ] stress_254 gradient
 [ -2.9101492987e-01 -1.6688089678e-03 -4.4266638253e+03  1.1430161274e+03 
   -1.7733340556e+02 -2.2888428078e+03  1.3016458438e+03 ] stress_255 gradient
 [ -5.3196946135e-01 -1.4075882316e-03 -4.6944327401e+03  1.0818504217e+03 
   -1.5684160199e+02 -2.7185390542e+03  8.7195455652e+02 ] stress_256 gradient
 [ -5.8237323260e-01 -1.3503457236e-03 -4.7742245869e+03  1.0424427220e+03 
   -1.4931463940e+02 -2.8089449318e+03  7.8154885991e+02 ] stress_257 gradient
 [ -5.7003128253e-01 -4.3687338528e-05 -4.7713036905e+03  9.3823626419e+02 
   -1.4352332687e+02 -2.7880289078e+03  8.0246437354e+02 ] stress_258 gradient
 [ -2.8816480178e-01  1.1392405519e-03 -4.6866787805e+03 -2.1050336192e+02 
   -7.0166559894e+01 -2.3008216415e+03  1.2896620660e+03 ] stress_259 gradient
 [ -4.4585780687e-02  1.1485348914e-03 -4.5844831410e+03 -7.4029974118e+02 
   -2.9248520277e+01 -1.8762812208e+03  1.7141985822e+03 ] stress_260 gradient
 [ -5.0552791991e-02  1.2921173163e-04 -4.5861264332e+03 -6.8044852109e+02 
   -3.7165543618e+01 -1.8855473724e+03  1.7049323851e+03 ] stress_261 gradient
 [ -2.7902324636e-01 -1.1079890725e-03 -4.6762429455e+03  3.6296091196e+02 
   -1.5890877821e+02 -2.2701045678e+03  1.3203842824e+03 ] stress_262 gradient
 [ -6.0050328665e-01 -1.1279346106e-03 -4.9190256696e+03  8.7060478597e+02 
   -1.8808553861e+02 -2.8343554769e+03  7.5613957380e+02 ] stress_263 gradient
 [ -6.5912311858e-01 -1.0979133919e-03 -4.9934038682e+03  8.7735634861e+02 
   -1.8061491087e+02 -2.9393228265e+03  6.5117257457e+02 ] stress_264 gradient
 [ -6.5910968524e-01 -8.9564509426e-04 -4.9934017539e+03  8.7714610199e+02 
   -1.8060418042e+02 -2.9393013705e+03  6.5119405494e+02 ] stress_265 gradient
 [ -6.5810834940e-01 -4.4452669629e-04 -4.9931850388e+03  8.6641507294e+02 
   -1.8002004162e+02 -2.9376226940e+03  6.5287270590e+02 ] stress_266 gradient
 [ -6.4496202334e-01  2.1263921842e-04 -4.9902488138e+03  7.6774255757e+02 
   -1.7429020562e+02 -2.9152721831e+03  6.7522263075e+02 ] stress_267 gradient
 [ -5.7240251095e-01  9.0166559914e-04 -4.9726454185e+03  3.9506899193e+02 
   -1.5064919423e+02 -2.7906108820e+03  7.9988064330e+02 ] stress_268 gradient
 [ -3.6260712712e-01  1.2939624346e-03 -4.9112433785e+03 -2.9745308258e+02 
   -1.0035788421e+02 -2.4273077243e+03  1.1631764719e+03 ] stress_269 gradient
 [ -2.2119277423e-02  1.2282255988e-03 -4.7713607765e+03 -9.2254291909e+02 
   -4.2380800958e+01 -1.8340578563e+03  1.7564202339e+03 ] stress_270 gradient
 [  3.2250624344e-01  9.2409108709e-04 -4.5405243386e+03 -1.1414233954e+03 
   -3.4442504504e+00 -1.2306257370e+03  2.3598522934e+03 ] stress_271 gradient
 [  5.7907235863e-01  6.3688351799e-04 -4.2311514156e+03 -1.0467502584e+03 
    1.3242044227e+01 -7.7951895687e+02  2.8109626896e+03 ] stress_272 gradient
 [  7.4294219112e-01  4.4817714917e-04 -3.8624371486e+03 -8.4660489492e+02 
    1.7253443597e+01 -4.9036717318e+02  3.1001186710e+03 ] stress_273 gradient
 [  8.4215926765e-01  3.4509255636e-04 -3.4498602796e+03 -6.5264659309e+02 
    1.6235168735e+01 -3.1475185680e+02  3.2757365886e+03 ] stress_274 gradient
 [  9.0206984583e-01  2.9886021370e-04 -3.0045108059e+03 -4.9721368152e+02 
    1.3813440616e+01 -2.0842000777e+02  3.3820703757e+03 ] stress_275 gradient
 [  9.3895563524e-01  2.8761419425e-04 -2.5348311010e+03 -3.8072146502e+02 
    1.1345213887e+01 -1.4279529927e+02  3.4476960814e+03 ] stress_276 gradient
 [  9.6230517764e-01  2.9759485727e-04 -2.0478258190e+03 -2.9527517432e+02 
    9.2342216734e+00 -1.0116452903e+02  3.4893282164e+03 ] stress_277 gradient
 [  9.7752952706e-01  3.2049965305e-04 -1.5498473543e+03 -2.3273575742e+02 
    7.5388107963e+00 -7.3968027344e+01  3.5165251464e+03 ] stress_278 gradient
 [  9.8774436480e-01  3.5125523037e-04 -1.0469087573e+03 -1.8666042080e+02 
    6.2093529222e+00 -5.5689047943e+01  3.5348045416e+03 ] stress_279 gradient
 [  9.9478235268e-01  3.8664185387e-04 -5.4483014908e+02 -1.5236298806e+02 
    5.1745352877e+00 -4.3075474237e+01  3.5474182909e+03 ] stress_280 gradient
 [  9.9974927338e-01  4.2450902597e-04 -4.9287878911e+01 -1.2653632078e+02 
    4.3688574373e+00 -3.4161017106e+01  3.5563326435e+03 ] stress_281 gradient
 [  1.0033301023e+00  4.6333709259e-04  4.3419393321e+02 -1.0686460460e+02 
    3.7391142361e+00 -2.7726260542e+01  3.5627676048e+03 ] stress_282 gradient
 [  1.0059600174e+00  5.0198999463e-04  9.0025291064e+02 -9.1722973851e+01 
    3.2446193954e+00 -2.2995212546e+01  3.5674988546e+03 ] stress_283 gradient
 [  1.0079223265e+00  5.3957916298e-04  1.3437766920e+03 -7.9962018833e+01 
    2.8540757768e+00 -1.9461613689e+01  3.5710327729e+03 ] stress_284 gradient
 [  1.0094052633e+00  5.7537709491e-04  1.7598696309e+03 -7.0763155545e+01 
    2.5446811765e+00 -1.6788809120e+01  3.5737054876e+03 ] stress_285 gradient
 [  1.0105365797e+00  6.0877911539e-04  2.1439949824e+03 -6.3535975501e+01 
    2.2989986120e+00 -1.4747934844e+01  3.5757465203e+03 ] stress_286 gradient
 [  1.0114043528e+00  6.3927054570e-04  2.4919558740e+03 -5.7852271996e+01 
    2.1038385782e+00 -1.3181646846e+01  3.5773125982e+03 ] stress_287 gradient
 [  1.0120700217e+00  6.6640850142e-04  2.7999074632e+03 -5.3399863099e+01 
    1.9502590328e+00 -1.1979089131e+01  3.5785151010e+03 ] stress_288 gradient
 [  1.0125770522e+00  6.8982416169e-04  3.0645207952e+03 -4.9948970641e+01 
    1.8299885892e+00 -1.1063122274e+01  3.5794311989e+03 ] stress_289 gradient
 [  1.0129561849e+00  7.0920760879e-04  3.2829045736e+03 -4.7332262062e+01 
    1.7387797774e+00 -1.0377551986e+01  3.5801165818e+03 ] stress_290 gradient
 [  1.0132288713e+00  7.2430618667e-04  3.4526448040e+03 -4.5429492668e+01 
    1.6721615737e+00 -9.8845748472e+00  3.5806098347e+03 ] stress_291 gradient
 [  1.0134099819e+00  7.3493251557e-04  3.5719300656e+03 -4.4155987318e+01 
    1.6274513713e+00 -9.5566045572e+00  3.5809376092e+03 ] stress_292 gradient
 [  1.0135087846e+00  7.4095082848e-04  3.6394267677e+03 -4.3457498118e+01 
    1.6028607607e+00 -9.3783154183e+00  3.5811158167e+03 ] stress_293 gradient
 [  1.0135102425e+00  7.4103976264e-04  3.6404236570e+03 -4.3447294210e+01 
    1.6024136583e+00 -9.3757611306e+00  3.5811186012e+03 ] stress_294 gradient
 [  9.7802676896e-01 -9.7792590055e-04  3.6329829300e+03  1.6577388616e+02 
   -6.1769380276e+00 -7.0973893639e+01  3.5195220555e+03 ] stress_295 gradient
 [  6.3805460129e-01 -1.8191641300e-03  3.5437562604e+03  1.1312594649e+03 
   -4.2347268306e+01 -6.6723628625e+02  2.9232736277e+03 ] stress_296 gradient
 [  6.3809697983e-01 -1.1907843354e-03  3.5437576347e+03  1.1311257764e+03 
   -4.2200440001e+01 -6.6718504728e+02  2.9233248623e+03 ] stress_297 gradient
 [  8.4051569313e-01  3.6715300868e-04  3.5696862717e+03  5.1824501942e+02 
    4.7825944746e+02 -3.9432858472e+02  3.1961733065e+03 ] stress_298 gradient
 [  8.6745412450e-01  3.7501025992e-04  3.5755032214e+03  4.3751525165e+02 
    5.3284680435e+02 -3.5564086247e+02  3.2348606422e+03 ] stress_299 gradient
 [  8.6743398490e-01  1.6566377820e-04  3.5754995214e+03  4.3777268990e+02 
    5.3283182644e+02 -3.5567406819e+02  3.2348276261e+03 ] stress_300 gradient
 [  8.6656864862e-01 -2.0939070740e-04  3.5753367208e+03  4.4547304302e+02 
    5.3230044568e+02 -3.5712030476e+02  3.2333816791e+03 ] stress_301 gradient
 [  8.5783079114e-01 -7.2554020853e-04  3.5736563861e+03  5.0065894742e+02 
    5.2773821661e+02 -3.7185342474e+02  3.2186485335e+03 ] stress_302 gradient
 [  8.1427542063e-01 -1.2904275624e-03  3.5648323827e+03  6.9188979656e+02 
    5.0800738070e+02 -4.4578415952e+02  3.1447202679e+03 ] stress_303 gradient
 [  6.8223717555e-01 -1.7097442961e-03  3.5348302952e+03  1.0716494228e+03 
    4.5544633489e+02 -6.7104528819e+02  2.9194644425e+03 ] stress_304 gradient
 [  4.2436229468e-01 -1.7908995445e-03  3.4622278388e+03  1.4965299847e+03 
    3.6439619828e+02 -1.1127239954e+03  2.4777926392e+03 ] stress_305 gradient
 [  8.5748954262e-02 -1.5501942105e-03  3.3293106706e+03  1.7092989313e+03 
    2.5757793571e+02 -1.6945044564e+03  1.8960163704e+03 ] stress_306 gradient
 [ -2.3808891861e-01 -1.1860531828e-03  3.1323948987e+03  1.6335974879e+03 
    1.6575279245e+02 -2.2523410433e+03  1.3381775848e+03 ] stress_307 gradient
 [ -4.8888275825e-01 -8.6280347489e-04  2.8791939939e+03  1.3892556096e+03 
    1.0149528941e+02 -2.6853241445e+03  9.0518945883e+02 ] stress_308 gradient
 [ -6.6196830028e-01 -6.3357842128e-04  2.5802440088e+03  1.1091134879e+03 
    6.1243364743e+01 -2.9847472219e+03  6.0576148603e+02 ] stress_309 gradient
 [ -7.7558114941e-01 -4.8973301294e-04  2.2443969611e+03  8.6078489095e+02 
    3.7176086284e+01 -3.1816433143e+03  4.0886129738e+02 ] stress_310 gradient
 [ -8.4923334853e-01 -4.0781417160e-04  1.8780882315e+03  6.6260418899e+02 
    2.2926050540e+01 -3.3094955313e+03  2.8100617075e+02 ] stress_311 gradient
 [ -8.9731644237e-01 -3.6744815230e-04  1.4859771939e+03  5.1138581420e+02 
    1.4413898636e+01 -3.3930875963e+03  1.9741213742e+02 ] stress_312 gradient
 [ -9.2921246399e-01 -3.5440365425e-04  1.0717411331e+03  3.9793553829e+02 
    9.2413753063e+00 -3.4486147025e+03  1.4188339789e+02 ] stress_313 gradient
 [ -9.5079357468e-01 -3.5940868741e-04  6.3844788890e+02  3.1305461326e+02 
    6.0340889291e+00 -3.4862316682e+03  1.0426570500e+02 ] stress_314 gradient
 [ -9.6570116799e-01 -3.7652803102e-04  1.8887405702e+02  2.4927021584e+02 
    4.0035750853e+00 -3.5122470682e+03  7.8249797395e+01 ] stress_315 gradient
 [ -9.7620993558e-01 -4.0192940478e-04 -2.7433115293e+02  2.0095723717e+02 
    2.6924483935e+00 -3.5306047196e+03  5.9891243100e+01 ] stress_316 gradient
 [ -9.8376238919e-01 -4.3308523412e-04 -7.4860416018e+02  1.6400744558e+02 
    1.8297650380e+00 -3.5438113984e+03  4.6684397003e+01 ] stress_317 gradient
 [ -9.8928890748e-01 -4.6827578724e-04 -1.2313887840e+03  1.3545623114e+02 
    1.2525563232e+00 -3.5534844784e+03  3.7011071399e+01 ] stress_318 gradient
 [ -9.9340109279e-01 -5.0628828606e-04 -1.7201399438e+03  1.1316515452e+02 
    8.6044784620e-01 -3.5606880750e+03  2.9807192512e+01 ] stress_319 gradient
 [ -9.9650840168e-01 -5.4623367864e-04 -2.2123252447e+03  9.5584743666e+01 
    5.9039822484e-01 -3.5661358556e+03  2.4359532585e+01 ] stress_320 gradient
 [ -9.9888981028e-01 -5.8743013637e-04 -2.7053932630e+03  8.1585547047e+01 
    4.0216827291e-01 -3.5703131344e+03  2.0181601060e+01 ] stress_321 gradient
 [ -1.0007387587e+00 -6.2933603960e-04 -3.1968253469e+03  7.0336009585e+01 
    2.6960252151e-01 -3.5735596316e+03  1.6935678822e+01 ] stress_322 gradient
 [ -1.0021913507e+00 -6.7150082719e-04 -3.6840917441e+03  6.1219388642e+01 
    1.7504044444e-01 -3.5761118738e+03  1.4383095124e+01 ] stress_323 gradient
 [ -1.0033449519e+00 -7.1354046963e-04 -4.1647055172e+03  5.3773199299e+01 
    1.0775158965e-01 -3.5781389550e+03  1.2355587082e+01 ] stress_324 gradient
 [ -1.0042701863e+00 -7.5511941187e-04 -4.6362415717e+03  4.7647407162e+01 
    5.8793917192e-02 -3.5797665458e+03  1.0728250331e+01 ] stress_325 gradient
 [ -1.0050187463e+00 -7.9593203323e-04 -5.0962668844e+03  4.2575592234e+01 
    2.3472857147e-02 -3.5810840464e+03  9.4107877760e+00 ] stress_326 gradient
 [ -1.0056292031e+00 -8.3570559264e-04 -5.5424774041e+03  3.8352050648e+01 
   -2.4590605472e-03 -3.5821588898e+03  8.3359738220e+00 ] stress_327 gradient
 [ -1.0061304021e+00 -8.7418144715e-04 -5.9725511080e+03  3.4817958869e+01 
   -2.1013796600e-02 -3.5830411401e+03  7.4536876029e+00 ] stress_328 gradient
 [ -1.0065443781e+00 -9.1112847413e-04 -6.3843462171e+03  3.1848379556e+01 
   -3.4873957665e-02 -3.5837706441e+03  6.7241506736e+00 ] stress_329 gradient
 [ -1.0068879384e+00 -9.4632839383e-04 -6.7757711664e+03  2.9345343664e+01 
   -4.4933753585e-02 -3.5843765207e+03  6.1183247453e+00 ] stress_330 gradient
 [ -1.0071740165e+00 -9.7957610726e-04 -7.1448089203e+03  2.7231462910e+01 
   -5.2087386579e-02 -3.5848807367e+03  5.6139338858e+00 ] stress_331 gradient
 [ -1.0074128384e+00 -1.0106869867e-03 -7.4896179290e+03  2.5444741350e+01 
   -5.7452610053e-02 -3.5853021938e+03  5.1926800079e+00 ] stress_332 gradient
 [ -1.0076122142e+00 -1.0394855779e-03 -7.8084174291e+03  2.3935969627e+01 
   -6.1252977739e-02 -3.5856536635e+03  4.8410384338e+00 ] stress_333 gradient
 [ -1.0077784544e+00 -1.0658156908e-03 -8.0996063718e+03  2.2665450506e+01 
   -6.4159140666e-02 -3.5859474064e+03  4.5474734058e+00 ] stress_334 gradient
 [ -1.0079164742e+00 -1.0895368269e-03 -8.3617359375e+03  2.1601315509e+01 
   -6.5947547644e-02 -3.5861905744e+03  4.3040292394e+00 ] stress_335 gradient
 [ -1.0080301473e+00 -1.1105142813e-03 -8.5933974784e+03  2.0718383469e+01 
   -6.7512405973e-02 -3.5863913413e+03  4.1031480215e+00 ] stress_336 gradient
 [ -1.0081225354e+00 -1.1286422214e-03 -8.7934873333e+03  1.9996050561e+01 
   -6.8406608191e-02 -3.5865548155e+03  3.9400563423e+00 ] stress_337 gradient
 [ -1.0081960126e+00 -1.1438209945e-03 -8.9609573412e+03  1.9418394078e+01 
   -6.9077261761e-02 -3.5866845732e+03  3.8103785678e+00 ] stress_338 gradient
 [ -1.0082524327e+00 -1.1559693432e-03 -9.0949501561e+03  1.8972961793e+01 
   -6.9524366682e-02 -3.5867841904e+03  3.7105346340e+00 ] stress_339 gradient
 [ -1.0082931492e+00 -1.1650254676e-03 -9.1948129901e+03  1.8650276178e+01 
   -6.9747915330e-02 -3.5868557104e+03  3.6389334102e+00 ] stress_340 gradient
 [ -1.0083191620e+00 -1.1709402171e-03 -9.2600251982e+03  1.8443696046e+01 
   -6.9747915330e-02 -3.5869016875e+03  3.5927903976e+00 ] stress_341 gradient
 [ -1.0083310542e+00 -1.1736813881e-03 -9.2902447936e+03  1.8349059124e+01 
   -6.9971466520e-02 -3.5869226327e+03  3.5721055962e+00 ] stress_342 gradient



---------------------
Begin Evaluation   94
---------------------
Parameters for evaluation 94:
                      4.8055979270e+02 fy
                      2.0766151831e+05 E
                      1.8550350124e-02 b
                      8.6935937527e-01 cR1
                      5.1604269523e-02 cR2
                      1.9858626378e-02 a1
                      2.5048044804e-02 a3

blocking fork: workflow_driver1 paramsDakota.in results.out

Active response data for evaluation 94:
Active set vector = { 1 1 1 1 1 1 1 1 1 1 1 1 1 1 1 1 1 1 1 1 1 1 1 1 1 1 1 1 1 1 1 1 1 1 1 1 1 1 1 1 1 1 1 1 1 1 1 1 1 1 1 1 1 1 1 1 1 1 1 1 1 1 1 1 1 1 1 1 1 1 1 1 1 1 1 1 1 1 1 1 1 1 1 1 1 1 1 1 1 1 1 1 1 1 1 1 1 1 1 1 1 1 1 1 1 1 1 1 1 1 1 1 1 1 1 1 1 1 1 1 1 1 1 1 1 1 1 1 1 1 1 1 1 1 1 1 1 1 1 1 1 1 1 1 1 1 1 1 1 1 1 1 1 1 1 1 1 1 1 1 1 1 1 1 1 1 1 1 1 1 1 1 1 1 1 1 1 1 1 1 1 1 1 1 1 1 1 1 1 1 1 1 1 1 1 1 1 1 1 1 1 1 1 1 1 1 1 1 1 1 1 1 1 1 1 1 1 1 1 1 1 1 1 1 1 1 1 1 1 1 1 1 1 1 1 1 1 1 1 1 1 1 1 1 1 1 1 1 1 1 1 1 1 1 1 1 1 1 1 1 1 1 1 1 1 1 1 1 1 1 1 1 1 1 1 1 1 1 1 1 1 1 1 1 1 1 1 1 1 1 1 1 1 1 1 1 1 1 1 1 1 1 1 1 1 1 1 1 1 1 1 1 1 1 1 1 1 1 1 1 1 1 1 1 1 1 1 1 1 1 1 1 1 1 1 1 1 1 1 1 1 1 }
                      2.4199288887e+00 stress_1
                     -2.5149871557e+02 stress_2
                     -4.9421178126e+02 stress_3
                     -4.9574900190e+02 stress_4
                     -1.6716611689e+02 stress_5
                      2.5112222535e+02 stress_6
                      3.9901788002e+02 stress_7
                      3.9989180075e+02 stress_8
                      1.5048578314e+02 stress_9
                     -2.3136533935e+02 stress_10
                     -4.3841699209e+02 stress_11
                     -4.8836661494e+02 stress_12
                     -5.0263101717e+02 stress_13
                     -5.0365001714e+02 stress_14
                     -1.7322647416e+02 stress_15
                     -3.4104556773e+02 stress_16
                     -5.0932621870e+02 stress_17
                     -3.1470221827e+02 stress_18
                      2.1304967620e+01 stress_19
                      2.9799394802e+02 stress_20
                      4.1808951373e+02 stress_21
                      4.6321285001e+02 stress_22
                      4.8188710523e+02 stress_23
                      4.8805236767e+02 stress_24
                      1.5764852362e+02 stress_25
                      2.8565065492e+02 stress_26
                      4.2933091458e+02 stress_27
                      4.6492379250e+02 stress_28
                      3.4215935261e+02 stress_29
                      1.2871841817e+02 stress_30
                     -1.2478583790e+02 stress_31
                     -3.2030601509e+02 stress_32
                     -4.2418556188e+02 stress_33
                     -4.7409529462e+02 stress_34
                     -5.0115215549e+02 stress_35
                     -5.1872825512e+02 stress_36
                     -5.3180725981e+02 stress_37
                     -5.4219204464e+02 stress_38
                     -5.5048883368e+02 stress_39
                     -5.5684130235e+02 stress_40
                     -5.6123395588e+02 stress_41
                     -5.6360654792e+02 stress_42
                     -5.4815306191e+02 stress_43
                     -1.6128209433e+02 stress_44
                      1.0608141629e+02 stress_45
                     -9.9944803057e+01 stress_46
                     -4.5207518913e+02 stress_47
                     -1.5586401722e+02 stress_48
                     -2.5871142845e+02 stress_49
                     -4.1834601527e+02 stress_50
                     -5.6809036309e+02 stress_51
                     -3.9825604961e+02 stress_52
                     -6.0725227792e+01 stress_53
                      2.2694550241e+02 stress_54
                      3.5859331955e+02 stress_55
                      4.0802595278e+02 stress_56
                      4.2303396043e+02 stress_57
                      3.3673963475e+02 stress_58
                      2.2245782111e+01 stress_59
                     -3.1497033703e+02 stress_60
                     -4.7072766533e+02 stress_61
                     -5.2091353261e+02 stress_62
                     -5.3200604626e+02 stress_63
                     -2.6373024395e+02 stress_64
                      1.1362792109e+02 stress_65
                      2.0070387098e+02 stress_66
                     -7.1314872243e+01 stress_67
                     -4.3875540728e+02 stress_68
                     -5.3348608507e+02 stress_69
                     -5.3458207238e+02 stress_70
                     -4.3926491969e+02 stress_71
                     -2.6713851466e+02 stress_72
                     -4.3714444022e+01 stress_73
                      1.6789324302e+02 stress_74
                      3.1210903050e+02 stress_75
                      3.9243947525e+02 stress_76
                      4.3644624807e+02 stress_77
                      4.6315462100e+02 stress_78
                      4.8173008927e+02 stress_79
                      4.9619350723e+02 stress_80
                      5.0827132729e+02 stress_81
                      5.1867940143e+02 stress_82
                      5.2767823773e+02 stress_83
                      5.3532264906e+02 stress_84
                      5.4157467010e+02 stress_85
                      5.4636599252e+02 stress_86
                      5.4962707662e+02 stress_87
                      5.5130100323e+02 stress_88
                      4.7763569740e+02 stress_89
                      4.4070356410e+01 stress_90
                     -1.5940280135e+02 stress_91
                      1.3054455506e+02 stress_92
                      4.7630338643e+02 stress_93
                      4.8264394088e+02 stress_94
                      4.2249066563e+02 stress_95
                      3.1439833552e+02 stress_96
                      1.6378851039e+02 stress_97
                     -1.1726195869e+01 stress_98
                     -1.7887111563e+02 stress_99
                     -3.0738527540e+02 stress_100
                     -3.9162066435e+02 stress_101
                     -4.4347418364e+02 stress_102
                     -4.7619530871e+02 stress_103
                     -4.9853191679e+02 stress_104
                     -5.1533856415e+02 stress_105
                     -5.2917107356e+02 stress_106
                     -5.4135781387e+02 stress_107
                     -5.5258683061e+02 stress_108
                     -5.6320778588e+02 stress_109
                     -5.7338744484e+02 stress_110
                     -5.8319044546e+02 stress_111
                     -5.9262268465e+02 stress_112
                     -6.0165802799e+02 stress_113
                     -6.1025158592e+02 stress_114
                     -6.1834807890e+02 stress_115
                     -6.2588821230e+02 stress_116
                     -6.3281127132e+02 stress_117
                     -6.3906008288e+02 stress_118
                     -6.4458050560e+02 stress_119
                     -6.4932229877e+02 stress_120
                     -6.5324377571e+02 stress_121
                     -6.5630860975e+02 stress_122
                     -6.5848813584e+02 stress_123
                     -6.5976297111e+02 stress_124
                     -6.6010541958e+02 stress_125
                     -5.5761495571e+02 stress_126
                     -3.0679552318e+02 stress_127
                      3.6867080856e-01 stress_128
                      2.1952421844e+02 stress_129
                      3.2852591500e+02 stress_130
                      3.7925075851e+02 stress_131
                      4.0400172028e+02 stress_132
                      4.1524558908e+02 stress_133
                      4.1587284195e+02 stress_134
                      1.1283340631e+01 stress_135
                     -1.0592586487e+01 stress_136
                      1.7444092467e+02 stress_137
                      1.3833194657e+02 stress_138
                     -3.3887176899e+01 stress_139
                     -3.2080102724e+02 stress_140
                     -5.2998963851e+02 stress_141
                     -6.1394437213e+02 stress_142
                     -6.4658850462e+02 stress_143
                     -6.6146580814e+02 stress_144
                     -6.6761622099e+02 stress_145
                     -6.4723297923e+02 stress_146
                     -4.0934575501e+02 stress_147
                     -5.8281033110e+01 stress_148
                      1.9428376155e+02 stress_149
                      3.0663687662e+02 stress_150
                      3.4812987250e+02 stress_151
                      3.5324994030e+02 stress_152
                      1.3699644415e+02 stress_153
                     -2.3084896102e+02 stress_154
                     -4.9255311668e+02 stress_155
                     -5.8972326290e+02 stress_156
                     -6.1694152167e+02 stress_157
                     -4.9431560322e+02 stress_158
                     -8.9237595913e+01 stress_159
                      9.4266355807e+01 stress_160
                     -7.2400461233e+01 stress_161
                     -4.6658331932e+02 stress_162
                     -6.2245394754e+02 stress_163
                     -6.3359475379e+02 stress_164
                     -5.9186740399e+02 stress_165
                     -5.0964416908e+02 stress_166
                     -3.8892956226e+02 stress_167
                     -2.3673893133e+02 stress_168
                     -7.0291719134e+01 stress_169
                      8.4611320760e+01 stress_170
                      2.0703294595e+02 stress_171
                      2.9252396086e+02 stress_172
                      3.4885018006e+02 stress_173
                      3.8610326471e+02 stress_174
                      4.1195154130e+02 stress_175
                      4.3120180328e+02 stress_176
                      4.4665633697e+02 stress_177
                      4.5991280486e+02 stress_178
                      4.7187671107e+02 stress_179
                      4.8306154331e+02 stress_180
                      4.9375562286e+02 stress_181
                      5.0411409415e+02 stress_182
                      5.1421366247e+02 stress_183
                      5.2408215199e+02 stress_184
                      5.3371792544e+02 stress_185
                      5.4310032643e+02 stress_186
                      5.5219711534e+02 stress_187
                      5.6096934385e+02 stress_188
                      5.6937363095e+02 stress_189
                      5.7736528720e+02 stress_190
                      5.8489945703e+02 stress_191
                      5.9193120119e+02 stress_192
                      5.9841922325e+02 stress_193
                      6.0432348084e+02 stress_194
                      6.0960641869e+02 stress_195
                      6.1423579715e+02 stress_196
                      6.1818125976e+02 stress_197
                      6.2141838523e+02 stress_198
                      6.2392646342e+02 stress_199
                      6.2568857280e+02 stress_200
                      6.2669398793e+02 stress_201
                      6.2674323502e+02 stress_202
                      2.6492168020e+02 stress_203
                     -7.9619545872e+01 stress_204
                      2.9213905441e+01 stress_205
                      4.6720469235e+02 stress_206
                      4.8625598928e+02 stress_207
                      4.2148376105e+02 stress_208
                      3.0445667519e+02 stress_209
                      1.4255915350e+02 stress_210
                     -4.0874794554e+01 stress_211
                     -2.0668612607e+02 stress_212
                     -3.2685111466e+02 stress_213
                     -4.0236539157e+02 stress_214
                     -4.4824004652e+02 stress_215
                     -4.7754796658e+02 stress_216
                     -4.9811420491e+02 stress_217
                     -5.1408320261e+02 stress_218
                     -5.2757508032e+02 stress_219
                     -5.3966701935e+02 stress_220
                     -5.5090112187e+02 stress_221
                     -5.6153782830e+02 stress_222
                     -5.7168615363e+02 stress_223
                     -5.8137104162e+02 stress_224
                     -5.9057129871e+02 stress_225
                     -5.9923972246e+02 stress_226
                     -6.0731568650e+02 stress_227
                     -6.1473419666e+02 stress_228
                     -6.2142750151e+02 stress_229
                     -6.2733304654e+02 stress_230
                     -6.3239276304e+02 stress_231
                     -6.3655408176e+02 stress_232
                     -6.3977570773e+02 stress_233
                     -6.4202376859e+02 stress_234
                     -6.4327369876e+02 stress_235
                     -6.3678656319e+02 stress_236
                     -2.7233493161e+02 stress_237
                      2.3042425365e+01 stress_238
                     -1.9688954820e+02 stress_239
                     -4.4703565880e+02 stress_240
                     -1.1621352311e+02 stress_241
                      6.0608659282e+01 stress_242
                     -2.7171471364e+02 stress_243
                     -3.9561957786e+02 stress_244
                     -5.0428500340e+02 stress_245
                     -3.1940646851e+02 stress_246
                      1.5296441913e+01 stress_247
                      2.7686236034e+02 stress_248
                      3.9109287934e+02 stress_249
                      4.3391547138e+02 stress_250
                      4.4626308727e+02 stress_251
                      3.4092943493e+02 stress_252
                      1.9488886782e+01 stress_253
                     -3.1467147905e+02 stress_254
                     -4.8471414164e+02 stress_255
                     -5.4619121244e+02 stress_256
                     -5.5852692028e+02 stress_257
                     -2.8140820266e+02 stress_258
                      9.8205491292e+01 stress_259
                      2.1658247810e+02 stress_260
                      2.1001494347e+00 stress_261
                     -3.6354708165e+02 stress_262
                     -5.2146380594e+02 stress_263
                     -5.4332968386e+02 stress_264
                     -5.0132021082e+02 stress_265
                     -4.0717565195e+02 stress_266
                     -2.6453249187e+02 stress_267
                     -8.7072743911e+01 stress_268
                      9.4387665837e+01 stress_269
                      2.4371634012e+02 stress_270
                      3.4603490073e+02 stress_271
                      4.0988366872e+02 stress_272
                      4.4970959343e+02 stress_273
                      4.7618462924e+02 stress_274
                      4.9548594387e+02 stress_275
                      5.1090737642e+02 stress_276
                      5.2417024230e+02 stress_277
                      5.3616804914e+02 stress_278
                      5.4735820678e+02 stress_279
                      5.5796317032e+02 stress_280
                      5.6807562057e+02 stress_281
                      5.7771525653e+02 stress_282
                      5.8686007263e+02 stress_283
                      5.9546561502e+02 stress_284
                      6.0347447268e+02 stress_285
                      6.1082518078e+02 stress_286
                      6.1745548971e+02 stress_287
                      6.2330490858e+02 stress_288
                      6.2831939537e+02 stress_289
                      6.3245067508e+02 stress_290
                      6.3565775641e+02 stress_291
                      6.3790961265e+02 stress_292
                      6.3918316673e+02 stress_293
                      6.3920197157e+02 stress_294
                      2.6550528734e+02 stress_295
                     -7.1272638137e+01 stress_296
                      5.9238889933e+01 stress_297
                      4.8246455065e+02 stress_298
                      4.9724947214e+02 stress_299
                      4.5376697660e+02 stress_300
                      3.7547756047e+02 stress_301
                      2.6416171238e+02 stress_302
                      1.2611380194e+02 stress_303
                     -2.4172747872e+01 stress_304
                     -1.6494022235e+02 stress_305
                     -2.7810540270e+02 stress_306
                     -3.5884314374e+02 stress_307
                     -4.1301211336e+02 stress_308
                     -4.4923669161e+02 stress_309
                     -4.7443665494e+02 stress_310
                     -4.9313257060e+02 stress_311
                     -5.0804203583e+02 stress_312
                     -5.2075009055e+02 stress_313
                     -5.3217867819e+02 stress_314
                     -5.4286409972e+02 stress_315
                     -5.5311750140e+02 stress_316
                     -5.6311721126e+02 stress_317
                     -5.7296058078e+02 stress_318
                     -5.8269512286e+02 stress_319
                     -5.9233722197e+02 stress_320
                     -6.0188262929e+02 stress_321
                     -6.1131447491e+02 stress_322
                     -6.2060682981e+02 stress_323
                     -6.2972859343e+02 stress_324
                     -6.3864561030e+02 stress_325
                     -6.4732073120e+02 stress_326
                     -6.5571711627e+02 stress_327
                     -6.6379609835e+02 stress_328
                     -6.7152128134e+02 stress_329
                     -6.7885641719e+02 stress_330
                     -6.8576605069e+02 stress_331
                     -6.9221749241e+02 stress_332
                     -6.9817890226e+02 stress_333
                     -7.0362147422e+02 stress_334
                     -7.0851905400e+02 stress_335
                     -7.1284604239e+02 stress_336
                     -7.1658240999e+02 stress_337
                     -7.1970904346e+02 stress_338
                     -7.2221028564e+02 stress_339
                     -7.2407421106e+02 stress_340
                     -7.2529130163e+02 stress_341
                     -7.2585527677e+02 stress_342



------------------------------------------
Begin Dakota derivative estimation routine
------------------------------------------

>>>>> map at X performed previously and results retrieved

>>>>> Dakota finite difference gradient evaluation for x[1] + h:

---------------------
Begin Evaluation   95
---------------------
Parameters for evaluation 95:
                      4.8104035249e+02 fy
                      2.0766151831e+05 E
                      1.8550350124e-02 b
                      8.6935937527e-01 cR1
                      5.1604269523e-02 cR2
                      1.9858626378e-02 a1
                      2.5048044804e-02 a3

(Asynchronous job 95 added to queue)


>>>>> Dakota finite difference gradient evaluation for x[2] + h:

---------------------
Begin Evaluation   96
---------------------
Parameters for evaluation 96:
                      4.8055979270e+02 fy
                      2.0786917983e+05 E
                      1.8550350124e-02 b
                      8.6935937527e-01 cR1
                      5.1604269523e-02 cR2
                      1.9858626378e-02 a1
                      2.5048044804e-02 a3

(Asynchronous job 96 added to queue)


>>>>> Dakota finite difference gradient evaluation for x[3] + h:

---------------------
Begin Evaluation   97
---------------------
Parameters for evaluation 97:
                      4.8055979270e+02 fy
                      2.0766151831e+05 E
                      1.8568900474e-02 b
                      8.6935937527e-01 cR1
                      5.1604269523e-02 cR2
                      1.9858626378e-02 a1
                      2.5048044804e-02 a3

(Asynchronous job 97 added to queue)


>>>>> Dakota finite difference gradient evaluation for x[4] + h:

---------------------
Begin Evaluation   98
---------------------
Parameters for evaluation 98:
                      4.8055979270e+02 fy
                      2.0766151831e+05 E
                      1.8550350124e-02 b
                      8.7022873464e-01 cR1
                      5.1604269523e-02 cR2
                      1.9858626378e-02 a1
                      2.5048044804e-02 a3

(Asynchronous job 98 added to queue)


>>>>> Dakota finite difference gradient evaluation for x[5] + h:

---------------------
Begin Evaluation   99
---------------------
Parameters for evaluation 99:
                      4.8055979270e+02 fy
                      2.0766151831e+05 E
                      1.8550350124e-02 b
                      8.6935937527e-01 cR1
                      5.1655873792e-02 cR2
                      1.9858626378e-02 a1
                      2.5048044804e-02 a3

(Asynchronous job 99 added to queue)


>>>>> Dakota finite difference gradient evaluation for x[6] + h:

---------------------
Begin Evaluation  100
---------------------
Parameters for evaluation 100:
                      4.8055979270e+02 fy
                      2.0766151831e+05 E
                      1.8550350124e-02 b
                      8.6935937527e-01 cR1
                      5.1604269523e-02 cR2
                      1.9878485004e-02 a1
                      2.5048044804e-02 a3

(Asynchronous job 100 added to queue)


>>>>> Dakota finite difference gradient evaluation for x[7] + h:

---------------------
Begin Evaluation  101
---------------------
Parameters for evaluation 101:
                      4.8055979270e+02 fy
                      2.0766151831e+05 E
                      1.8550350124e-02 b
                      8.6935937527e-01 cR1
                      5.1604269523e-02 cR2
                      1.9858626378e-02 a1
                      2.5073092849e-02 a3

(Asynchronous job 101 added to queue)



Blocking synchronize of 7 asynchronous evaluations
First pass: initiating 7 local asynchronous jobs
Initiating evaluation 95
nonblocking fork: workflow_driver1 paramsDakota.in results.out
Initiating evaluation 96
nonblocking fork: workflow_driver1 paramsDakota.in results.out
Initiating evaluation 97
nonblocking fork: workflow_driver1 paramsDakota.in results.out
Initiating evaluation 98
nonblocking fork: workflow_driver1 paramsDakota.in results.out
Initiating evaluation 99
nonblocking fork: workflow_driver1 paramsDakota.in results.out
Initiating evaluation 100
nonblocking fork: workflow_driver1 paramsDakota.in results.out
Initiating evaluation 101
nonblocking fork: workflow_driver1 paramsDakota.in results.out
Waiting on completed jobs
Evaluation 95 has completed
Evaluation 96 has completed
Evaluation 97 has completed
Evaluation 98 has completed
Evaluation 99 has completed
Waiting on completed jobs
Evaluation 100 has completed
Waiting on completed jobs
Evaluation 101 has completed

Active response data for evaluation 95:
Active set vector = { 1 1 1 1 1 1 1 1 1 1 1 1 1 1 1 1 1 1 1 1 1 1 1 1 1 1 1 1 1 1 1 1 1 1 1 1 1 1 1 1 1 1 1 1 1 1 1 1 1 1 1 1 1 1 1 1 1 1 1 1 1 1 1 1 1 1 1 1 1 1 1 1 1 1 1 1 1 1 1 1 1 1 1 1 1 1 1 1 1 1 1 1 1 1 1 1 1 1 1 1 1 1 1 1 1 1 1 1 1 1 1 1 1 1 1 1 1 1 1 1 1 1 1 1 1 1 1 1 1 1 1 1 1 1 1 1 1 1 1 1 1 1 1 1 1 1 1 1 1 1 1 1 1 1 1 1 1 1 1 1 1 1 1 1 1 1 1 1 1 1 1 1 1 1 1 1 1 1 1 1 1 1 1 1 1 1 1 1 1 1 1 1 1 1 1 1 1 1 1 1 1 1 1 1 1 1 1 1 1 1 1 1 1 1 1 1 1 1 1 1 1 1 1 1 1 1 1 1 1 1 1 1 1 1 1 1 1 1 1 1 1 1 1 1 1 1 1 1 1 1 1 1 1 1 1 1 1 1 1 1 1 1 1 1 1 1 1 1 1 1 1 1 1 1 1 1 1 1 1 1 1 1 1 1 1 1 1 1 1 1 1 1 1 1 1 1 1 1 1 1 1 1 1 1 1 1 1 1 1 1 1 1 1 1 1 1 1 1 1 1 1 1 1 1 1 1 1 1 1 1 1 1 1 1 1 1 1 1 1 1 1 1 }
                      2.4199288887e+00 stress_1
                     -2.5149872620e+02 stress_2
                     -4.9469115162e+02 stress_3
                     -4.9622967155e+02 stress_4
                     -1.6763807497e+02 stress_5
                      2.5097970588e+02 stress_6
                      3.9923269432e+02 stress_7
                      4.0010908450e+02 stress_8
                      1.5069943422e+02 stress_9
                     -2.3136621474e+02 stress_10
                     -4.3881578840e+02 stress_11
                     -4.8884265711e+02 stress_12
                     -5.0311485462e+02 stress_13
                     -5.0413408989e+02 stress_14
                     -1.7369527904e+02 stress_15
                     -3.4151437278e+02 stress_16
                     -5.0980142990e+02 stress_17
                     -3.1517549390e+02 stress_18
                      2.0921254712e+01 stress_19
                      2.9796265040e+02 stress_20
                      4.1833783916e+02 stress_21
                      4.6357396872e+02 stress_22
                      4.8228918277e+02 stress_23
                      4.8846633846e+02 stress_24
                      1.5804676546e+02 stress_25
                      2.8604889635e+02 stress_26
                      4.2972770001e+02 stress_27
                      4.6532157292e+02 stress_28
                      3.4255673102e+02 stress_29
                      1.2909821116e+02 stress_30
                     -1.2453522186e+02 stress_31
                     -3.2032779715e+02 stress_32
                     -4.2443197451e+02 stress_33
                     -4.7445740184e+02 stress_34
                     -5.0156734769e+02 stress_35
                     -5.1916853605e+02 stress_36
                     -5.3226021197e+02 stress_37
                     -5.4265182810e+02 stress_38
                     -5.5095248811e+02 stress_39
                     -5.5730719975e+02 stress_40
                     -5.6170111679e+02 stress_41
                     -5.6407430917e+02 stress_42
                     -5.4862082297e+02 stress_43
                     -1.6171853746e+02 stress_44
                      1.0581513243e+02 stress_45
                     -1.0021125670e+02 stress_46
                     -4.5246362980e+02 stress_47
                     -1.5623833520e+02 stress_48
                     -2.5908575110e+02 stress_49
                     -4.1872719621e+02 stress_50
                     -5.6857893723e+02 stress_51
                     -3.9874329772e+02 stress_52
                     -6.1140166538e+01 stress_53
                      2.2683317197e+02 stress_54
                      3.5874767413e+02 stress_55
                      4.0829830151e+02 stress_56
                      4.2334204925e+02 stress_57
                      3.3704764515e+02 stress_58
                      2.2525445338e+01 stress_59
                     -3.1494241700e+02 stress_60
                     -4.7096989654e+02 stress_61
                     -5.2125891453e+02 stress_62
                     -5.3237353502e+02 stress_63
                     -2.6409068041e+02 stress_64
                      1.1343581528e+02 stress_65
                      2.0061338556e+02 stress_66
                     -7.1411717659e+01 stress_67
                     -4.3907006333e+02 stress_68
                     -5.3392623456e+02 stress_69
                     -5.3502354208e+02 stress_70
                     -4.3970621842e+02 stress_71
                     -2.6757240801e+02 stress_72
                     -4.4085690337e+01 stress_73
                      1.6771067632e+02 stress_74
                      3.1217119832e+02 stress_75
                      3.9268202463e+02 stress_76
                      4.3679144875e+02 stress_77
                      4.6355448882e+02 stress_78
                      4.8215953879e+02 stress_79
                      4.9663965784e+02 stress_80
                      5.0872735734e+02 stress_81
                      5.1914152877e+02 stress_82
                      5.2814425975e+02 stress_83
                      5.3579121831e+02 stress_84
                      5.4204491840e+02 stress_85
                      5.4683732832e+02 stress_86
                      5.5009906856e+02 stress_87
                      5.5177330832e+02 stress_88
                      4.7810794373e+02 stress_89
                      4.4474439590e+01 stress_90
                     -1.5916267352e+02 stress_91
                      1.3078750177e+02 stress_92
                      4.7675351133e+02 stress_93
                      4.8310219613e+02 stress_94
                      4.2294888586e+02 stress_95
                      3.1485507606e+02 stress_96
                      1.6423104243e+02 stress_97
                     -1.1345960973e+01 stress_98
                     -1.7863758352e+02 stress_99
                     -3.0735153419e+02 stress_100
                     -3.9176603172e+02 stress_101
                     -4.4374451668e+02 stress_102
                     -4.7654344593e+02 stress_103
                     -4.9892692736e+02 stress_104
                     -5.1576198717e+02 stress_105
                     -5.2961211678e+02 stress_106
                     -5.4181009991e+02 stress_107
                     -5.5304650305e+02 stress_108
                     -5.6367244847e+02 stress_109
                     -5.7385556685e+02 stress_110
                     -5.8366102233e+02 stress_111
                     -5.9309504012e+02 stress_112
                     -6.0213169605e+02 stress_113
                     -6.1072623822e+02 stress_114
                     -6.1882347911e+02 stress_115
                     -6.2636418695e+02 stress_116
                     -6.3328769043e+02 stress_117
                     -6.3953684724e+02 stress_118
                     -6.4505753786e+02 stress_119
                     -6.4979953717e+02 stress_120
                     -6.5372116984e+02 stress_121
                     -6.5678611718e+02 stress_122
                     -6.5896571968e+02 stress_123
                     -6.6024059814e+02 stress_124
                     -6.6058305802e+02 stress_125
                     -5.5809241091e+02 stress_126
                     -3.0725661480e+02 stress_127
                      5.1064559374e-02 stress_128
                      2.1949262235e+02 stress_129
                      3.2871435460e+02 stress_130
                      3.7955311907e+02 stress_131
                      4.0435743447e+02 stress_132
                      4.1562375964e+02 stress_133
                      4.1625221770e+02 stress_134
                      1.1638246710e+01 stress_135
                     -1.0242990685e+01 stress_136
                      1.7479575513e+02 stress_137
                      1.3868677049e+02 stress_138
                     -3.3537274972e+01 stress_139
                     -3.2057329239e+02 stress_140
                     -5.3009668594e+02 stress_141
                     -6.1426442087e+02 stress_142
                     -6.4698939345e+02 stress_143
                     -6.6189655106e+02 stress_144
                     -6.6805711031e+02 stress_145
                     -6.4767386807e+02 stress_146
                     -4.0978167785e+02 stress_147
                     -5.8609792525e+01 stress_148
                      1.9423219189e+02 stress_149
                      3.0679159717e+02 stress_150
                      3.4837226002e+02 stress_151
                      3.5350335475e+02 stress_152
                      1.3724764164e+02 stress_153
                     -2.3069542663e+02 stress_154
                     -4.9268911976e+02 stress_155
                     -5.9003122407e+02 stress_156
                     -6.1730000362e+02 stress_157
                     -4.9467372967e+02 stress_158
                     -8.9524520485e+01 stress_159
                      9.4118014502e+01 stress_160
                     -7.2549363530e+01 stress_161
                     -4.6685718771e+02 stress_162
                     -6.2290265413e+02 stress_163
                     -6.3405537996e+02 stress_164
                     -5.9232802268e+02 stress_165
                     -5.1010440122e+02 stress_166
                     -3.8938550799e+02 stress_167
                     -2.3717238343e+02 stress_168
                     -7.0655494651e+01 stress_169
                      8.4383473145e+01 stress_170
                      2.0698045158e+02 stress_171
                      2.9263516574e+02 stress_172
                      3.4908542342e+02 stress_173
                      3.8642271118e+02 stress_174
                      4.1232567065e+02 stress_175
                      4.3161116138e+02 stress_176
                      4.4708862205e+02 stress_177
                      4.6036028813e+02 stress_178
                      4.7233448652e+02 stress_179
                      4.8352644278e+02 stress_180
                      4.9422555909e+02 stress_181
                      5.0458766279e+02 stress_182
                      5.1468989949e+02 stress_183
                      5.2456038253e+02 stress_184
                      5.3419766839e+02 stress_185
                      5.4358123285e+02 stress_186
                      5.5267892801e+02 stress_187
                      5.6145187028e+02 stress_188
                      5.6985672497e+02 stress_189
                      5.7784883626e+02 stress_190
                      5.8538337334e+02 stress_191
                      5.9241541528e+02 stress_192
                      5.9890367948e+02 stress_193
                      6.0480813401e+02 stress_194
                      6.1009123150e+02 stress_195
                      6.1472073837e+02 stress_196
                      6.1866630278e+02 stress_197
                      6.2190350692e+02 stress_198
                      6.2441164327e+02 stress_199
                      6.2617379211e+02 stress_200
                      6.2717922927e+02 stress_201
                      6.2722847743e+02 stress_202
                      2.6539045021e+02 stress_203
                     -7.9319985023e+01 stress_204
                      2.9513468030e+01 stress_205
                      4.6758552362e+02 stress_206
                      4.8665374945e+02 stress_207
                      4.2188147439e+02 stress_208
                      3.0485244063e+02 stress_209
                      1.4293674427e+02 stress_210
                     -4.0572094833e+01 stress_211
                     -2.0654292929e+02 stress_212
                     -3.2690192623e+02 stress_213
                     -4.0257492705e+02 stress_214
                     -4.4855432099e+02 stress_215
                     -4.7792572224e+02 stress_216
                     -4.9852984205e+02 stress_217
                     -5.1452180368e+02 stress_218
                     -5.2802799254e+02 stress_219
                     -5.4012912924e+02 stress_220
                     -5.5136932478e+02 stress_221
                     -5.6201018277e+02 stress_222
                     -5.7216140985e+02 stress_223
                     -5.8184837240e+02 stress_224
                     -5.9105014223e+02 stress_225
                     -5.9971968768e+02 stress_226
                     -6.0779649482e+02 stress_227
                     -6.1521564520e+02 stress_228
                     -6.2190943901e+02 stress_229
                     -6.2781535776e+02 stress_230
                     -6.3287535793e+02 stress_231
                     -6.3703688792e+02 stress_232
                     -6.4025866523e+02 stress_233
                     -6.4250682586e+02 stress_234
                     -6.4375680956e+02 stress_235
                     -6.3726967399e+02 stress_236
                     -2.7280079339e+02 stress_237
                      2.2703764448e+01 stress_238
                     -1.9723134984e+02 stress_239
                     -4.4742014895e+02 stress_240
                     -1.1657753221e+02 stress_241
                      6.0321143685e+01 stress_242
                     -2.7201661353e+02 stress_243
                     -3.9595146535e+02 stress_244
                     -5.0466568427e+02 stress_245
                     -3.1978515197e+02 stress_246
                      1.5001225512e+01 stress_247
                      2.7685182329e+02 stress_248
                      3.9130517385e+02 stress_249
                      4.3422316752e+02 stress_250
                      4.4659803719e+02 stress_251
                      3.4126421820e+02 stress_252
                      1.9795435381e+01 stress_253
                     -3.1457013911e+02 stress_254
                     -4.8485674437e+02 stress_255
                     -5.4644826987e+02 stress_256
                     -5.5880794150e+02 stress_257
                     -2.8168293997e+02 stress_258
                      9.8067995479e+01 stress_259
                      2.1656146506e+02 stress_260
                      2.0760849248e+00 stress_261
                     -3.6368303473e+02 stress_262
                     -5.2175397562e+02 stress_263
                     -5.4364782899e+02 stress_264
                     -5.0163834860e+02 stress_265
                     -4.0749326674e+02 stress_266
                     -2.6484344744e+02 stress_267
                     -8.7347856722e+01 stress_268
                      9.4214072228e+01 stress_269
                      2.4370538337e+02 stress_270
                      3.4618798977e+02 stress_271
                      4.1015933516e+02 stress_272
                      4.5006408551e+02 stress_273
                      4.7658719892e+02 stress_274
                      4.9591774304e+02 stress_275
                      5.1135728063e+02 stress_276
                      5.2463166814e+02 stress_277
                      5.3663702211e+02 stress_278
                      5.4783226416e+02 stress_279
                      5.5844074343e+02 stress_280
                      5.6855568273e+02 stress_281
                      5.7819711819e+02 stress_282
                      5.8734325924e+02 stress_283
                      5.9594979244e+02 stress_284
                      6.0395940032e+02 stress_285
                      6.1131068173e+02 stress_286
                      6.1794143106e+02 stress_287
                      6.2379118820e+02 stress_288
                      6.2880593293e+02 stress_289
                      6.3293740567e+02 stress_290
                      6.3614462594e+02 stress_291
                      6.3839657449e+02 stress_292
                      6.3967017896e+02 stress_293
                      6.3968898454e+02 stress_294
                      2.6597449460e+02 stress_295
                     -7.0967946951e+01 stress_296
                      5.9543594278e+01 stress_297
                      4.8286381804e+02 stress_298
                      4.9766210578e+02 stress_299
                      4.5417959951e+02 stress_300
                      3.7588974073e+02 stress_301
                      2.6456954494e+02 stress_302
                      1.2650043135e+02 stress_303
                     -2.3849289849e+01 stress_304
                     -1.6473876121e+02 stress_305
                     -2.7806359277e+02 stress_306
                     -3.5895457901e+02 stress_307
                     -4.1324315419e+02 stress_308
                     -4.4955102753e+02 stress_309
                     -4.7480614360e+02 stress_310
                     -4.9353809352e+02 stress_311
                     -5.0847124475e+02 stress_312
                     -5.2119510581e+02 stress_313
                     -5.3263444455e+02 stress_314
                     -5.4332732734e+02 stress_315
                     -5.5358601070e+02 stress_316
                     -5.6358953073e+02 stress_317
                     -5.7343569793e+02 stress_318
                     -5.8317232824e+02 stress_319
                     -5.9281600983e+02 stress_320
                     -6.0236263315e+02 stress_321
                     -6.1179542518e+02 stress_322
                     -6.2108852530e+02 stress_323
                     -6.3021088198e+02 stress_324
                     -6.3912837540e+02 stress_325
                     -6.4780388256e+02 stress_326
                     -6.5620058315e+02 stress_327
                     -6.6427982466e+02 stress_328
                     -6.7200522223e+02 stress_329
                     -6.7934053638e+02 stress_330
                     -6.8625031853e+02 stress_331
                     -6.9270188447e+02 stress_332
                     -6.9866339813e+02 stress_333
                     -7.0410605671e+02 stress_334
                     -7.0900370847e+02 stress_335
                     -7.1333075617e+02 stress_336
                     -7.1706717200e+02 stress_337
                     -7.2019384386e+02 stress_338
                     -7.2269511552e+02 stress_339
                     -7.2455906223e+02 stress_340
                     -7.2577616641e+02 stress_341
                     -7.2634014777e+02 stress_342


Active response data for evaluation 96:
Active set vector = { 1 1 1 1 1 1 1 1 1 1 1 1 1 1 1 1 1 1 1 1 1 1 1 1 1 1 1 1 1 1 1 1 1 1 1 1 1 1 1 1 1 1 1 1 1 1 1 1 1 1 1 1 1 1 1 1 1 1 1 1 1 1 1 1 1 1 1 1 1 1 1 1 1 1 1 1 1 1 1 1 1 1 1 1 1 1 1 1 1 1 1 1 1 1 1 1 1 1 1 1 1 1 1 1 1 1 1 1 1 1 1 1 1 1 1 1 1 1 1 1 1 1 1 1 1 1 1 1 1 1 1 1 1 1 1 1 1 1 1 1 1 1 1 1 1 1 1 1 1 1 1 1 1 1 1 1 1 1 1 1 1 1 1 1 1 1 1 1 1 1 1 1 1 1 1 1 1 1 1 1 1 1 1 1 1 1 1 1 1 1 1 1 1 1 1 1 1 1 1 1 1 1 1 1 1 1 1 1 1 1 1 1 1 1 1 1 1 1 1 1 1 1 1 1 1 1 1 1 1 1 1 1 1 1 1 1 1 1 1 1 1 1 1 1 1 1 1 1 1 1 1 1 1 1 1 1 1 1 1 1 1 1 1 1 1 1 1 1 1 1 1 1 1 1 1 1 1 1 1 1 1 1 1 1 1 1 1 1 1 1 1 1 1 1 1 1 1 1 1 1 1 1 1 1 1 1 1 1 1 1 1 1 1 1 1 1 1 1 1 1 1 1 1 1 1 1 1 1 1 1 1 1 1 1 1 1 1 1 1 1 1 1 }
                      2.4223488175e+00 stress_1
                     -2.5175020348e+02 stress_2
                     -4.9422659820e+02 stress_3
                     -4.9576407614e+02 stress_4
                     -1.6686137728e+02 stress_5
                      2.5151507419e+02 stress_6
                      3.9920166899e+02 stress_7
                      4.0007399930e+02 stress_8
                      1.5042223439e+02 stress_9
                     -2.3159575425e+02 stress_10
                     -4.3845690162e+02 stress_11
                     -4.8837916265e+02 stress_12
                     -5.0264995385e+02 stress_13
                     -5.0366973148e+02 stress_14
                     -1.7293109091e+02 stress_15
                     -3.4091800341e+02 stress_16
                     -5.0936046739e+02 stress_17
                     -3.1454378644e+02 stress_18
                      2.1709571562e+01 stress_19
                      2.9832247005e+02 stress_20
                      4.1825879011e+02 stress_21
                      4.6331467786e+02 stress_22
                      4.8196674001e+02 stress_23
                      4.8812630174e+02 stress_24
                      1.5740783892e+02 stress_25
                      2.8553797275e+02 stress_26
                      4.2936337430e+02 stress_27
                      4.6499086398e+02 stress_28
                      3.4210406325e+02 stress_29
                      1.2846733439e+02 stress_30
                     -1.2516093012e+02 stress_31
                     -3.2060400558e+02 stress_32
                     -4.2436295774e+02 stress_33
                     -4.7420708021e+02 stress_34
                     -5.0123800809e+02 stress_35
                     -5.1880664131e+02 stress_36
                     -5.3188607664e+02 stress_37
                     -5.4227442689e+02 stress_38
                     -5.5057564826e+02 stress_39
                     -5.5693223011e+02 stress_40
                     -5.6132801479e+02 stress_41
                     -5.6370238001e+02 stress_42
                     -5.4823344071e+02 stress_43
                     -1.6100702161e+02 stress_44
                      1.0645331875e+02 stress_45
                     -9.9778754311e+01 stress_46
                     -4.5213884922e+02 stress_47
                     -1.5564563727e+02 stress_48
                     -2.5859589116e+02 stress_49
                     -4.1838321037e+02 stress_50
                     -5.6816986440e+02 stress_51
                     -3.9816704747e+02 stress_52
                     -6.0371222742e+01 stress_53
                      2.2728413039e+02 stress_54
                      3.5879698805e+02 stress_55
                      4.0816121053e+02 stress_56
                      4.2314854462e+02 stress_57
                      3.3676800339e+02 stress_58
                      2.1988098635e+01 stress_59
                     -3.1531304454e+02 stress_60
                     -4.7095596427e+02 stress_61
                     -5.2108894821e+02 stress_62
                     -5.3217046886e+02 stress_63
                     -2.6363346618e+02 stress_64
                      1.1393334772e+02 stress_65
                      2.0099463406e+02 stress_66
                     -7.1289739106e+01 stress_67
                     -4.3887961552e+02 stress_68
                     -5.3357953326e+02 stress_69
                     -5.3467529587e+02 stress_70
                     -4.3926299760e+02 stress_71
                     -2.6697189622e+02 stress_72
                     -4.3387223675e+01 stress_73
                      1.6824308053e+02 stress_74
                      3.1235830519e+02 stress_75
                      3.9258888196e+02 stress_76
                      4.3653718687e+02 stress_77
                      4.6321771454e+02 stress_78
                      4.8178224308e+02 stress_79
                      4.9624346228e+02 stress_80
                      5.0832350411e+02 stress_81
                      5.1873590357e+02 stress_82
                      5.2773985332e+02 stress_83
                      5.3538936791e+02 stress_84
                      5.4164596592e+02 stress_85
                      5.4644099477e+02 stress_86
                      5.4970468538e+02 stress_87
                      5.5137997352e+02 stress_88
                      4.7764106134e+02 stress_89
                      4.3710519112e+01 stress_90
                     -1.5980184492e+02 stress_91
                      1.3043261307e+02 stress_92
                      4.7632964968e+02 stress_93
                      4.8266841753e+02 stress_94
                      4.2245502414e+02 stress_95
                      3.1425608665e+02 stress_96
                      1.6350990766e+02 stress_97
                     -1.2117840616e+01 stress_98
                     -1.7928293065e+02 stress_99
                     -3.0772569005e+02 stress_100
                     -3.9186629868e+02 stress_101
                     -4.4364687259e+02 stress_102
                     -4.7632305763e+02 stress_103
                     -4.9863522873e+02 stress_104
                     -5.1543033543e+02 stress_105
                     -5.2925909917e+02 stress_106
                     -5.4144681081e+02 stress_107
                     -5.5267968837e+02 stress_108
                     -5.6330628680e+02 stress_109
                     -5.7349267461e+02 stress_110
                     -5.8330302946e+02 stress_111
                     -5.9274292671e+02 stress_112
                     -6.0178599607e+02 stress_113
                     -6.1038716577e+02 stress_114
                     -6.1849100917e+02 stress_115
                     -6.2603810970e+02 stress_116
                     -6.3296764840e+02 stress_117
                     -6.3922236437e+02 stress_118
                     -6.4474804029e+02 stress_119
                     -6.4949436961e+02 stress_120
                     -6.5341961268e+02 stress_121
                     -6.5648739854e+02 stress_122
                     -6.5866902792e+02 stress_123
                     -6.5994509495e+02 stress_124
                     -6.6028787448e+02 stress_125
                     -5.5769510401e+02 stress_126
                     -3.0664126773e+02 stress_127
                      6.8626763766e-01 stress_128
                      2.1977471045e+02 stress_129
                      3.2866548318e+02 stress_130
                      3.7932727835e+02 stress_131
                      4.0404972654e+02 stress_132
                      4.1528242398e+02 stress_133
                      4.1590910119e+02 stress_134
                      1.0939558045e+01 stress_135
                     -1.0952919184e+01 stress_136
                      1.7426039012e+02 stress_137
                      1.3811530961e+02 stress_138
                     -3.4271090434e+01 stress_139
                     -3.2134931588e+02 stress_140
                     -5.3041203968e+02 stress_141
                     -6.1423794485e+02 stress_142
                     -6.4683402806e+02 stress_143
                     -6.6169641531e+02 stress_144
                     -6.6784285318e+02 stress_145
                     -6.4743922866e+02 stress_146
                     -4.0931909930e+02 stress_147
                     -5.8010751224e+01 stress_148
                      1.9452909288e+02 stress_149
                      3.0678830712e+02 stress_150
                      3.4823520713e+02 stress_151
                      3.5334938039e+02 stress_152
                      1.3688185604e+02 stress_153
                     -2.3123347971e+02 stress_154
                     -4.9290952777e+02 stress_155
                     -5.9000493442e+02 stress_156
                     -6.1719992276e+02 stress_157
                     -4.9445173500e+02 stress_158
                     -8.9040036619e+01 stress_159
                      9.4508602612e+01 stress_160
                     -7.2324316793e+01 stress_161
                     -4.6677615021e+02 stress_162
                     -6.2262779956e+02 stress_163
                     -6.3376782345e+02 stress_164
                     -5.9199875382e+02 stress_165
                     -5.0969368349e+02 stress_166
                     -3.8886266219e+02 stress_167
                     -2.3654240105e+02 stress_168
                     -6.9998589465e+01 stress_169
                      8.4923204719e+01 stress_170
                      2.0729179080e+02 stress_171
                      2.9270465226e+02 stress_172
                      3.4896329098e+02 stress_173
                      3.8616955658e+02 stress_174
                      4.1198910076e+02 stress_175
                      4.3122345697e+02 stress_176
                      4.4667056832e+02 stress_177
                      4.5992512885e+02 stress_178
                      4.7189073058e+02 stress_179
                      4.8307964031e+02 stress_180
                      4.9377938908e+02 stress_181
                      5.0414459504e+02 stress_182
                      5.1425160089e+02 stress_183
                      5.2412797016e+02 stress_184
                      5.3377187058e+02 stress_185
                      5.4316249327e+02 stress_186
                      5.5226747489e+02 stress_187
                      5.6104776357e+02 stress_188
                      5.6945988873e+02 stress_189
                      5.7745908267e+02 stress_190
                      5.8500042031e+02 stress_191
                      5.9203889914e+02 stress_192
                      5.9853316765e+02 stress_193
                      6.0444313304e+02 stress_194
                      6.0973119458e+02 stress_195
                      6.1436507430e+02 stress_196
                      6.1831438082e+02 stress_197
                      6.2155466492e+02 stress_198
                      6.2406519317e+02 stress_199
                      6.2582902529e+02 stress_200
                      6.2683542387e+02 stress_201
                      6.2688471914e+02 stress_202
                      2.6471786650e+02 stress_203
                     -7.9998317829e+01 stress_204
                      2.8943965159e+01 stress_205
                      4.6729114074e+02 stress_206
                      4.8634453383e+02 stress_207
                      4.2150758038e+02 stress_208
                      3.0436542178e+02 stress_209
                      1.4232423367e+02 stress_210
                     -4.1218067324e+01 stress_211
                     -2.0703546242e+02 stress_212
                     -3.2712654116e+02 stress_213
                     -4.0255771616e+02 stress_214
                     -4.4837365057e+02 stress_215
                     -4.7764751104e+02 stress_216
                     -4.9819651111e+02 stress_217
                     -5.1415856375e+02 stress_218
                     -5.2764965443e+02 stress_219
                     -5.3974450890e+02 stress_220
                     -5.5098376671e+02 stress_221
                     -5.6162696805e+02 stress_222
                     -5.7178254681e+02 stress_223
                     -5.8147505004e+02 stress_224
                     -5.9068299823e+02 stress_225
                     -5.9935897138e+02 stress_226
                     -6.0744217028e+02 stress_227
                     -6.1486746025e+02 stress_228
                     -6.2156697060e+02 stress_229
                     -6.2747804835e+02 stress_230
                     -6.3254254158e+02 stress_231
                     -6.3670781084e+02 stress_232
                     -6.3993250748e+02 stress_233
                     -6.4218271685e+02 stress_234
                     -6.4343384355e+02 stress_235
                     -6.3694022085e+02 stress_236
                     -2.7214144004e+02 stress_237
                      2.3403794272e+01 stress_238
                     -1.9674496241e+02 stress_239
                     -4.4709842497e+02 stress_240
                     -1.1596601084e+02 stress_241
                      6.0956314498e+01 stress_242
                     -2.7168495545e+02 stress_243
                     -3.9568365464e+02 stress_244
                     -5.0440883146e+02 stress_245
                     -3.1934742156e+02 stress_246
                      1.5606521757e+01 stress_247
                      2.7714906501e+02 stress_248
                      3.9127112809e+02 stress_249
                      4.3404128385e+02 stress_250
                      4.4637404266e+02 stress_251
                      3.4093522389e+02 stress_252
                      1.9201556618e+01 stress_253
                     -3.1508734959e+02 stress_254
                     -4.8505596812e+02 stress_255
                     -5.4648009836e+02 stress_256
                     -5.5880419347e+02 stress_257
                     -2.8141465990e+02 stress_258
                      9.8441102502e+01 stress_259
                      2.1681983650e+02 stress_260
                      2.1260847498e+00 stress_261
                     -3.6377470693e+02 stress_262
                     -5.2169502628e+02 stress_263
                     -5.4355479205e+02 stress_264
                     -5.0150331691e+02 stress_265
                     -4.0726513809e+02 stress_266
                     -2.6448601381e+02 stress_267
                     -8.6884743844e+01 stress_268
                      9.4655405429e+01 stress_269
                      2.4397060386e+02 stress_270
                      3.4622742806e+02 stress_271
                      4.1001755318e+02 stress_272
                      4.4980457193e+02 stress_273
                      4.7625807640e+02 stress_274
                      4.9554951109e+02 stress_275
                      5.1096829170e+02 stress_276
                      5.2423291964e+02 stress_277
                      5.3623519104e+02 stress_278
                      5.4743146390e+02 stress_279
                      5.5804352325e+02 stress_280
                      5.6816360159e+02 stress_281
                      5.7781108106e+02 stress_282
                      5.8696371953e+02 stress_283
                      5.9557687853e+02 stress_284
                      6.0359299625e+02 stress_285
                      6.1095048282e+02 stress_286
                      6.1758698247e+02 stress_287
                      6.2344191314e+02 stress_288
                      6.2846115696e+02 stress_289
                      6.3259637529e+02 stress_290
                      6.3580652502e+02 stress_291
                      6.3806054098e+02 stress_292
                      6.3933531831e+02 stress_293
                      6.3935414123e+02 stress_294
                      2.6530162084e+02 stress_295
                     -7.1648204764e+01 stress_296
                      5.8993821476e+01 stress_297
                      4.8254782986e+02 stress_298
                      4.9733415502e+02 stress_299
                      4.5380818774e+02 stress_300
                      3.7544092634e+02 stress_301
                      2.6401812430e+02 stress_302
                      1.2585343347e+02 stress_303
                     -2.4520071236e+01 stress_304
                     -1.6530610542e+02 stress_305
                     -2.7842468173e+02 stress_306
                     -3.5908994704e+02 stress_307
                     -4.1319359412e+02 stress_308
                     -4.4937122455e+02 stress_309
                     -4.7454133504e+02 stress_310
                     -4.9321998539e+02 stress_311
                     -5.0812072533e+02 stress_312
                     -5.2082571733e+02 stress_313
                     -5.3225500728e+02 stress_314
                     -5.4294367045e+02 stress_315
                     -5.5320205638e+02 stress_316
                     -5.6320796486e+02 stress_317
                     -5.7305838676e+02 stress_318
                     -5.8280058018e+02 stress_319
                     -5.9245074272e+02 stress_320
                     -6.0200448237e+02 stress_321
                     -6.1144481570e+02 stress_322
                     -6.2074571954e+02 stress_323
                     -6.2987601330e+02 stress_324
                     -6.3880147177e+02 stress_325
                     -6.4748488247e+02 stress_326
                     -6.5588934918e+02 stress_327
                     -6.6397615142e+02 stress_328
                     -6.7170884554e+02 stress_329
                     -6.7905113865e+02 stress_330
                     -6.8596753347e+02 stress_331
                     -6.9242530273e+02 stress_332
                     -6.9839257043e+02 stress_333
                     -7.0384049853e+02 stress_334
                     -7.0874290409e+02 stress_335
                     -7.1307416030e+02 stress_336
                     -7.1681421615e+02 stress_337
                     -7.1994393796e+02 stress_338
                     -7.2244765198e+02 stress_339
                     -7.2431342008e+02 stress_340
                     -7.2553171418e+02 stress_341
                     -7.2609624708e+02 stress_342


Active response data for evaluation 97:
Active set vector = { 1 1 1 1 1 1 1 1 1 1 1 1 1 1 1 1 1 1 1 1 1 1 1 1 1 1 1 1 1 1 1 1 1 1 1 1 1 1 1 1 1 1 1 1 1 1 1 1 1 1 1 1 1 1 1 1 1 1 1 1 1 1 1 1 1 1 1 1 1 1 1 1 1 1 1 1 1 1 1 1 1 1 1 1 1 1 1 1 1 1 1 1 1 1 1 1 1 1 1 1 1 1 1 1 1 1 1 1 1 1 1 1 1 1 1 1 1 1 1 1 1 1 1 1 1 1 1 1 1 1 1 1 1 1 1 1 1 1 1 1 1 1 1 1 1 1 1 1 1 1 1 1 1 1 1 1 1 1 1 1 1 1 1 1 1 1 1 1 1 1 1 1 1 1 1 1 1 1 1 1 1 1 1 1 1 1 1 1 1 1 1 1 1 1 1 1 1 1 1 1 1 1 1 1 1 1 1 1 1 1 1 1 1 1 1 1 1 1 1 1 1 1 1 1 1 1 1 1 1 1 1 1 1 1 1 1 1 1 1 1 1 1 1 1 1 1 1 1 1 1 1 1 1 1 1 1 1 1 1 1 1 1 1 1 1 1 1 1 1 1 1 1 1 1 1 1 1 1 1 1 1 1 1 1 1 1 1 1 1 1 1 1 1 1 1 1 1 1 1 1 1 1 1 1 1 1 1 1 1 1 1 1 1 1 1 1 1 1 1 1 1 1 1 1 1 1 1 1 1 1 1 1 1 1 1 1 1 1 1 1 1 1 }
                      2.4199288887e+00 stress_1
                     -2.5149871558e+02 stress_2
                     -4.9421599331e+02 stress_3
                     -4.9575466935e+02 stress_4
                     -1.6717176488e+02 stress_5
                      2.5111801430e+02 stress_6
                      3.9901742200e+02 stress_7
                      3.9989138792e+02 stress_8
                      1.5048536349e+02 stress_9
                     -2.3136660434e+02 stress_10
                     -4.3842380620e+02 stress_11
                     -4.8838106861e+02 stress_12
                     -5.0265083699e+02 stress_13
                     -5.0367033449e+02 stress_14
                     -1.7324671335e+02 stress_15
                     -3.4106580692e+02 stress_16
                     -5.0934693052e+02 stress_17
                     -3.1472292091e+02 stress_18
                      2.1284815591e+01 stress_19
                      2.9797752149e+02 stress_20
                      4.1808032542e+02 stress_21
                      4.6321127406e+02 stress_22
                      4.8189118067e+02 stress_23
                      4.8805885798e+02 stress_24
                      1.5765492225e+02 stress_25
                      2.8565705355e+02 stress_26
                      4.2933732859e+02 stress_27
                      4.6493027713e+02 stress_28
                      3.4216583524e+02 stress_29
                      1.2872479728e+02 stress_30
                     -1.2478044739e+02 stress_31
                     -3.2030411257e+02 stress_32
                     -4.2418998141e+02 stress_33
                     -4.7410781365e+02 stress_34
                     -5.0117358638e+02 stress_35
                     -5.1875876472e+02 stress_36
                     -5.3184652795e+02 stress_37
                     -5.4223934195e+02 stress_38
                     -5.5054307757e+02 stress_39
                     -5.5690110860e+02 stress_40
                     -5.6129770635e+02 stress_41
                     -5.6367245689e+02 stress_42
                     -5.4821897088e+02 stress_43
                     -1.6134777539e+02 stress_44
                      1.0601734185e+02 stress_45
                     -1.0000887768e+02 stress_46
                     -4.5213972047e+02 stress_47
                     -1.5592845167e+02 stress_48
                     -2.5877586290e+02 stress_49
                     -4.1841046662e+02 stress_50
                     -5.6815647798e+02 stress_51
                     -3.9832215585e+02 stress_52
                     -6.0790781118e+01 stress_53
                      2.2688351847e+02 stress_54
                      3.5853780269e+02 stress_55
                      4.0797628797e+02 stress_56
                      4.2298703012e+02 stress_57
                      3.3669270412e+02 stress_58
                      2.2198683153e+01 stress_59
                     -3.1501988723e+02 stress_60
                     -4.7078325021e+02 stress_61
                     -5.2097469508e+02 stress_62
                     -5.3206917148e+02 stress_63
                     -2.6379331697e+02 stress_64
                      1.1356650807e+02 stress_65
                      2.0064384725e+02 stress_66
                     -7.1374918346e+01 stress_67
                     -4.3881749663e+02 stress_68
                     -5.3355250108e+02 stress_69
                     -5.3464859346e+02 stress_70
                     -4.3933143967e+02 stress_71
                     -2.6720498356e+02 stress_72
                     -4.3780420529e+01 stress_73
                      1.6782926855e+02 stress_74
                      3.1204945757e+02 stress_75
                      3.9238644598e+02 stress_76
                      4.3640116956e+02 stress_77
                      4.6311830528e+02 stress_78
                      4.8170292770e+02 stress_79
                      4.9617556129e+02 stress_80
                      5.0826237246e+02 stress_81
                      5.1867895336e+02 stress_82
                      5.2768557424e+02 stress_83
                      5.3533683532e+02 stress_84
                      5.4159458410e+02 stress_85
                      5.4639035799e+02 stress_86
                      5.4965449797e+02 stress_87
                      5.5133000053e+02 stress_88
                      4.7766469430e+02 stress_89
                      4.4098804666e+01 stress_90
                     -1.5937608473e+02 stress_91
                      1.3057127658e+02 stress_92
                      4.7633152072e+02 stress_93
                      4.8267221682e+02 stress_94
                      4.2251894134e+02 stress_95
                      3.1442660134e+02 stress_96
                      1.6381667581e+02 stress_97
                     -1.1698525725e+01 stress_98
                     -1.7884492727e+02 stress_99
                     -3.0736208075e+02 stress_100
                     -3.9160202936e+02 stress_101
                     -4.4346138832e+02 stress_102
                     -4.7618931508e+02 stress_103
                     -4.9853344914e+02 stress_104
                     -5.1534817581e+02 stress_105
                     -5.2918918704e+02 stress_106
                     -5.4138474018e+02 stress_107
                     -5.5262277840e+02 stress_108
                     -5.6325286596e+02 stress_109
                     -5.7344167311e+02 stress_110
                     -5.8325374458e+02 stress_111
                     -5.9269488519e+02 stress_112
                     -6.0173887176e+02 stress_113
                     -6.1034072894e+02 stress_114
                     -6.1844509452e+02 stress_115
                     -6.2599259592e+02 stress_116
                     -6.3292244467e+02 stress_117
                     -6.3917740139e+02 stress_118
                     -6.4470326405e+02 stress_119
                     -6.4944973702e+02 stress_120
                     -6.5337508859e+02 stress_121
                     -6.5644295336e+02 stress_122
                     -6.5862463596e+02 stress_123
                     -6.5990073307e+02 stress_124
                     -6.6024352055e+02 stress_125
                     -5.5775305533e+02 stress_126
                     -3.0693349414e+02 stress_127
                      2.3208866859e-01 stress_128
                      2.1939210884e+02 stress_129
                      3.2840070367e+02 stress_130
                      3.7913276855e+02 stress_131
                      4.0388964091e+02 stress_132
                      4.1513707380e+02 stress_133
                      4.1576454569e+02 stress_134
                      1.1174878308e+01 stress_135
                     -1.0701087867e+01 stress_136
                      1.7433254215e+02 stress_137
                      1.3822356402e+02 stress_138
                     -3.3995585096e+01 stress_139
                     -3.2091027169e+02 stress_140
                     -5.3010318563e+02 stress_141
                     -6.1406528693e+02 stress_142
                     -6.4671704933e+02 stress_143
                     -6.6160031199e+02 stress_144
                     -6.6775386461e+02 stress_145
                     -6.4737062285e+02 stress_146
                     -4.0948335896e+02 stress_147
                     -5.8417618656e+01 stress_148
                      1.9415129580e+02 stress_149
                      3.0651023408e+02 stress_150
                      3.4800749581e+02 stress_151
                      3.5312824692e+02 stress_152
                      1.3687474005e+02 stress_153
                     -2.3097136229e+02 stress_154
                     -4.9267945302e+02 stress_155
                     -5.8985518456e+02 stress_156
                     -6.1707663872e+02 stress_157
                     -4.9445071738e+02 stress_158
                     -8.9372035516e+01 stress_159
                      9.4133633822e+01 stress_160
                     -7.2533184690e+01 stress_161
                     -4.6671688463e+02 stress_162
                     -6.2259159585e+02 stress_163
                     -6.3373327227e+02 stress_164
                     -5.9200592242e+02 stress_165
                     -5.0978268465e+02 stress_166
                     -3.8906804526e+02 stress_167
                     -2.3687723353e+02 stress_168
                     -7.0429388684e+01 stress_169
                      8.4475198489e+01 stress_170
                      2.0689965105e+02 stress_171
                      2.9239482305e+02 stress_172
                      3.4872634417e+02 stress_173
                      3.8598564109e+02 stress_174
                      4.1184084951e+02 stress_175
                      4.3109862226e+02 stress_176
                      4.4656113952e+02 stress_177
                      4.5982597849e+02 stress_178
                      4.7179856795e+02 stress_179
                      4.8299232602e+02 stress_180
                      4.9369550761e+02 stress_181
                      5.0406319142e+02 stress_182
                      5.1417201841e+02 stress_183
                      5.2404974855e+02 stress_184
                      5.3369468150e+02 stress_185
                      5.4308609849e+02 stress_186
                      5.5219169874e+02 stress_187
                      5.6097247459e+02 stress_188
                      5.6938498709e+02 stress_189
                      5.7738449151e+02 stress_190
                      5.8492607968e+02 stress_191
                      5.9196476162e+02 stress_192
                      5.9845919527e+02 stress_193
                      6.0436929493e+02 stress_194
                      6.0965746530e+02 stress_195
                      6.1429143256e+02 stress_196
                      6.1824080847e+02 stress_197
                      6.2148114619e+02 stress_198
                      6.2399171408e+02 stress_199
                      6.2575557309e+02 stress_200
                      6.2676198667e+02 stress_201
                      6.2681128267e+02 stress_202
                      2.6498959442e+02 stress_203
                     -7.9553364073e+01 stress_204
                      2.9280087241e+01 stress_205
                      4.6727117108e+02 stress_206
                      4.8632256554e+02 stress_207
                      4.2155033697e+02 stress_208
                      3.0452323646e+02 stress_209
                      1.4262557086e+02 stress_210
                     -4.0809055148e+01 stress_211
                     -2.0662229081e+02 stress_212
                     -3.2679088316e+02 stress_213
                     -4.0231037708e+02 stress_214
                     -4.4819150305e+02 stress_215
                     -4.7750681798e+02 stress_216
                     -4.9808113616e+02 stress_217
                     -5.1405872421e+02 stress_218
                     -5.2755956175e+02 stress_219
                     -5.3966070458e+02 stress_220
                     -5.5090413753e+02 stress_221
                     -5.6155018744e+02 stress_222
                     -5.7170775877e+02 stress_223
                     -5.8140168718e+02 stress_224
                     -5.9061067483e+02 stress_225
                     -5.9928741881e+02 stress_226
                     -6.0737119710e+02 stress_227
                     -6.1479692703e+02 stress_228
                     -6.2149677337e+02 stress_229
                     -6.2740810790e+02 stress_230
                     -6.3247279602e+02 stress_231
                     -6.3663821043e+02 stress_232
                     -6.3986301102e+02 stress_233
                     -6.4211328894e+02 stress_234
                     -6.4336445240e+02 stress_235
                     -6.3687731684e+02 stress_236
                     -2.7242554581e+02 stress_237
                      2.2953054955e+01 stress_238
                     -1.9697898848e+02 stress_239
                     -4.4712664152e+02 stress_240
                     -1.1630435167e+02 stress_241
                      6.0518495675e+01 stress_242
                     -2.7180517677e+02 stress_243
                     -3.9571088293e+02 stress_244
                     -5.0437845118e+02 stress_245
                     -3.1949990112e+02 stress_246
                      1.5203749961e+01 stress_247
                      2.7677368330e+02 stress_248
                      3.9101077561e+02 stress_249
                      4.3383900324e+02 stress_250
                      4.4618901957e+02 stress_251
                      3.4085536599e+02 stress_252
                      1.9414574930e+01 stress_253
                     -3.1474828642e+02 stress_254
                     -4.8479648384e+02 stress_255
                     -5.4627853743e+02 stress_256
                     -5.5861572924e+02 stress_257
                     -2.8149695385e+02 stress_258
                      9.8118351867e+01 stress_259
                      2.1649725694e+02 stress_260
                      2.0148963628e+00 stress_261
                     -3.6363403768e+02 stress_262
                     -5.2155529647e+02 stress_263
                     -5.4342255954e+02 stress_264
                     -5.0141308644e+02 stress_265
                     -4.0726852320e+02 stress_266
                     -2.6462530526e+02 stress_267
                     -8.7165217751e+01 stress_268
                      9.4296356370e+01 stress_269
                      2.4362765224e+02 stress_270
                      3.4595051285e+02 stress_271
                      4.0980503142e+02 stress_272
                      4.4963780706e+02 stress_273
                      4.7612050987e+02 stress_274
                      4.9543010232e+02 stress_275
                      5.1086026652e+02 stress_276
                      5.2413218732e+02 stress_277
                      5.3613925393e+02 stress_278
                      5.4733876414e+02 stress_279
                      5.5795306465e+02 stress_280
                      5.6807473058e+02 stress_281
                      5.7772335811e+02 stress_282
                      5.8687684189e+02 stress_283
                      5.9549063295e+02 stress_284
                      6.0350722916e+02 stress_285
                      6.1086508133e+02 stress_286
                      6.1750186175e+02 stress_287
                      6.2335700803e+02 stress_288
                      6.2837641623e+02 stress_289
                      6.3251175755e+02 stress_290
                      6.3572199580e+02 stress_291
                      6.3797607056e+02 stress_292
                      6.3925087999e+02 stress_293
                      6.3926970337e+02 stress_294
                      2.6557287320e+02 stress_295
                     -7.1206747934e+01 stress_296
                      5.9304780151e+01 stress_297
                      4.8253088597e+02 stress_298
                      4.9731591237e+02 stress_299
                      4.5383341675e+02 stress_300
                      3.7554399735e+02 stress_301
                      2.6422811632e+02 stress_302
                      1.2618003635e+02 stress_303
                     -2.4107081029e+01 stress_304
                     -1.6487591374e+02 stress_305
                     -2.7804356486e+02 stress_306
                     -3.5878495753e+02 stress_307
                     -4.1295862168e+02 stress_308
                     -4.4918874606e+02 stress_309
                     -4.7439494434e+02 stress_310
                     -4.9309766422e+02 stress_311
                     -5.0801441583e+02 stress_312
                     -5.2073017013e+02 stress_313
                     -5.3216681305e+02 stress_314
                     -5.4286059355e+02 stress_315
                     -5.5312260840e+02 stress_316
                     -5.6313113773e+02 stress_317
                     -5.7298348538e+02 stress_318
                     -5.8272711680e+02 stress_319
                     -5.9237836933e+02 stress_320
                     -6.0193294662e+02 stress_321
                     -6.1137393189e+02 stress_322
                     -6.2067534905e+02 stress_323
                     -6.2980605128e+02 stress_324
                     -6.3873183794e+02 stress_325
                     -6.4741551461e+02 stress_326
                     -6.5582019854e+02 stress_327
                     -6.6390717938e+02 stress_328
                     -6.7164002119e+02 stress_329
                     -6.7898243701e+02 stress_330
                     -6.8589893413e+02 stress_331
                     -6.9235678884e+02 stress_332
                     -6.9832412796e+02 stress_333
                     -7.0377211565e+02 stress_334
                     -7.0867457072e+02 stress_335
                     -7.1300586772e+02 stress_336
                     -7.1674595673e+02 stress_337
                     -7.1987570494e+02 stress_338
                     -7.2237943923e+02 stress_339
                     -7.2424522197e+02 stress_340
                     -7.2546352542e+02 stress_341
                     -7.2602806260e+02 stress_342


Active response data for evaluation 98:
Active set vector = { 1 1 1 1 1 1 1 1 1 1 1 1 1 1 1 1 1 1 1 1 1 1 1 1 1 1 1 1 1 1 1 1 1 1 1 1 1 1 1 1 1 1 1 1 1 1 1 1 1 1 1 1 1 1 1 1 1 1 1 1 1 1 1 1 1 1 1 1 1 1 1 1 1 1 1 1 1 1 1 1 1 1 1 1 1 1 1 1 1 1 1 1 1 1 1 1 1 1 1 1 1 1 1 1 1 1 1 1 1 1 1 1 1 1 1 1 1 1 1 1 1 1 1 1 1 1 1 1 1 1 1 1 1 1 1 1 1 1 1 1 1 1 1 1 1 1 1 1 1 1 1 1 1 1 1 1 1 1 1 1 1 1 1 1 1 1 1 1 1 1 1 1 1 1 1 1 1 1 1 1 1 1 1 1 1 1 1 1 1 1 1 1 1 1 1 1 1 1 1 1 1 1 1 1 1 1 1 1 1 1 1 1 1 1 1 1 1 1 1 1 1 1 1 1 1 1 1 1 1 1 1 1 1 1 1 1 1 1 1 1 1 1 1 1 1 1 1 1 1 1 1 1 1 1 1 1 1 1 1 1 1 1 1 1 1 1 1 1 1 1 1 1 1 1 1 1 1 1 1 1 1 1 1 1 1 1 1 1 1 1 1 1 1 1 1 1 1 1 1 1 1 1 1 1 1 1 1 1 1 1 1 1 1 1 1 1 1 1 1 1 1 1 1 1 1 1 1 1 1 1 1 1 1 1 1 1 1 1 1 1 1 1 }
                      2.4199288887e+00 stress_1
                     -2.5149871306e+02 stress_2
                     -4.9421156337e+02 stress_3
                     -4.9574894594e+02 stress_4
                     -1.6718836498e+02 stress_5
                      2.5065197700e+02 stress_6
                      3.9845252070e+02 stress_7
                      3.9932741635e+02 stress_8
                      1.4993269853e+02 stress_9
                     -2.3143139299e+02 stress_10
                     -4.3805777298e+02 stress_11
                     -4.8814327633e+02 stress_12
                     -5.0248271984e+02 stress_13
                     -5.0350716418e+02 stress_14
                     -1.7318424418e+02 stress_15
                     -3.4100333413e+02 stress_16
                     -5.0929184425e+02 stress_17
                     -3.1468428966e+02 stress_18
                      2.0911961304e+01 stress_19
                      2.9697727487e+02 stress_20
                      4.1721454412e+02 stress_21
                      4.6259517270e+02 stress_22
                      4.8141173754e+02 stress_23
                      4.8762580486e+02 stress_24
                      1.5734507409e+02 stress_25
                      2.8534720283e+02 stress_26
                      4.2901508308e+02 stress_27
                      4.6459676056e+02 stress_28
                      3.4183688491e+02 stress_29
                      1.2852687394e+02 stress_30
                     -1.2440904500e+02 stress_31
                     -3.1940860292e+02 stress_32
                     -4.2333835100e+02 stress_33
                     -4.7348798238e+02 stress_34
                     -5.0073898803e+02 stress_35
                     -5.1844068113e+02 stress_36
                     -5.3159758821e+02 stress_37
                     -5.4203088734e+02 stress_38
                     -5.5035817353e+02 stress_39
                     -5.5672967146e+02 stress_40
                     -5.6113359785e+02 stress_41
                     -5.6351170934e+02 stress_42
                     -5.4805822836e+02 stress_43
                     -1.6144636729e+02 stress_44
                      1.0520148044e+02 stress_45
                     -1.0082400208e+02 stress_46
                     -4.5244304298e+02 stress_47
                     -1.5635495180e+02 stress_48
                     -2.5920234206e+02 stress_49
                     -4.1880646323e+02 stress_50
                     -5.6805875995e+02 stress_51
                     -3.9824185065e+02 stress_52
                     -6.1182164764e+01 stress_53
                      2.2570521064e+02 stress_54
                      3.5738059023e+02 stress_55
                      4.0703071642e+02 stress_56
                      4.2213619263e+02 stress_57
                      3.3584278672e+02 stress_58
                      2.1554647076e+01 stress_59
                     -3.1466041903e+02 stress_60
                     -4.7006631888e+02 stress_61
                     -5.2033167678e+02 stress_62
                     -5.3146470225e+02 stress_63
                     -2.6327249840e+02 stress_64
                      1.1315163831e+02 stress_65
                      1.9993098559e+02 stress_66
                     -7.2053569752e+01 stress_67
                     -4.3868446678e+02 stress_68
                     -5.3321531009e+02 stress_69
                     -5.3431161616e+02 stress_70
                     -4.3899730112e+02 stress_71
                     -2.6694965792e+02 stress_72
                     -4.3935113896e+01 stress_73
                      1.6701579298e+02 stress_74
                      3.1096510323e+02 stress_75
                      3.9144949182e+02 stress_76
                      4.3570798707e+02 stress_77
                      4.6262306311e+02 stress_78
                      4.8134341034e+02 stress_79
                      4.9590441131e+02 stress_80
                      5.0804788494e+02 stress_81
                      5.1850062051e+02 stress_82
                      5.2753020346e+02 stress_83
                      5.3519592078e+02 stress_84
                      5.4146261913e+02 stress_85
                      5.4626376229e+02 stress_86
                      5.4953090639e+02 stress_87
                      5.5120776371e+02 stress_88
                      4.7754359062e+02 stress_89
                      4.4471325772e+01 stress_90
                     -1.5839571451e+02 stress_91
                      1.3153863093e+02 stress_92
                      4.7638975365e+02 stress_93
                      4.8269620257e+02 stress_94
                      4.2254359234e+02 stress_95
                      3.1447048006e+02 stress_96
                      1.6398666838e+02 stress_97
                     -1.1169739783e+01 stress_98
                     -1.7783226806e+02 stress_99
                     -3.0609006617e+02 stress_100
                     -3.9039533120e+02 stress_101
                     -4.4247512950e+02 stress_102
                     -4.7543220644e+02 stress_103
                     -4.9796085619e+02 stress_104
                     -5.1491056798e+02 stress_105
                     -5.2884651741e+02 stress_106
                     -5.4110768362e+02 stress_107
                     -5.5239059018e+02 stress_108
                     -5.6305100655e+02 stress_109
                     -5.7325994237e+02 stress_110
                     -5.8308495574e+02 stress_111
                     -5.9253395689e+02 stress_112
                     -6.0158221389e+02 stress_113
                     -6.1018582296e+02 stress_114
                     -6.1829020512e+02 stress_115
                     -6.2583657005e+02 stress_116
                     -6.3276456893e+02 stress_117
                     -6.3901729811e+02 stress_118
                     -6.4454081453e+02 stress_119
                     -6.4928502355e+02 stress_120
                     -6.5320834729e+02 stress_121
                     -6.5627453756e+02 stress_122
                     -6.5845498468e+02 stress_123
                     -6.5973034274e+02 stress_124
                     -6.6007292969e+02 stress_125
                     -5.5758594611e+02 stress_126
                     -3.0693668409e+02 stress_127
                     -5.3085672632e-01 stress_128
                      2.1809680917e+02 stress_129
                      3.2723653521e+02 stress_130
                      3.7823158196e+02 stress_131
                      4.0317114627e+02 stress_132
                      4.1450990826e+02 stress_133
                      4.1514255793e+02 stress_134
                      1.0762157650e+01 stress_135
                     -1.1076371523e+01 stress_136
                      1.7384254841e+02 stress_137
                      1.3773366568e+02 stress_138
                     -3.4442277941e+01 stress_139
                     -3.2077315434e+02 stress_140
                     -5.2932373245e+02 stress_141
                     -6.1336231256e+02 stress_142
                     -6.4617932514e+02 stress_143
                     -6.6115577140e+02 stress_144
                     -6.6734672488e+02 stress_145
                     -6.4696349815e+02 stress_146
                     -4.0914366559e+02 stress_147
                     -5.8805196138e+01 stress_148
                      1.9300922365e+02 stress_149
                      3.0535498791e+02 stress_150
                      3.4698141081e+02 stress_151
                      3.5212484756e+02 stress_152
                      1.3589218389e+02 stress_153
                     -2.3136453528e+02 stress_154
                     -4.9212225508e+02 stress_155
                     -5.8914186551e+02 stress_156
                     -6.1639544833e+02 stress_157
                     -4.9377654674e+02 stress_158
                     -8.9305596454e+01 stress_159
                      9.3559639716e+01 stress_160
                     -7.3104127519e+01 stress_161
                     -4.6676982318e+02 stress_162
                     -6.2220371914e+02 stress_163
                     -6.3334131622e+02 stress_164
                     -5.9161415264e+02 stress_165
                     -5.0939768837e+02 stress_166
                     -3.8873713856e+02 stress_167
                     -2.3674768516e+02 stress_168
                     -7.0722547965e+01 stress_169
                      8.3675031071e+01 stress_170
                      2.0578428955e+02 stress_171
                      2.9125127483e+02 stress_172
                      3.4773296864e+02 stress_173
                      3.8519389957e+02 stress_174
                      4.1123549372e+02 stress_175
                      4.3064367177e+02 stress_176
                      4.4622045244e+02 stress_177
                      4.5956962589e+02 stress_178
                      4.7160349993e+02 stress_179
                      4.8284131008e+02 stress_180
                      4.9357579523e+02 stress_181
                      5.0396536286e+02 stress_182
                      5.1408909870e+02 stress_183
                      5.2397655553e+02 stress_184
                      5.3362735701e+02 stress_185
                      5.4302177116e+02 stress_186
                      5.5212824179e+02 stress_187
                      5.6090833039e+02 stress_188
                      5.6931903886e+02 stress_189
                      5.7731596854e+02 stress_190
                      5.8485448613e+02 stress_191
                      5.9188982296e+02 stress_192
                      5.9838081562e+02 stress_193
                      6.0428752467e+02 stress_194
                      6.0957247496e+02 stress_195
                      6.1420348998e+02 stress_196
                      6.1815026167e+02 stress_197
                      6.2138840648e+02 stress_198
                      6.2389724251e+02 stress_199
                      6.2565986838e+02 stress_200
                      6.2666557251e+02 stress_201
                      6.2671483365e+02 stress_202
                      2.6507219446e+02 stress_203
                     -7.8596364967e+01 stress_204
                      3.0237076872e+01 stress_205
                      4.6780230271e+02 stress_206
                      4.8676512986e+02 stress_207
                      4.2199387371e+02 stress_208
                      3.0499318971e+02 stress_209
                      1.4325522599e+02 stress_210
                     -3.9784511246e+01 stress_211
                     -2.0518951187e+02 stress_212
                     -3.2528260477e+02 stress_213
                     -4.0102282348e+02 stress_214
                     -4.4720421992e+02 stress_215
                     -4.7677937870e+02 stress_216
                     -4.9754697571e+02 stress_217
                     -5.1366023095e+02 stress_218
                     -5.2725422095e+02 stress_219
                     -5.3941876702e+02 stress_220
                     -5.5070510202e+02 stress_221
                     -5.6137992320e+02 stress_222
                     -5.7155647369e+02 stress_223
                     -5.8126255737e+02 stress_224
                     -5.9047893404e+02 stress_225
                     -5.9915974966e+02 stress_226
                     -6.0724532081e+02 stress_227
                     -6.1467132207e+02 stress_228
                     -6.2137047858e+02 stress_229
                     -6.2728058163e+02 stress_230
                     -6.3234381252e+02 stress_231
                     -6.3650778195e+02 stress_232
                     -6.3973132526e+02 stress_233
                     -6.4198065932e+02 stress_234
                     -6.4323127553e+02 stress_235
                     -6.3674414023e+02 stress_236
                     -2.7247753580e+02 stress_237
                      2.2181259334e+01 stress_238
                     -1.9764589613e+02 stress_239
                     -4.4698201075e+02 stress_240
                     -1.1635203958e+02 stress_241
                      6.0044009722e+01 stress_242
                     -2.7197128709e+02 stress_243
                     -3.9546482433e+02 stress_244
                     -5.0375482416e+02 stress_245
                     -3.1890624263e+02 stress_246
                      1.5178718636e+01 stress_247
                      2.7587425425e+02 stress_248
                      3.9007059395e+02 stress_249
                      4.3305057035e+02 stress_250
                      4.4546699661e+02 stress_251
                      3.4013660125e+02 stress_252
                      1.8990197130e+01 stress_253
                     -3.1409935129e+02 stress_254
                     -4.8371284492e+02 stress_255
                     -5.4523964354e+02 stress_256
                     -5.5760896927e+02 stress_257
                     -2.8058691639e+02 stress_258
                      9.8002348696e+01 stress_259
                      2.1591494916e+02 stress_260
                      1.4871468920e+00 stress_261
                     -3.6323438279e+02 stress_262
                     -5.2070367075e+02 stress_263
                     -5.4256265737e+02 stress_264
                     -5.0055339235e+02 stress_265
                     -4.0641902102e+02 stress_266
                     -2.6386693095e+02 stress_267
                     -8.6743275479e+01 stress_268
                      9.4104199978e+01 stress_269
                      2.4288559448e+02 stress_270
                      3.4501214121e+02 stress_271
                      4.0894270806e+02 stress_272
                      4.4894435993e+02 stress_273
                      4.7559127219e+02 stress_274
                      4.9503140579e+02 stress_275
                      5.1055758048e+02 stress_276
                      5.2389772083e+02 stress_277
                      5.3595237168e+02 stress_278
                      5.4718459370e+02 stress_279
                      5.5782099081e+02 stress_280
                      5.6795719259e+02 stress_281
                      5.7761497481e+02 stress_282
                      5.8677379611e+02 stress_283
                      5.9539024275e+02 stress_284
                      6.0340764718e+02 stress_285
                      6.1076508252e+02 stress_286
                      6.1740069045e+02 stress_287
                      6.2325426607e+02 stress_288
                      6.2827197831e+02 stress_289
                      6.3240570606e+02 stress_290
                      6.3561456885e+02 stress_291
                      6.3786761803e+02 stress_292
                      6.3914182664e+02 stress_293
                      6.3916064104e+02 stress_294
                      2.6565661785e+02 stress_295
                     -7.0260510592e+01 stress_296
                      6.0250943617e+01 stress_297
                      4.8296317021e+02 stress_298
                      4.9767584610e+02 stress_299
                      4.5419360257e+02 stress_300
                      3.7591144312e+02 stress_301
                      2.6464625890e+02 stress_302
                      1.2677033186e+02 stress_303
                     -2.3180170264e+01 stress_304
                     -1.6357543760e+02 stress_305
                     -2.7655449648e+02 stress_306
                     -3.5735822628e+02 stress_307
                     -4.1174286430e+02 stress_308
                     -4.4821718416e+02 stress_309
                     -4.7364058335e+02 stress_310
                     -4.9251627996e+02 stress_311
                     -5.0756390575e+02 stress_312
                     -5.2037626016e+02 stress_313
                     -5.3188330914e+02 stress_314
                     -5.4262797662e+02 stress_315
                     -5.5292644816e+02 stress_316
                     -5.6296076221e+02 stress_317
                     -5.7283096545e+02 stress_318
                     -5.8258652564e+02 stress_319
                     -5.9224525055e+02 stress_320
                     -6.0180393317e+02 stress_321
                     -6.1124647357e+02 stress_322
                     -6.2054751575e+02 stress_323
                     -6.2967639022e+02 stress_324
                     -6.3859926867e+02 stress_325
                     -6.4727925159e+02 stress_326
                     -6.5567969239e+02 stress_327
                     -6.6376207349e+02 stress_328
                     -6.7149011667e+02 stress_329
                     -6.7882766653e+02 stress_330
                     -6.8573934120e+02 stress_331
                     -6.9219251008e+02 stress_332
                     -6.9815537984e+02 stress_333
                     -7.0359918225e+02 stress_334
                     -7.0849779343e+02 stress_335
                     -7.1282563816e+02 stress_336
                     -7.1656270674e+02 stress_337
                     -7.1968990108e+02 stress_338
                     -7.2219157592e+02 stress_339
                     -7.2405581488e+02 stress_340
                     -7.2527310621e+02 stress_341
                     -7.2583717334e+02 stress_342


Active response data for evaluation 99:
Active set vector = { 1 1 1 1 1 1 1 1 1 1 1 1 1 1 1 1 1 1 1 1 1 1 1 1 1 1 1 1 1 1 1 1 1 1 1 1 1 1 1 1 1 1 1 1 1 1 1 1 1 1 1 1 1 1 1 1 1 1 1 1 1 1 1 1 1 1 1 1 1 1 1 1 1 1 1 1 1 1 1 1 1 1 1 1 1 1 1 1 1 1 1 1 1 1 1 1 1 1 1 1 1 1 1 1 1 1 1 1 1 1 1 1 1 1 1 1 1 1 1 1 1 1 1 1 1 1 1 1 1 1 1 1 1 1 1 1 1 1 1 1 1 1 1 1 1 1 1 1 1 1 1 1 1 1 1 1 1 1 1 1 1 1 1 1 1 1 1 1 1 1 1 1 1 1 1 1 1 1 1 1 1 1 1 1 1 1 1 1 1 1 1 1 1 1 1 1 1 1 1 1 1 1 1 1 1 1 1 1 1 1 1 1 1 1 1 1 1 1 1 1 1 1 1 1 1 1 1 1 1 1 1 1 1 1 1 1 1 1 1 1 1 1 1 1 1 1 1 1 1 1 1 1 1 1 1 1 1 1 1 1 1 1 1 1 1 1 1 1 1 1 1 1 1 1 1 1 1 1 1 1 1 1 1 1 1 1 1 1 1 1 1 1 1 1 1 1 1 1 1 1 1 1 1 1 1 1 1 1 1 1 1 1 1 1 1 1 1 1 1 1 1 1 1 1 1 1 1 1 1 1 1 1 1 1 1 1 1 1 1 1 1 1 }
                      2.4199288887e+00 stress_1
                     -2.5149871737e+02 stress_2
                     -4.9421193820e+02 stress_3
                     -4.9574904219e+02 stress_4
                     -1.6716442300e+02 stress_5
                      2.5115903413e+02 stress_6
                      3.9906215320e+02 stress_7
                      3.9993599712e+02 stress_8
                      1.5052908431e+02 stress_9
                     -2.3136092435e+02 stress_10
                     -4.3844622460e+02 stress_11
                     -4.8838464184e+02 stress_12
                     -5.0264295160e+02 stress_13
                     -5.0366151079e+02 stress_14
                     -1.7323560295e+02 stress_15
                     -3.4105469780e+02 stress_16
                     -5.0933605700e+02 stress_17
                     -3.1471168188e+02 stress_18
                      2.1305346771e+01 stress_19
                      2.9801138526e+02 stress_20
                      4.1810646801e+02 stress_21
                      4.6322521472e+02 stress_22
                      4.8189673607e+02 stress_23
                      4.8806104184e+02 stress_24
                      1.5765513661e+02 stress_25
                      2.8565726811e+02 stress_26
                      4.2933892899e+02 stress_27
                      4.6493459826e+02 stress_28
                      3.4217008147e+02 stress_29
                      1.2872688336e+02 stress_30
                     -1.2478758844e+02 stress_31
                     -3.2031809851e+02 stress_32
                     -4.2419817864e+02 stress_33
                     -4.7410462964e+02 stress_34
                     -5.0115859596e+02 stress_35
                     -5.1873277129e+02 stress_36
                     -5.3181056700e+02 stress_37
                     -5.4219459356e+02 stress_38
                     -5.5049090388e+02 stress_39
                     -5.5684307305e+02 stress_40
                     -5.6123554885e+02 stress_41
                     -5.6360805379e+02 stress_42
                     -5.4815456774e+02 stress_43
                     -1.6128193618e+02 stress_44
                      1.0608628041e+02 stress_45
                     -9.9939982821e+01 stress_46
                     -4.5209412891e+02 stress_47
                     -1.5588183912e+02 stress_48
                     -2.5872925134e+02 stress_49
                     -4.1836489704e+02 stress_50
                     -5.6810391846e+02 stress_51
                     -3.9826947949e+02 stress_52
                     -6.0734726568e+01 stress_53
                      2.2694507965e+02 stress_54
                      3.5859639188e+02 stress_55
                      4.0802928485e+02 stress_56
                      4.2303717410e+02 stress_57
                      3.3674282853e+02 stress_58
                      2.2244707524e+01 stress_59
                     -3.1498969859e+02 stress_60
                     -4.7074918922e+02 stress_61
                     -5.2093069594e+02 stress_62
                     -5.3202170679e+02 stress_63
                     -2.6374526458e+02 stress_64
                      1.1362139094e+02 stress_65
                      2.0070073318e+02 stress_66
                     -7.1319769341e+01 stress_67
                     -4.3879073231e+02 stress_68
                     -5.3351615115e+02 stress_69
                     -5.3461187454e+02 stress_70
                     -4.3929469963e+02 stress_71
                     -2.6716759184e+02 stress_72
                     -4.3739111896e+01 stress_73
                      1.6787835917e+02 stress_74
                      3.1210324982e+02 stress_75
                      3.9243825179e+02 stress_76
                      4.3644661439e+02 stress_77
                      4.6315539234e+02 stress_78
                      4.8173088000e+02 stress_79
                      4.9619421377e+02 stress_80
                      5.0827193638e+02 stress_81
                      5.1867992555e+02 stress_82
                      5.2767869429e+02 stress_83
                      5.3532305428e+02 stress_84
                      5.4157503770e+02 stress_85
                      5.4636633389e+02 stress_86
                      5.4962740135e+02 stress_87
                      5.5130131980e+02 stress_88
                      4.7763600864e+02 stress_89
                      4.4068315447e+01 stress_90
                     -1.5940773858e+02 stress_91
                      1.3054038218e+02 stress_92
                      4.7633547061e+02 stress_93
                      4.8267653459e+02 stress_94
                      4.2252325507e+02 stress_95
                      3.1443078443e+02 stress_96
                      1.6381987609e+02 stress_97
                     -1.1698685898e+01 stress_98
                     -1.7885100434e+02 stress_99
                     -3.0737335949e+02 stress_100
                     -3.9161468394e+02 stress_101
                     -4.4347151081e+02 stress_102
                     -4.7619425117e+02 stress_103
                     -4.9853160059e+02 stress_104
                     -5.1533857401e+02 stress_105
                     -5.2917121778e+02 stress_106
                     -5.4135800511e+02 stress_107
                     -5.5258702983e+02 stress_108
                     -5.6320797652e+02 stress_109
                     -5.7338762077e+02 stress_110
                     -5.8319060529e+02 stress_111
                     -5.9262282912e+02 stress_112
                     -6.0165815865e+02 stress_113
                     -6.1025170456e+02 stress_114
                     -6.1834818726e+02 stress_115
                     -6.2588831198e+02 stress_116
                     -6.3281136375e+02 stress_117
                     -6.3906016931e+02 stress_118
                     -6.4458058714e+02 stress_119
                     -6.4932237638e+02 stress_120
                     -6.5324385026e+02 stress_121
                     -6.5630868201e+02 stress_122
                     -6.5848820653e+02 stress_123
                     -6.5976304090e+02 stress_124
                     -6.6010548913e+02 stress_125
                     -5.5761501591e+02 stress_126
                     -3.0679512056e+02 stress_127
                      3.7114958366e-01 stress_128
                      2.1952814139e+02 stress_129
                      3.2852944984e+02 stress_130
                      3.7925354657e+02 stress_131
                      4.0400398906e+02 stress_132
                      4.1524759706e+02 stress_133
                      4.1587483511e+02 stress_134
                      1.1282383721e+01 stress_135
                     -1.0594062986e+01 stress_136
                      1.7443993617e+02 stress_137
                      1.3833095671e+02 stress_138
                     -3.3888770295e+01 stress_139
                     -3.2081016974e+02 stress_140
                     -5.3000461784e+02 stress_141
                     -6.1395541703e+02 stress_142
                     -6.4659586066e+02 stress_143
                     -6.6147125550e+02 stress_144
                     -6.6762091404e+02 stress_145
                     -6.4723767224e+02 stress_146
                     -4.0935024434e+02 stress_147
                     -5.8283080211e+01 stress_148
                      1.9428495555e+02 stress_149
                      3.0663896663e+02 stress_150
                      3.4813196788e+02 stress_151
                      3.5325201830e+02 stress_152
                      1.3699801970e+02 stress_153
                     -2.3086031664e+02 stress_154
                     -4.9257994670e+02 stress_155
                     -5.8974734384e+02 stress_156
                     -6.1696248298e+02 stress_157
                     -4.9433653753e+02 stress_158
                     -8.9255238650e+01 stress_159
                      9.4253652399e+01 stress_160
                     -7.2413335769e+01 stress_161
                     -4.6661823310e+02 stress_162
                     -6.2248963731e+02 stress_163
                     -6.3362766958e+02 stress_164
                     -5.9190031905e+02 stress_165
                     -5.0967705338e+02 stress_166
                     -3.8896215914e+02 stress_167
                     -2.3677023294e+02 stress_168
                     -7.0319532771e+01 stress_169
                      8.4589474253e+01 stress_170
                      2.0701789503e+02 stress_171
                      2.9251454060e+02 stress_172
                      3.4884456402e+02 stress_173
                      3.8609996011e+02 stress_174
                      4.1194958397e+02 stress_175
                      4.3120062633e+02 stress_176
                      4.4665561696e+02 stress_177
                      4.5991235734e+02 stress_178
                      4.7187642939e+02 stress_179
                      4.8306136462e+02 stress_180
                      4.9375550935e+02 stress_181
                      5.0411402258e+02 stress_182
                      5.1421361830e+02 stress_183
                      5.2408212595e+02 stress_184
                      5.3371791150e+02 stress_185
                      5.4310032063e+02 stress_186
                      5.5219711505e+02 stress_187
                      5.6096934730e+02 stress_188
                      5.6937363694e+02 stress_189
                      5.7736529490e+02 stress_190
                      5.8489946588e+02 stress_191
                      5.9193121079e+02 stress_192
                      5.9841923334e+02 stress_193
                      6.0432349124e+02 stress_194
                      6.0960642928e+02 stress_195
                      6.1423580784e+02 stress_196
                      6.1818127051e+02 stress_197
                      6.2141839599e+02 stress_198
                      6.2392647419e+02 stress_199
                      6.2568858357e+02 stress_200
                      6.2669399869e+02 stress_201
                      6.2674324578e+02 stress_202
                      2.6492129754e+02 stress_203
                     -7.9621857690e+01 stress_204
                      2.9211594136e+01 stress_205
                      4.6722069333e+02 stress_206
                      4.8627518147e+02 stress_207
                      4.2150295008e+02 stress_208
                      3.0447576237e+02 stress_209
                      1.4257747562e+02 stress_210
                     -4.0859056465e+01 stress_211
                     -2.0667494528e+02 stress_212
                     -3.2684454776e+02 stress_213
                     -4.0236197267e+02 stress_214
                     -4.4823835973e+02 stress_215
                     -4.7754715264e+02 stress_216
                     -4.9811382119e+02 stress_217
                     -5.1408303187e+02 stress_218
                     -5.2757501608e+02 stress_219
                     -5.3966700861e+02 stress_220
                     -5.5090113774e+02 stress_221
                     -5.6153785691e+02 stress_222
                     -5.7168618777e+02 stress_223
                     -5.8137107756e+02 stress_224
                     -5.9057133454e+02 stress_225
                     -5.9923975729e+02 stress_226
                     -6.0731571995e+02 stress_227
                     -6.1473422865e+02 stress_228
                     -6.2142753211e+02 stress_229
                     -6.2733307590e+02 stress_230
                     -6.3239279134e+02 stress_231
                     -6.3655410920e+02 stress_232
                     -6.3977573452e+02 stress_233
                     -6.4202379492e+02 stress_234
                     -6.4327372484e+02 stress_235
                     -6.3678658928e+02 stress_236
                     -2.7233443095e+02 stress_237
                      2.3044980634e+01 stress_238
                     -1.9688788433e+02 stress_239
                     -4.4704022231e+02 stress_240
                     -1.1621743749e+02 stress_241
                      6.0606348784e+01 stress_242
                     -2.7171950040e+02 stress_243
                     -3.9562726381e+02 stress_244
                     -5.0429448689e+02 stress_245
                     -3.1941585076e+02 stress_246
                      1.5289555290e+01 stress_247
                      2.7686053695e+02 stress_248
                      3.9109319585e+02 stress_249
                      4.3391621968e+02 stress_250
                      4.4626389205e+02 stress_251
                      3.4093021771e+02 stress_252
                      1.9487734211e+01 stress_253
                     -3.1467911901e+02 stress_254
                     -4.8472341411e+02 stress_255
                     -5.4619943294e+02 stress_256
                     -5.5853475280e+02 stress_257
                     -2.8141571617e+02 stress_258
                      9.8201862242e+01 stress_259
                      2.1658097971e+02 stress_260
                      2.0982244270e+00 stress_261
                     -3.6355538250e+02 stress_262
                     -5.2147361073e+02 stress_263
                     -5.4333910357e+02 stress_264
                     -5.0132962990e+02 stress_265
                     -4.0718503813e+02 stress_266
                     -2.6454156425e+02 stress_267
                     -8.7080551431e+01 stress_268
                      9.4382497951e+01 stress_269
                      2.4371417958e+02 stress_270
                      3.4603475515e+02 stress_271
                      4.0988439104e+02 stress_272
                      4.4971052653e+02 stress_273
                      4.7618550923e+02 stress_274
                      4.9548669560e+02 stress_275
                      5.1090799645e+02 stress_276
                      5.2417074902e+02 stress_277
                      5.3616846439e+02 stress_278
                      5.4735854999e+02 stress_279
                      5.5796345723e+02 stress_280
                      5.6807586350e+02 stress_281
                      5.7771546497e+02 stress_282
                      5.8686025392e+02 stress_283
                      5.9546577482e+02 stress_284
                      6.0347461542e+02 stress_285
                      6.1082530993e+02 stress_286
                      6.1745560807e+02 stress_287
                      6.2330501842e+02 stress_288
                      6.2831949855e+02 stress_289
                      6.3245077319e+02 stress_290
                      6.3565785082e+02 stress_291
                      6.3790970457e+02 stress_292
                      6.3918325728e+02 stress_293
                      6.3920206210e+02 stress_294
                      2.6550495258e+02 stress_295
                     -7.1274887455e+01 stress_296
                      5.9236644917e+01 stress_297
                      4.8248509752e+02 stress_298
                      4.9727256157e+02 stress_299
                      4.5379006521e+02 stress_300
                      3.7550062167e+02 stress_301
                      2.6418454784e+02 stress_302
                      1.2613569677e+02 stress_303
                     -2.4153275457e+01 stress_304
                     -1.6492482602e+02 stress_305
                     -2.7809468086e+02 stress_306
                     -3.5883637127e+02 stress_307
                     -4.1300806345e+02 stress_308
                     -4.4923432059e+02 stress_309
                     -4.7443526959e+02 stress_310
                     -4.9313175625e+02 stress_311
                     -5.0804155381e+02 stress_312
                     -5.2074980434e+02 stress_313
                     -5.3217850910e+02 stress_314
                     -5.4286400167e+02 stress_315
                     -5.5311744698e+02 stress_316
                     -5.6311718386e+02 stress_317
                     -5.7296057019e+02 stress_318
                     -5.8269512273e+02 stress_319
                     -5.9233722829e+02 stress_320
                     -6.0188263950e+02 stress_321
                     -6.1131448738e+02 stress_322
                     -6.2060684351e+02 stress_323
                     -6.2972860769e+02 stress_324
                     -6.3864562469e+02 stress_325
                     -6.4732074548e+02 stress_326
                     -6.5571713027e+02 stress_327
                     -6.6379611198e+02 stress_328
                     -6.7152129457e+02 stress_329
                     -6.7885643001e+02 stress_330
                     -6.8576606310e+02 stress_331
                     -6.9221750444e+02 stress_332
                     -6.9817891394e+02 stress_333
                     -7.0362148557e+02 stress_334
                     -7.0851906507e+02 stress_335
                     -7.1284605321e+02 stress_336
                     -7.1658242059e+02 stress_337
                     -7.1970905389e+02 stress_338
                     -7.2221029594e+02 stress_339
                     -7.2407422125e+02 stress_340
                     -7.2529131176e+02 stress_341
                     -7.2585528687e+02 stress_342


Active response data for evaluation 100:
Active set vector = { 1 1 1 1 1 1 1 1 1 1 1 1 1 1 1 1 1 1 1 1 1 1 1 1 1 1 1 1 1 1 1 1 1 1 1 1 1 1 1 1 1 1 1 1 1 1 1 1 1 1 1 1 1 1 1 1 1 1 1 1 1 1 1 1 1 1 1 1 1 1 1 1 1 1 1 1 1 1 1 1 1 1 1 1 1 1 1 1 1 1 1 1 1 1 1 1 1 1 1 1 1 1 1 1 1 1 1 1 1 1 1 1 1 1 1 1 1 1 1 1 1 1 1 1 1 1 1 1 1 1 1 1 1 1 1 1 1 1 1 1 1 1 1 1 1 1 1 1 1 1 1 1 1 1 1 1 1 1 1 1 1 1 1 1 1 1 1 1 1 1 1 1 1 1 1 1 1 1 1 1 1 1 1 1 1 1 1 1 1 1 1 1 1 1 1 1 1 1 1 1 1 1 1 1 1 1 1 1 1 1 1 1 1 1 1 1 1 1 1 1 1 1 1 1 1 1 1 1 1 1 1 1 1 1 1 1 1 1 1 1 1 1 1 1 1 1 1 1 1 1 1 1 1 1 1 1 1 1 1 1 1 1 1 1 1 1 1 1 1 1 1 1 1 1 1 1 1 1 1 1 1 1 1 1 1 1 1 1 1 1 1 1 1 1 1 1 1 1 1 1 1 1 1 1 1 1 1 1 1 1 1 1 1 1 1 1 1 1 1 1 1 1 1 1 1 1 1 1 1 1 1 1 1 1 1 1 1 1 1 1 1 1 }
                      2.4199288887e+00 stress_1
                     -2.5149871397e+02 stress_2
                     -4.9422095847e+02 stress_3
                     -4.9575832113e+02 stress_4
                     -1.6717534022e+02 stress_5
                      2.5111642771e+02 stress_6
                      3.9901559770e+02 stress_7
                      3.9988954189e+02 stress_8
                      1.5048348418e+02 stress_9
                     -2.3137020303e+02 stress_10
                     -4.3842716590e+02 stress_11
                     -4.8837807927e+02 stress_12
                     -5.0264268465e+02 stress_13
                     -5.0366169453e+02 stress_14
                     -1.7323798096e+02 stress_15
                     -3.4105707418e+02 stress_16
                     -5.0933947328e+02 stress_17
                     -3.1471544871e+02 stress_18
                      2.1292911983e+01 stress_19
                      2.9798667978e+02 stress_20
                      4.1808614985e+02 stress_21
                      4.6321109472e+02 stress_22
                      4.8188594235e+02 stress_23
                      4.8805137808e+02 stress_24
                      1.5764724296e+02 stress_25
                      2.8564937425e+02 stress_26
                      4.2932959075e+02 stress_27
                      4.6492244144e+02 stress_28
                      3.4215799462e+02 stress_29
                      1.2871673339e+02 stress_30
                     -1.2479005837e+02 stress_31
                     -3.2031581659e+02 stress_32
                     -4.2420013222e+02 stress_33
                     -4.7411239585e+02 stress_34
                     -5.0117044740e+02 stress_35
                     -5.1874712160e+02 stress_36
                     -5.3182642152e+02 stress_37
                     -5.4221136780e+02 stress_38
                     -5.5050824936e+02 stress_39
                     -5.5686077213e+02 stress_40
                     -5.6125345632e+02 stress_41
                     -5.6362606298e+02 stress_42
                     -5.4817257696e+02 stress_43
                     -1.6130099700e+02 stress_44
                      1.0606592845e+02 stress_45
                     -9.9960302461e+01 stress_46
                     -4.5209964224e+02 stress_47
                     -1.5588809545e+02 stress_48
                     -2.5873550699e+02 stress_49
                     -4.1837058463e+02 stress_50
                     -5.6812444151e+02 stress_51
                     -3.9829008512e+02 stress_52
                     -6.0756820456e+01 stress_53
                      2.2692438777e+02 stress_54
                      3.5858159172e+02 stress_55
                      4.0801842201e+02 stress_56
                      4.2302770775e+02 stress_57
                      3.3673337996e+02 stress_58
                      2.2238658914e+01 stress_59
                     -3.1498587196e+02 stress_60
                     -4.7075284762e+02 stress_61
                     -5.2094258373e+02 stress_62
                     -5.3203594693e+02 stress_63
                     -2.6375991382e+02 stress_64
                      1.1360400069e+02 stress_65
                      2.0068348190e+02 stress_66
                     -7.1335427188e+01 stress_67
                     -4.3878270361e+02 stress_68
                     -5.3351808208e+02 stress_69
                     -5.3461412636e+02 stress_70
                     -4.3929696831e+02 stress_71
                     -2.6717032198e+02 stress_72
                     -4.3744155429e+01 stress_73
                      1.6786996595e+02 stress_74
                      3.1209422205e+02 stress_75
                      3.9243098221e+02 stress_76
                      4.3644138380e+02 stress_77
                      4.6315170477e+02 stress_78
                      4.8172823426e+02 stress_79
                      4.9619225476e+02 stress_80
                      5.0827043296e+02 stress_81
                      5.1867872901e+02 stress_82
                      5.2767770755e+02 stress_83
                      5.3532221215e+02 stress_84
                      5.4157429481e+02 stress_85
                      5.4636565722e+02 stress_86
                      5.4962676547e+02 stress_87
                      5.5130070361e+02 stress_88
                      4.7763539547e+02 stress_89
                      4.4067211960e+01 stress_90
                     -1.5941289858e+02 stress_91
                      1.3053454578e+02 stress_92
                      4.7630065847e+02 stress_93
                      4.8264153720e+02 stress_94
                      4.2248826062e+02 stress_95
                      3.1439587279e+02 stress_96
                      1.6378548211e+02 stress_97
                     -1.1731741609e+01 stress_98
                     -1.7888265911e+02 stress_99
                     -3.0740506287e+02 stress_100
                     -3.9164789890e+02 stress_101
                     -4.4350664784e+02 stress_102
                     -4.7623104722e+02 stress_103
                     -4.9856963760e+02 stress_104
                     -5.1537749174e+02 stress_105
                     -5.2921075244e+02 stress_106
                     -5.4139797377e+02 stress_107
                     -5.5262730752e+02 stress_108
                     -5.6324847755e+02 stress_109
                     -5.7342828577e+02 stress_110
                     -5.8323139255e+02 stress_111
                     -5.9266370882e+02 stress_112
                     -6.0169910914e+02 stress_113
                     -6.1029270988e+02 stress_114
                     -6.1838923543e+02 stress_115
                     -6.2592939389e+02 stress_116
                     -6.3285247231e+02 stress_117
                     -6.3910129896e+02 stress_118
                     -6.4462173341e+02 stress_119
                     -6.4936353560e+02 stress_120
                     -6.5328501937e+02 stress_121
                     -6.5634985837e+02 stress_122
                     -6.5852938781e+02 stress_123
                     -6.5980422498e+02 stress_124
                     -6.6014667395e+02 stress_125
                     -5.5765620263e+02 stress_126
                     -3.0683608903e+02 stress_127
                      3.3415924637e-01 stress_128
                      2.1950188151e+02 stress_129
                      3.2851300227e+02 stress_130
                      3.7924274654e+02 stress_131
                      4.0399601037e+02 stress_132
                      4.1524084983e+02 stress_133
                      4.1586815483e+02 stress_134
                      1.1277237907e+01 stress_135
                     -1.0599004298e+01 stress_136
                      1.7443473094e+02 stress_137
                      1.3832575250e+02 stress_138
                     -3.3893654744e+01 stress_139
                     -3.2081503162e+02 stress_140
                     -5.3002521985e+02 stress_141
                     -6.1399417066e+02 stress_142
                     -6.4664384104e+02 stress_143
                     -6.6152322534e+02 stress_144
                     -6.6767435229e+02 stress_145
                     -6.4729111050e+02 stress_146
                     -4.0940358598e+02 stress_147
                     -5.8332262956e+01 stress_148
                      1.9424978849e+02 stress_149
                      3.0661583365e+02 stress_150
                      3.4811434620e+02 stress_151
                      3.5323510896e+02 stress_152
                      1.3698150435e+02 stress_153
                     -2.3086925700e+02 stress_154
                     -4.9259072132e+02 stress_155
                     -5.8977189477e+02 stress_156
                     -6.1699353877e+02 stress_157
                     -4.9436759956e+02 stress_158
                     -8.9285303121e+01 stress_159
                      9.4227085511e+01 stress_160
                     -7.2439756221e+01 stress_161
                     -4.6662911550e+02 stress_162
                     -6.2251072694e+02 stress_163
                     -6.3365246048e+02 stress_164
                     -5.9192511025e+02 stress_165
                     -5.0970185286e+02 stress_166
                     -3.8898699336e+02 stress_167
                     -2.3679502318e+02 stress_168
                     -7.0343630467e+01 stress_169
                      8.4567614410e+01 stress_170
                      2.0699987607e+02 stress_171
                      2.9250086094e+02 stress_172
                      3.4883466108e+02 stress_173
                      3.8609290790e+02 stress_174
                      4.1194454608e+02 stress_175
                      4.3119697905e+02 stress_176
                      4.4665292875e+02 stress_177
                      4.5991033719e+02 stress_178
                      4.7187488151e+02 stress_179
                      4.8306015617e+02 stress_180
                      4.9375454900e+02 stress_181
                      5.0411324652e+02 stress_182
                      5.1421298126e+02 stress_183
                      5.2408159526e+02 stress_184
                      5.3371746325e+02 stress_185
                      5.4309993703e+02 stress_186
                      5.5219678270e+02 stress_187
                      5.6096905596e+02 stress_188
                      5.6937337866e+02 stress_189
                      5.7736506347e+02 stress_190
                      5.8489925638e+02 stress_191
                      5.9193101925e+02 stress_192
                      5.9841905654e+02 stress_193
                      6.0432332652e+02 stress_194
                      6.0960627442e+02 stress_195
                      6.1423566096e+02 stress_196
                      6.1818112999e+02 stress_197
                      6.2141826040e+02 stress_198
                      6.2392634226e+02 stress_199
                      6.2568845413e+02 stress_200
                      6.2669387065e+02 stress_201
                      6.2674311781e+02 stress_202
                      2.6492037958e+02 stress_203
                     -7.9633152833e+01 stress_204
                      2.9200298570e+01 stress_205
                      4.6719565258e+02 stress_206
                      4.8624794461e+02 stress_207
                      4.2147571317e+02 stress_208
                      3.0444849160e+02 stress_209
                      1.4254969027e+02 stress_210
                     -4.0889570959e+01 stress_211
                     -2.0671228249e+02 stress_212
                     -3.2689117325e+02 stress_213
                     -4.0241686440e+02 stress_214
                     -4.4829907426e+02 stress_215
                     -4.7761158535e+02 stress_216
                     -4.9818056966e+02 stress_217
                     -5.1415123538e+02 stress_218
                     -5.2764415449e+02 stress_219
                     -5.3973676390e+02 stress_220
                     -5.5097131116e+02 stress_221
                     -5.6160832101e+02 stress_222
                     -5.7175685866e+02 stress_223
                     -5.8144189861e+02 stress_224
                     -5.9064226660e+02 stress_225
                     -5.9931077266e+02 stress_226
                     -6.0738679861e+02 stress_227
                     -6.1480535581e+02 stress_228
                     -6.2149869661e+02 stress_229
                     -6.2740426913e+02 stress_230
                     -6.3246400650e+02 stress_231
                     -6.3662534077e+02 stress_232
                     -6.3984697789e+02 stress_233
                     -6.4209504609e+02 stress_234
                     -6.4334498020e+02 stress_235
                     -6.3685784464e+02 stress_236
                     -2.7240498589e+02 stress_237
                      2.2981551530e+01 stress_238
                     -1.9695058713e+02 stress_239
                     -4.4709937313e+02 stress_240
                     -1.1627578209e+02 stress_241
                      6.0551894276e+01 stress_242
                     -2.7177235266e+02 stress_243
                     -3.9567920464e+02 stress_244
                     -5.0434807802e+02 stress_245
                     -3.1946940398e+02 stress_246
                      1.5239446674e+01 stress_247
                      2.7682586335e+02 stress_248
                      3.9107254898e+02 stress_249
                      4.3390209524e+02 stress_250
                      4.4625170239e+02 stress_251
                      3.4091803943e+02 stress_252
                      1.9475561204e+01 stress_253
                     -3.1469938025e+02 stress_254
                     -4.8475980343e+02 stress_255
                     -5.4624533694e+02 stress_256
                     -5.5858282868e+02 stress_257
                     -2.8146367333e+02 stress_258
                      9.8159802916e+01 stress_259
                      2.1654517407e+02 stress_260
                      2.0626528004e+00 stress_261
                     -3.6359231664e+02 stress_262
                     -5.2152023479e+02 stress_263
                     -5.4338819097e+02 stress_264
                     -5.0137871744e+02 stress_265
                     -4.0723412261e+02 stress_266
                     -2.6459049688e+02 stress_267
                     -8.7128211933e+01 stress_268
                      9.4339450246e+01 stress_269
                      2.4367982736e+02 stress_270
                      3.4601026137e+02 stress_271
                      4.0986794492e+02 stress_272
                      4.4969962709e+02 stress_273
                      4.7617818734e+02 stress_274
                      4.9548165157e+02 stress_275
                      5.1090441938e+02 stress_276
                      5.2416813713e+02 stress_277
                      5.3616650323e+02 stress_278
                      5.4735703840e+02 stress_279
                      5.5796226346e+02 stress_280
                      5.6807489916e+02 stress_281
                      5.7771466939e+02 stress_282
                      5.8685958449e+02 stress_283
                      5.9546520100e+02 stress_284
                      6.0347411483e+02 stress_285
                      6.1082486590e+02 stress_286
                      6.1745520786e+02 stress_287
                      6.2330465213e+02 stress_288
                      6.2831915829e+02 stress_289
                      6.3245045250e+02 stress_290
                      6.3565754428e+02 stress_291
                      6.3790940746e+02 stress_292
                      6.3918296532e+02 stress_293
                      6.3920177022e+02 stress_294
                      2.6550381054e+02 stress_295
                     -7.1286042152e+01 stress_296
                      5.9225486574e+01 stress_297
                      4.8245641620e+02 stress_298
                      4.9724213125e+02 stress_299
                      4.5375963498e+02 stress_300
                      3.7547018838e+02 stress_301
                      2.6415403776e+02 stress_302
                      1.2610464037e+02 stress_303
                     -2.4186366319e+01 stress_304
                     -1.6496248872e+02 stress_305
                     -2.7813902912e+02 stress_306
                     -3.5888770885e+02 stress_307
                     -4.1306523927e+02 stress_308
                     -4.4929579383e+02 stress_309
                     -4.7449972289e+02 stress_310
                     -4.9319823466e+02 stress_311
                     -5.0810940941e+02 stress_312
                     -5.2081860678e+02 stress_313
                     -5.3224797280e+02 stress_314
                     -5.4293393525e+02 stress_315
                     -5.5318772033e+02 stress_316
                     -5.6318770710e+02 stress_317
                     -5.7303128016e+02 stress_318
                     -5.8276597432e+02 stress_319
                     -5.9240818879e+02 stress_320
                     -6.0195368482e+02 stress_321
                     -6.1138559955e+02 stress_322
                     -6.2067800891e+02 stress_323
                     -6.2979981590e+02 stress_324
                     -6.3871686763e+02 stress_325
                     -6.4739201682e+02 stress_326
                     -6.5578842500e+02 stress_327
                     -6.6386742609e+02 stress_328
                     -6.7159262482e+02 stress_329
                     -6.7892777375e+02 stress_330
                     -6.8583741815e+02 stress_331
                     -6.9228886900e+02 stress_332
                     -6.9825028648e+02 stress_333
                     -7.0369286479e+02 stress_334
                     -7.0859044987e+02 stress_335
                     -7.1291744261e+02 stress_336
                     -7.1665381376e+02 stress_337
                     -7.1978045005e+02 stress_338
                     -7.2228169440e+02 stress_339
                     -7.2414562138e+02 stress_340
                     -7.2536271296e+02 stress_341
                     -7.2592668856e+02 stress_342


Active response data for evaluation 101:
Active set vector = { 1 1 1 1 1 1 1 1 1 1 1 1 1 1 1 1 1 1 1 1 1 1 1 1 1 1 1 1 1 1 1 1 1 1 1 1 1 1 1 1 1 1 1 1 1 1 1 1 1 1 1 1 1 1 1 1 1 1 1 1 1 1 1 1 1 1 1 1 1 1 1 1 1 1 1 1 1 1 1 1 1 1 1 1 1 1 1 1 1 1 1 1 1 1 1 1 1 1 1 1 1 1 1 1 1 1 1 1 1 1 1 1 1 1 1 1 1 1 1 1 1 1 1 1 1 1 1 1 1 1 1 1 1 1 1 1 1 1 1 1 1 1 1 1 1 1 1 1 1 1 1 1 1 1 1 1 1 1 1 1 1 1 1 1 1 1 1 1 1 1 1 1 1 1 1 1 1 1 1 1 1 1 1 1 1 1 1 1 1 1 1 1 1 1 1 1 1 1 1 1 1 1 1 1 1 1 1 1 1 1 1 1 1 1 1 1 1 1 1 1 1 1 1 1 1 1 1 1 1 1 1 1 1 1 1 1 1 1 1 1 1 1 1 1 1 1 1 1 1 1 1 1 1 1 1 1 1 1 1 1 1 1 1 1 1 1 1 1 1 1 1 1 1 1 1 1 1 1 1 1 1 1 1 1 1 1 1 1 1 1 1 1 1 1 1 1 1 1 1 1 1 1 1 1 1 1 1 1 1 1 1 1 1 1 1 1 1 1 1 1 1 1 1 1 1 1 1 1 1 1 1 1 1 1 1 1 1 1 1 1 1 1 }
                      2.4199288887e+00 stress_1
                     -2.5149871557e+02 stress_2
                     -4.9421178126e+02 stress_3
                     -4.9574900190e+02 stress_4
                     -1.6716596437e+02 stress_5
                      2.5112782612e+02 stress_6
                      3.9902907163e+02 stress_7
                      3.9990302968e+02 stress_8
                      1.5049696463e+02 stress_9
                     -2.3135719192e+02 stress_10
                     -4.3841512655e+02 stress_11
                     -4.8836627608e+02 stress_12
                     -5.0263091864e+02 stress_13
                     -5.0364993033e+02 stress_14
                     -1.7322607115e+02 stress_15
                     -3.4104516469e+02 stress_16
                     -5.0932593877e+02 stress_17
                     -3.1470189887e+02 stress_18
                      2.1307208285e+01 stress_19
                      2.9800401804e+02 stress_20
                      4.1810596906e+02 stress_21
                      4.6323193608e+02 stress_22
                      4.8190716014e+02 stress_23
                      4.8807270599e+02 stress_24
                      1.5766854577e+02 stress_25
                      2.8567067703e+02 stress_26
                      4.2935077352e+02 stress_27
                      4.6494354847e+02 stress_28
                      3.4217910112e+02 stress_29
                      1.2873781509e+02 stress_30
                     -1.2476916908e+02 stress_31
                     -3.2029535080e+02 stress_32
                     -4.2418002832e+02 stress_33
                     -4.7409248401e+02 stress_34
                     -5.0115062591e+02 stress_35
                     -5.1872734371e+02 stress_36
                     -5.3180666604e+02 stress_37
                     -5.4219162457e+02 stress_38
                     -5.5048851316e+02 stress_39
                     -5.5684104003e+02 stress_40
                     -5.6123372654e+02 stress_41
                     -5.6360633431e+02 stress_42
                     -5.4815284829e+02 stress_43
                     -1.6128052695e+02 stress_44
                      1.0609053278e+02 stress_45
                     -9.9935692150e+01 stress_46
                     -4.5207040035e+02 stress_47
                     -1.5585863718e+02 stress_48
                     -2.5870604858e+02 stress_49
                     -4.1834089190e+02 stress_50
                     -5.6809020866e+02 stress_51
                     -3.9825584065e+02 stress_52
                     -6.0721914192e+01 stress_53
                      2.2696213274e+02 stress_54
                      3.5862187985e+02 stress_55
                      4.0805984727e+02 stress_56
                      4.2306947929e+02 stress_57
                      3.3677515096e+02 stress_58
                      2.2280204851e+01 stress_59
                     -3.1494650615e+02 stress_60
                     -4.7071598227e+02 stress_61
                     -5.2090672114e+02 stress_62
                     -5.3200030454e+02 stress_63
                     -2.6372421105e+02 stress_64
                      1.1364120770e+02 stress_65
                      2.0072161281e+02 stress_66
                     -7.1297339530e+01 stress_67
                     -4.3874637436e+02 stress_68
                     -5.3348297899e+02 stress_69
                     -5.3457903813e+02 stress_70
                     -4.3926187868e+02 stress_71
                     -2.6713516929e+02 stress_72
                     -4.3708455001e+01 stress_73
                      1.6790734795e+02 stress_74
                      3.1213381734e+02 stress_75
                      3.9247222808e+02 stress_76
                      4.3648357810e+02 stress_77
                      4.6319440822e+02 stress_78
                      4.8177121508e+02 stress_79
                      4.9623539306e+02 stress_80
                      5.0831366486e+02 stress_81
                      5.1872201892e+02 stress_82
                      5.2772103463e+02 stress_83
                      5.3536556361e+02 stress_84
                      5.4161766238e+02 stress_85
                      5.4640903524e+02 stress_86
                      5.4967014980e+02 stress_87
                      5.5134409096e+02 stress_88
                      4.7767878270e+02 stress_89
                      4.4110458494e+01 stress_90
                     -1.5936999620e+02 stress_91
                      1.3057752880e+02 stress_92
                      4.7635031879e+02 stress_93
                      4.8269149490e+02 stress_94
                      4.2253821803e+02 stress_95
                      3.1444581746e+02 stress_96
                      1.6383530188e+02 stress_97
                     -1.1682477790e+01 stress_98
                     -1.7883471985e+02 stress_99
                     -3.0735894430e+02 stress_100
                     -3.9160342508e+02 stress_101
                     -4.4346332906e+02 stress_102
                     -4.7618845161e+02 stress_103
                     -4.9852747981e+02 stress_104
                     -5.1533560050e+02 stress_105
                     -5.2916902713e+02 stress_106
                     -5.4135635471e+02 stress_107
                     -5.5258575847e+02 stress_108
                     -5.6320697593e+02 stress_109
                     -5.7338681713e+02 stress_110
                     -5.8318994735e+02 stress_111
                     -5.9262228064e+02 stress_112
                     -6.0165769355e+02 stress_113
                     -6.1025130375e+02 stress_114
                     -6.1834783649e+02 stress_115
                     -6.2588800049e+02 stress_116
                     -6.3281108319e+02 stress_117
                     -6.3905991318e+02 stress_118
                     -6.4458035022e+02 stress_119
                     -6.4932215440e+02 stress_120
                     -6.5324363967e+02 stress_121
                     -6.5630847977e+02 stress_122
                     -6.5848800995e+02 stress_123
                     -6.5976284754e+02 stress_124
                     -6.6010529662e+02 stress_125
                     -5.5761481882e+02 stress_126
                     -3.0679411286e+02 stress_127
                      3.8140139267e-01 stress_128
                      2.1955971366e+02 stress_129
                      3.2857903246e+02 stress_130
                      3.7931303999e+02 stress_131
                      4.0406830646e+02 stress_132
                      4.1531399033e+02 stress_133
                      4.1594134068e+02 stress_134
                      1.1350125256e+01 stress_135
                     -1.0526183389e+01 stress_136
                      1.7450770696e+02 stress_137
                      1.3839872845e+02 stress_138
                     -3.3820739194e+01 stress_139
                     -3.2074371789e+02 stress_140
                     -5.2995849857e+02 stress_141
                     -6.1393047563e+02 stress_142
                     -6.4658132484e+02 stress_143
                     -6.6146115208e+02 stress_144
                     -6.6761243103e+02 stress_145
                     -6.4722918924e+02 stress_146
                     -4.0934158547e+02 stress_147
                     -5.8268520432e+01 stress_148
                      1.9431808527e+02 stress_149
                      3.0668754300e+02 stress_150
                      3.4818751158e+02 stress_151
                      3.5330845777e+02 stress_152
                      1.3705482490e+02 stress_153
                     -2.3079733150e+02 stress_154
                     -4.9252330425e+02 stress_155
                     -5.8970735015e+02 stress_156
                     -6.1692987597e+02 stress_157
                     -4.9430393134e+02 stress_158
                     -8.9220513556e+01 stress_159
                      9.4294080888e+01 stress_160
                     -7.2372767289e+01 stress_161
                     -4.6656382361e+02 stress_162
                     -6.2244830224e+02 stress_163
                     -6.3359027785e+02 stress_164
                     -5.9186292751e+02 stress_165
                     -5.0963966424e+02 stress_166
                     -3.8892473872e+02 stress_167
                     -2.3673241858e+02 stress_168
                     -7.0279933467e+01 stress_169
                      8.4633455515e+01 stress_170
                      2.0706849678e+02 stress_171
                      2.9257208717e+02 stress_172
                      3.4890786855e+02 stress_173
                      3.8616746450e+02 stress_174
                      4.1201998124e+02 stress_175
                      4.3127298160e+02 stress_176
                      4.4672930139e+02 stress_177
                      4.5998695565e+02 stress_178
                      4.7195166674e+02 stress_179
                      4.8313705703e+02 stress_180
                      4.9383153174e+02 stress_181
                      5.0419028840e+02 stress_182
                      5.1429006662e+02 stress_183
                      5.2415871316e+02 stress_184
                      5.3379460585e+02 stress_185
                      5.4317709867e+02 stress_186
                      5.5227395917e+02 stress_187
                      5.6104624412e+02 stress_188
                      5.6945057613e+02 stress_189
                      5.7744226841e+02 stress_190
                      5.8497646734e+02 stress_191
                      5.9200823510e+02 stress_192
                      5.9849627637e+02 stress_193
                      6.0440054959e+02 stress_194
                      6.0968350012e+02 stress_195
                      6.1431288877e+02 stress_196
                      6.1825835947e+02 stress_197
                      6.2149549119e+02 stress_198
                      6.2400357400e+02 stress_199
                      6.2576568652e+02 stress_200
                      6.2677110340e+02 stress_201
                      6.2682035058e+02 stress_202
                      2.6499751715e+02 stress_203
                     -7.9557005248e+01 stress_204
                      2.9276446247e+01 stress_205
                      4.6727650718e+02 stress_206
                      4.8632982491e+02 stress_207
                      4.2155759295e+02 stress_208
                      3.0453034915e+02 stress_209
                      1.4263133831e+02 stress_210
                     -4.0808792902e+01 stress_211
                     -2.0663336786e+02 stress_212
                     -3.2681453516e+02 stress_213
                     -4.0234209552e+02 stress_214
                     -4.4822554261e+02 stress_215
                     -4.7753880557e+02 stress_216
                     -4.9810823958e+02 stress_217
                     -5.1407917848e+02 stress_218
                     -5.2757226814e+02 stress_219
                     -5.3966498734e+02 stress_220
                     -5.5089960744e+02 stress_221
                     -5.6153666698e+02 stress_222
                     -5.7168523941e+02 stress_223
                     -5.8137030424e+02 stress_224
                     -5.9057069040e+02 stress_225
                     -5.9923920993e+02 stress_226
                     -6.0731524602e+02 stress_227
                     -6.1473381093e+02 stress_228
                     -6.2142715761e+02 stress_229
                     -6.2733273464e+02 stress_230
                     -6.3239247543e+02 stress_231
                     -6.3655381224e+02 stress_232
                     -6.3977545119e+02 stress_233
                     -6.4202352059e+02 stress_234
                     -6.4327345535e+02 stress_235
                     -6.3678631978e+02 stress_236
                     -2.7233314005e+02 stress_237
                      2.3055798754e+01 stress_238
                     -1.9687638277e+02 stress_239
                     -4.4702586342e+02 stress_240
                     -1.1620189183e+02 stress_241
                      6.0627221151e+01 stress_242
                     -2.7169725347e+02 stress_243
                     -3.9560462328e+02 stress_244
                     -5.0427439487e+02 stress_245
                     -3.1939568446e+02 stress_246
                      1.5314718924e+01 stress_247
                      2.7690649405e+02 stress_248
                      3.9115740610e+02 stress_249
                      4.3398877047e+02 stress_250
                      4.4633889822e+02 stress_251
                      3.4100523249e+02 stress_252
                      1.9562250004e+01 stress_253
                     -3.1461649967e+02 stress_254
                     -4.8468156354e+02 stress_255
                     -5.4616930837e+02 stress_256
                     -5.5850726625e+02 stress_257
                     -2.8138799652e+02 stress_258
                      9.8238035799e+01 stress_259
                      2.1662559785e+02 stress_260
                      2.1430262539e+00 stress_261
                     -3.6351396515e+02 stress_262
                     -5.2144480829e+02 stress_263
                     -5.4331330754e+02 stress_264
                     -5.0130383389e+02 stress_265
                     -4.0715922965e+02 stress_266
                     -2.6451548226e+02 stress_267
                     -8.7052534431e+01 stress_268
                      9.4417022774e+01 stress_269
                      2.4376045791e+02 stress_270
                      3.4609399466e+02 stress_271
                      4.0995400809e+02 stress_272
                      4.4978719487e+02 stress_273
                      4.7626667620e+02 stress_274
                      4.9557070220e+02 stress_275
                      5.1099381897e+02 stress_276
                      5.2425775934e+02 stress_277
                      5.3625627160e+02 stress_278
                      5.4744690543e+02 stress_279
                      5.5805219884e+02 stress_280
                      5.6816488301e+02 stress_281
                      5.7780468834e+02 stress_282
                      5.8694962930e+02 stress_283
                      5.9555526518e+02 stress_284
                      6.0356419370e+02 stress_285
                      6.1091495600e+02 stress_286
                      6.1754530659e+02 stress_287
                      6.2339475749e+02 stress_288
                      6.2840926871e+02 stress_289
                      6.3254056672e+02 stress_290
                      6.3574766122e+02 stress_291
                      6.3799952622e+02 stress_292
                      6.3927308508e+02 stress_293
                      6.3929188999e+02 stress_294
                      2.6559359705e+02 stress_295
                     -7.1199372119e+01 stress_296
                      5.9312156778e+01 stress_297
                      4.8254446308e+02 stress_298
                      4.9733038549e+02 stress_299
                      4.5384788903e+02 stress_300
                      3.7555843446e+02 stress_301
                      2.6424220480e+02 stress_302
                      1.2619241889e+02 stress_303
                     -2.4099752335e+01 stress_304
                     -1.6487813443e+02 stress_305
                     -2.7805764334e+02 stress_306
                     -3.5880918158e+02 stress_307
                     -4.1298894921e+02 stress_308
                     -4.4922106560e+02 stress_309
                     -4.7442603107e+02 stress_310
                     -4.9312522131e+02 stress_311
                     -5.0803684283e+02 stress_312
                     -5.2074633884e+02 stress_313
                     -5.3217590828e+02 stress_314
                     -5.4286201210e+02 stress_315
                     -5.5311589739e+02 stress_316
                     -5.6311595652e+02 stress_317
                     -5.7295958277e+02 stress_318
                     -5.8269431668e+02 stress_319
                     -5.9233656130e+02 stress_320
                     -6.0188208052e+02 stress_321
                     -6.1131401330e+02 stress_322
                     -6.2060643690e+02 stress_323
                     -6.2972825522e+02 stress_324
                     -6.3864531607e+02 stress_325
                     -6.4732047264e+02 stress_326
                     -6.5571688687e+02 stress_327
                     -6.6379589293e+02 stress_328
                     -6.7152109577e+02 stress_329
                     -6.7885624812e+02 stress_330
                     -6.8576589537e+02 stress_331
                     -6.9221734861e+02 stress_332
                     -6.9817876807e+02 stress_333
                     -7.0362134805e+02 stress_334
                     -7.0851893451e+02 stress_335
                     -7.1284592840e+02 stress_336
                     -7.1658230047e+02 stress_337
                     -7.1970893750e+02 stress_338
                     -7.2221018242e+02 stress_339
                     -7.2407410981e+02 stress_340
                     -7.2529120164e+02 stress_341
                     -7.2585517736e+02 stress_342

>>>>> Total response returned to iterator:

Active set vector = { 2 2 2 2 2 2 2 2 2 2 2 2 2 2 2 2 2 2 2 2 2 2 2 2 2 2 2 2 2 2 2 2 2 2 2 2 2 2 2 2 2 2 2 2 2 2 2 2 2 2 2 2 2 2 2 2 2 2 2 2 2 2 2 2 2 2 2 2 2 2 2 2 2 2 2 2 2 2 2 2 2 2 2 2 2 2 2 2 2 2 2 2 2 2 2 2 2 2 2 2 2 2 2 2 2 2 2 2 2 2 2 2 2 2 2 2 2 2 2 2 2 2 2 2 2 2 2 2 2 2 2 2 2 2 2 2 2 2 2 2 2 2 2 2 2 2 2 2 2 2 2 2 2 2 2 2 2 2 2 2 2 2 2 2 2 2 2 2 2 2 2 2 2 2 2 2 2 2 2 2 2 2 2 2 2 2 2 2 2 2 2 2 2 2 2 2 2 2 2 2 2 2 2 2 2 2 2 2 2 2 2 2 2 2 2 2 2 2 2 2 2 2 2 2 2 2 2 2 2 2 2 2 2 2 2 2 2 2 2 2 2 2 2 2 2 2 2 2 2 2 2 2 2 2 2 2 2 2 2 2 2 2 2 2 2 2 2 2 2 2 2 2 2 2 2 2 2 2 2 2 2 2 2 2 2 2 2 2 2 2 2 2 2 2 2 2 2 2 2 2 2 2 2 2 2 2 2 2 2 2 2 2 2 2 2 2 2 2 2 2 2 2 2 2 2 2 2 2 2 2 2 2 2 2 2 2 2 2 2 2 2 2 } Deriv vars vector = { 1 2 3 4 5 6 7 }
 [  0.0000000000e+00  1.1653236573e-05  0.0000000000e+00  0.0000000000e+00 
    0.0000000000e+00  0.0000000000e+00  0.0000000000e+00 ] stress_1 gradient
 [ -2.2120036160e-05 -1.2110472467e-03 -5.3907381080e-04  2.8871834514e-03 
   -3.4880834928e-02  8.0569519757e-02  0.0000000000e+00 ] stress_2 gradient
 [ -9.9752490176e-01 -7.1351399723e-05 -2.2706040435e+02  2.5063282940e-01 
   -3.0412212296e+00 -4.6212712932e+02  0.0000000000e+00 ] stress_3 gradient
 [ -1.0002286028e+00 -7.2590435256e-05 -3.0551714454e+02  6.4369237383e-02 
   -7.8074935248e-01 -4.6927868136e+02  0.0000000000e+00 ] stress_4 gradient
 [ -9.8210064007e-01  1.4674823361e-03 -3.0446810773e+02 -2.5591361447e+01 
    3.2824609585e+01 -4.6444954574e+02  6.0890980191e+00 ] stress_5 gradient
 [ -2.9656969261e-01  1.8917748613e-03 -2.2700649702e+02 -5.4091364674e+02 
    7.1328943013e+02 -2.9194567085e+02  2.2360108518e+02 ] stress_6 gradient
 [  4.4700847483e-01  8.8504105862e-04 -2.4690639095e+01 -6.5031716007e+02 
    8.5793637638e+02 -1.1492839216e+02  4.4680573224e+02 ] stress_7 gradient
 [  4.5214716941e-01  8.7738234547e-04 -2.2254566478e+01 -6.4919573660e+02 
    8.5644793364e+02 -1.1374704157e+02  4.4829566889e+02 ] stress_8 gradient
 [  4.4458792276e-01 -3.0602082907e-04 -2.2622214524e+01 -6.3619790128e+02 
    8.3910053181e+02 -1.1576631517e+02  4.4640170869e+02 ] stress_9 gradient
 [ -1.8216047478e-03 -1.1095695624e-03 -6.8192243897e+01 -7.5979671790e+01 
    8.5554936458e+01 -2.4491522765e+02  3.2527209463e+02 ] stress_10 gradient
 [ -8.2985783675e-01 -1.9218548687e-04 -3.6733053309e+02  4.1319978851e+02 
   -5.6647463999e+02 -5.1231186924e+02  7.4478467862e+01 ] stress_11 gradient
 [ -9.9059924953e-01 -6.0423857545e-05 -7.7915887860e+02  2.5690021452e+02 
   -3.4932962266e+02 -5.7729723003e+02  1.3528401224e+01 ] stress_12 gradient
 [ -1.0068204984e+00 -9.1190125903e-05 -1.0684337421e+03  1.7058230948e+02 
   -2.3126826734e+02 -5.8752704130e+02  3.9336403608e+00 ] stress_13 gradient
 [ -1.0073101357e+00 -9.4934969947e-05 -1.0952542601e+03  1.6431980153e+02 
   -2.2272672603e+02 -5.8802606877e+02  3.4657395676e+00 ] stress_14 gradient
 [ -9.7553912567e-01  1.4224265160e-03 -1.0910408626e+03  4.8575975829e+01 
   -1.7689989771e+02 -5.7943584723e+02  1.6089479365e+01 ] stress_15 gradient
 [ -9.7553947942e-01  6.1428964325e-04 -1.0910408626e+03  4.8580139815e+01 
   -1.7692470186e+02 -5.7941822265e+02  1.6090677064e+01 ] stress_16 gradient
 [ -9.8887007865e-01 -1.6492554942e-04 -1.1165190879e+03  3.9539977342e+01 
   -1.9064895387e+02 -6.6744696979e+02  1.1175722585e+01 ] stress_17 gradient
 [ -9.8484233844e-01  7.6293302336e-04 -1.1160242185e+03  2.0622783293e+01 
   -1.8338812055e+02 -6.6623137716e+02  1.2751494279e+01 ] stress_18 gradient
 [ -7.9847068737e-01  1.9483818923e-03 -1.0863422451e+03 -4.5206427535e+02 
    7.3472796632e+00 -6.0707305585e+02  8.9454686683e+01 ] stress_19 gradient
 [ -6.5127421136e-02  1.5820072620e-03 -8.8551051006e+02 -1.1694509531e+03 
    3.3790304874e+02 -3.6599913115e+02  4.0202818538e+02 ] stress_20 gradient
 [  5.1674200333e-01  8.1515526505e-04 -4.9531733572e+02 -1.0064532976e+03 
    3.2854413320e+02 -1.6939137360e+02  6.5695067733e+02 ] stress_21 gradient
 [  7.5145427372e-01  4.9035493349e-04 -8.4955269820e+01 -7.1049709427e+02 
    2.3960633712e+02 -8.8389295747e+01  7.6197843580e+02 ] stress_22 gradient
 [  8.3668576961e-01  3.8348356811e-04  2.1969612287e+02 -5.4680228169e+02 
    1.8662874388e+02 -5.8557927314e+01  8.0065770229e+02 ] stress_23 gradient
 [  8.6143451094e-01  3.5603163553e-04  3.4987533694e+02 -4.9066338057e+02 
    1.6809016153e+02 -4.9831744714e+01  8.1197235787e+02 ] stress_24 gradient
 [  8.2870403652e-01 -1.1590240790e-03  3.4493311217e+02 -3.4904958597e+02 
    1.2814811761e+02 -6.4488851124e+01  7.9934981578e+02 ] stress_25 gradient
 [  8.2870318335e-01 -5.4262422290e-04  3.4493311217e+02 -3.4905253067e+02 
    1.2815199326e+02 -6.4489354686e+01  7.9934821884e+02 ] stress_26 gradient
 [  8.2567338348e-01  1.5631071305e-04  3.4576220703e+02 -3.6329222297e+02 
    1.5530517289e+02 -6.6662717492e+01  7.9283393794e+02 ] stress_27 gradient
 [  8.2774386464e-01  3.2298463647e-04  3.4956914326e+02 -3.7617577874e+02 
    2.0939662745e+02 -6.8033910015e+01  7.8872303823e+02 ] stress_28 gradient
 [  8.2690731942e-01 -2.6624749954e-04  3.4946132859e+02 -3.7092565994e+02 
    2.0790644067e+02 -6.8382876749e+01  7.8842521060e+02 ] stress_29 gradient
 [  7.9031370450e-01 -1.2091011471e-03  3.4388084092e+02 -2.2032802021e+02 
    1.6404049662e+02 -8.4838697701e+01  7.7438858607e+02 ] stress_30 gradient
 [  5.2150854859e-01 -1.8062673482e-03  2.9058804626e+02  4.3341443219e+02 
   -3.3922386969e+01 -2.1252577695e+02  6.6547389747e+02 ] stress_31 gradient
 [ -4.5326430407e-02 -1.4349817550e-03  1.0255978929e+02  1.0322683525e+03 
   -2.3415543155e+02 -4.9356384544e+02  4.2575339047e+02 ] stress_32 gradient
 [ -5.1276164536e-01 -8.5425485397e-04 -2.3824509890e+02  9.7452319962e+02 
   -2.4449062290e+02 -7.3370331477e+02  2.2091784182e+02 ] stress_33 gradient
 [ -7.5351127061e-01 -5.3830671619e-04 -6.7486758560e+02  6.9857444145e+02 
   -1.8089627247e+02 -8.6114868546e+02  1.1220875809e+02 ] stress_34 gradient
 [ -8.6397615096e-01 -4.1342565873e-04 -1.1552822376e+03  4.7525508064e+02 
   -1.2480498338e+02 -9.2110650819e+02  6.1065844139e+01 ] stress_35 gradient
 [ -9.1618345248e-01 -3.7747094713e-04 -1.6446913291e+03  3.3078839221e+02 
   -8.7515433156e+01 -9.5003952647e+02  3.6386472760e+01 ] stress_36 gradient
 [ -9.4255109745e-01 -3.7954470641e-04 -2.1168409080e+03  2.4117943162e+02 
   -6.4087526683e+01 -9.6490611363e+02  2.3705243449e+01 ] stress_37 gradient
 [ -9.5676639408e-01 -3.9671408873e-04 -2.5496720916e+03  1.8537477663e+02 
   -4.9393587462e+01 -9.7303608178e+02  1.6770570445e+01 ] stress_38 gradient
 [ -9.6482152074e-01 -4.1805810102e-04 -2.9241437298e+03  1.5029475004e+02 
   -4.0116835665e+01 -9.7769501429e+02  1.2796208345e+01 ] stress_39 gradient
 [ -9.6948893161e-01 -4.3786523733e-04 -3.2239957522e+03  1.2840591955e+02 
   -3.4313052320e+01 -9.8041927120e+02  1.0472673695e+01 ] stress_40 gradient
 [ -9.7211817780e-01 -4.5294338000e-04 -3.4366181541e+03  1.1543906105e+02 
   -3.0868957446e+01 -9.8196318463e+02  9.1560040643e+00 ] stress_41 gradient
 [ -9.7336742921e-01 -4.6148217917e-04 -3.5529771438e+03  1.0909019066e+02 
   -2.9181112607e+01 -9.8269938862e+02  8.5280109377e+00 ] stress_42 gradient
 [ -9.7336703384e-01 -3.8706641776e-04 -3.5529771438e+03  1.0908440479e+02 
   -2.9180337477e+01 -9.8269888506e+02  8.5284101708e+00 ] stress_43 gradient
 [ -9.0819734949e-01  1.3246205760e-03 -3.5406911224e+03 -1.8895863399e+02 
    3.0646689018e+00 -9.5186190830e+02  6.2574943963e+01 ] stress_44 gradient
 [ -5.5411181719e-01  1.7909069674e-03 -3.4540825145e+03 -1.0121658258e+03 
    9.4258092305e+01 -7.7990489904e+02  3.6396014424e+02 ] stress_45 gradient
 [ -5.5446511974e-01  7.9961250091e-04 -3.4540923795e+03 -1.0113182741e+03 
    9.3407697552e+01 -7.8048721524e+02  3.6373725259e+02 ] stress_46 gradient
 [ -8.0830871809e-01 -3.0655699004e-04 -3.4787127773e+03 -4.2313209067e+02 
   -3.6701963181e+02 -1.2313595883e+03  1.9118378450e+02 ] stress_47 gradient
 [ -7.7892072056e-01  1.0516149154e-03 -3.4734896953e+03 -5.6470844390e+02 
   -3.4535708314e+02 -1.2124821497e+03  2.1478882052e+02 ] stress_48 gradient
 [ -7.7893043839e-01  5.5637313519e-04 -3.4734896953e+03 -5.6468432269e+02 
   -3.4537626760e+02 -1.2124977600e+03  2.1478203357e+02 ] stress_49 gradient
 [ -7.9320189868e-01 -1.7911407131e-04 -3.4744007294e+03 -5.2964052968e+02 
   -3.6589550002e+02 -1.2372134675e+03  2.0454171334e+02 ] stress_50 gradient
 [ -1.0166771075e+00 -3.8284083949e-04 -3.5640777429e+03  3.6352216240e+01 
   -2.6267923421e+02 -1.7160512189e+03  6.1653514739e+00 ] stress_51 gradient
 [ -1.0139177630e+00  4.2859235897e-04 -3.5636114445e+03  1.6332670244e+01 
   -2.6024745867e+02 -1.7138904450e+03  8.3423677034e+00 ] stress_52 gradient
 [ -8.6344873688e-01  1.7047214760e-03 -3.5338053224e+03 -5.2560193747e+02 
   -1.8406957579e+02 -1.5908786136e+03  1.3228976656e+02 ] stress_53 gradient
 [ -2.3374914362e-01  1.6306727542e-03 -3.3413892237e+03 -1.4266732554e+03 
   -8.1923453990e+00 -1.0632477594e+03  6.6393725058e+02 ] stress_54 gradient
 [  3.2119745003e-01  9.8077150575e-04 -2.9927661542e+03 -1.3949689329e+03 
    5.9536352872e+01 -5.9056602290e+02  1.1402207327e+03 ] stress_55 gradient
 [  5.6673224464e-01  6.5133757617e-04 -2.6772977151e+03 -1.1447928076e+03 
    6.4569657333e+01 -3.7921907874e+02  1.3531790710e+03 ] stress_56 gradient
 [  6.4110403051e-01  5.5178345479e-04 -2.5298880984e+03 -1.0326774238e+03 
    6.2275273534e+01 -3.1485964241e+02  1.4180292425e+03 ] stress_57 gradient
 [  6.4094084582e-01  1.3660999992e-04 -2.5299053488e+03 -1.0316194378e+03 
    6.1889840309e+01 -3.1496589347e+02  1.4179234458e+03 ] stress_58 gradient
 [  5.8195302905e-01 -1.2408821726e-03 -2.5389794632e+03 -7.9499347987e+02 
   -2.0823606456e+01 -3.5869535307e+02  1.3742685415e+03 ] stress_59 gradient
 [  5.8098972124e-02 -1.6503178479e-03 -2.6711193950e+03  3.5649008778e+02 
   -3.7519298653e+02 -7.8227616073e+02  9.5140679386e+02 ] stress_60 gradient
 [ -5.0406050127e-01 -1.0993800963e-03 -2.9964329314e+03  7.6072849597e+02 
   -4.1709513959e+02 -1.2680781400e+03  4.6642602611e+02 ] stress_61 gradient
 [ -7.1870748499e-01 -8.4471885512e-04 -3.2971059625e+03  6.6929263841e+02 
   -3.3259515460e+02 -1.4628967506e+03  2.7193619515e+02 ] stress_62 gradient
 [ -7.6470975222e-01 -7.9178174819e-04 -3.4029125908e+03  6.2269301442e+02 
   -3.0347353320e+02 -1.5056766481e+03  2.2922827090e+02 ] stress_63 gradient
 [ -7.5003457525e-01  4.6603612835e-04 -3.4000986277e+03  5.2653202234e+02 
   -2.9107339643e+02 -1.4940544948e+03  2.4085313034e+02 ] stress_64 gradient
 [ -3.9975423021e-01  1.4707907006e-03 -3.3106124461e+03 -5.4785488436e+02 
   -1.2654282408e+02 -1.2045344701e+03  5.3044499496e+02 ] stress_65 gradient
 [ -1.8829169934e-01  1.4001779548e-03 -3.2357195201e+03 -8.8902864798e+02 
   -6.0805046347e+01 -1.0267114962e+03  7.0831197159e+02 ] stress_66 gradient
 [ -2.0152625640e-01  1.2102934239e-04 -3.2369255890e+03 -8.4970327579e+02 
   -9.4897147955e+01 -1.0350637858e+03  6.9996333594e+02 ] stress_67 gradient
 [ -6.5476982215e-01 -5.9812834371e-04 -3.3470715963e+03  8.1600891436e+01 
   -6.8453696422e+02 -1.3745326329e+03  3.6062375609e+02 ] stress_68 gradient
 [ -9.1590993813e-01 -4.5000244032e-04 -3.5803103207e+03  3.1146495650e+02 
   -5.8262776081e+02 -1.6112398406e+03  1.2400488837e+02 ] stress_69 gradient
 [ -9.1865717171e-01 -4.4892039102e-04 -3.5859743647e+03  3.1109829570e+02 
   -5.7751345529e+02 -1.6141086191e+03  1.2113719948e+02 ] stress_70 gradient
 [ -9.1830139913e-01  9.2558795468e-06 -3.5859150666e+03  3.0783422554e+02 
   -5.7708287077e+02 -1.6138387112e+03  1.2140708082e+02 ] stress_71 gradient
 [ -9.0289149569e-01  8.0235587872e-04 -3.5831614798e+03  2.1723667493e+02 
   -5.6346461773e+02 -1.6016878205e+03  1.3355812903e+02 ] stress_72 gradient
 [ -7.7252887287e-01  1.5757389701e-03 -3.5566178837e+03 -2.5383044145e+02 
   -4.7802002098e+02 -1.4961461299e+03  2.3910133692e+02 ] stress_73 gradient
 [ -3.7990423413e-01  1.6846525675e-03 -3.4486933979e+03 -1.0093064675e+03 
   -2.8842284054e+02 -1.1721389767e+03  5.6311500998e+02 ] stress_74 gradient
 [  1.2936542121e-01  1.2003894223e-03 -3.2114180920e+03 -1.3158278412e+03 
   -1.1201941338e+02 -7.4569357006e+02  9.8957184856e+02 ] stress_75 gradient
 [  5.0472258330e-01  7.1947229904e-04 -2.8586667985e+03 -1.1387505077e+03 
   -2.3708503411e+01 -4.2767509890e+02  1.3076002640e+03 ] stress_76 gradient
 [  7.1833034150e-01  4.3791840077e-04 -2.4300624893e+03 -8.4920117158e+02 
    7.0986374450e+00 -2.4494493766e+02  1.4903370819e+03 ] stress_77 gradient
 [  8.3208754889e-01  3.0382875226e-04 -1.9576838042e+03 -6.1143631175e+02 
    1.4947212839e+01 -1.4684953252e+02  1.5884361558e+03 ] stress_78 gradient
 [  8.9364430093e-01  2.5114816854e-04 -1.4642079432e+03 -4.4478605856e+02 
    1.5322956944e+01 -9.3410791095e+01  1.6418770535e+03 ] stress_79 gradient
 [  9.2839770779e-01  2.4055997667e-04 -9.6741785897e+02 -3.3253902612e+02 
    1.3691502786e+01 -6.3069316890e+01  1.6722195416e+03 ] stress_80 gradient
 [  9.4895589878e-01  2.5125897386e-04 -4.8273105037e+02 -2.5701954377e+02 
    1.1803093148e+01 -4.5034836901e+01  1.6902544822e+03 ] stress_81 gradient
 [  9.6164378923e-01  2.7208767643e-04 -2.4154261076e+01 -2.0564673838e+02 
    1.0156523963e+01 -3.3860348003e+01  1.7014298055e+03 ] stress_82 gradient
 [  9.6974825418e-01  2.9671164162e-04  3.9549172663e+02 -1.7027971885e+02 
    8.8473299631e+00 -2.6697717650e+01  1.7085924404e+03 ] stress_83 gradient
 [  9.7504880167e-01  3.2128653659e-04  7.6474351725e+02 -1.4577202893e+02 
    7.8524510413e+00 -2.2001018180e+01  1.7132894138e+03 ] stress_84 gradient
 [  9.7854274774e-01  3.4332706695e-04  1.0735107352e+03 -1.2888912593e+02 
    7.1234415951e+00 -1.8898084537e+01  1.7163926500e+03 ] stress_85 gradient
 [  9.8080573357e-01  3.6117548697e-04  1.3134776345e+03 -1.1759260084e+02 
    6.6151503191e+00 -1.6884350085e+01  1.7184063801e+03 ] stress_86 gradient
 [  9.8217109956e-01  3.7372721066e-04  1.4782119915e+03 -1.1062195076e+02 
    6.2926963794e+00 -1.5668253891e+01  1.7196224430e+03 ] stress_87 gradient
 [  9.8282273543e-01  3.8028369744e-04  1.5631672613e+03 -1.0725083625e+02 
    6.1345699285e+00 -1.5087649783e+01  1.7202033267e+03 ] stress_88 gradient
 [  9.8270046137e-01  2.5830206981e-05  1.5631456984e+03 -1.0594787682e+02 
    6.0312839006e+00 -1.5203972032e+01  1.7201063131e+03 ] stress_89 gradient
 [  8.4085931894e-01 -1.7328068336e-03  1.5335697607e+03  4.6122394651e+02 
   -3.9550274016e+01 -1.5834176746e+02  1.6010065581e+03 ] stress_90 gradient
 [  4.9968356414e-01 -1.9216057614e-03  1.4402218730e+03  1.1584240863e+03 
   -9.5674835545e+01 -5.0845561058e+02  1.3096890498e+03 ] stress_91 gradient
 [  5.0554938988e-01 -5.3905986487e-04  1.4404860190e+03  1.1434579281e+03 
   -8.0863076613e+01 -5.0402680476e+02  1.3164197149e+03 ] stress_92 gradient
 [  9.3666783372e-01  1.2647143396e-04  1.5166446893e+03  9.9345819988e+01 
    6.2173499008e+02 -1.3736901778e+02  1.8736935504e+03 ] stress_93 gradient
 [  9.5358633195e-01  1.1786801040e-04  1.5242806638e+03  6.0115173870e+01 
    6.3160878550e+02 -1.2103959027e+02  1.8985122540e+03 ] stress_94 gradient
 [  9.5351345860e-01 -1.7163261778e-04  1.5242682651e+03  6.0880127949e+01 
    6.3152604041e+02 -1.2110656368e+02  1.8984475783e+03 ] stress_95 gradient
 [  9.5043436205e-01 -6.8500351513e-04  1.5237351215e+03  8.2985865285e+01 
    6.2880281613e+02 -1.2401310912e+02  1.8956345843e+03 ] stress_96 gradient
 [  9.2086780193e-01 -1.3416194405e-03  1.5183228247e+03  2.2793564507e+02 
    6.0781211109e+02 -1.5249191673e+02  1.8680695585e+03 ] stress_97 gradient
 [  7.9123326957e-01 -1.8859765169e-03  1.4916238139e+03  6.4007601670e+02 
    5.3309486317e+02 -2.7926100701e+02  1.7453689237e+03 ] stress_98 gradient
 [  4.8595848747e-01 -1.9831070453e-03  1.4117447825e+03  1.1949575740e+03 
    3.8972143557e+02 -5.8128290349e+02  1.4530387615e+03 ] stress_99 gradient
 [  7.0212303469e-02 -1.6392765148e-03  1.2503618447e+03  1.4898432879e+03 
    2.3090938231e+02 -9.9641685300e+02  1.0512237664e+03 ] stress_100 gradient
 [ -3.0249590625e-01 -1.1828591643e-03  1.0045627104e+03  1.4094667693e+03 
    1.1588982957e+02 -1.3714216423e+03  6.8824813013e+02 ] stress_101 gradient
 [ -5.6253778220e-01 -8.3158859381e-04  6.8976164410e+02  1.1491842941e+03 
    5.1794745371e+01 -1.6347656370e+03  4.3335039061e+02 ] stress_102 gradient
 [ -7.2444100670e-01 -6.1517858985e-04  3.2310064015e+02  8.7777539613e+02 
    2.0493265573e+01 -1.7996466281e+03  2.7375789422e+02 ] stress_103 gradient
 [ -8.2198006575e-01 -4.9750161147e-04 -8.2604909868e+01  6.5687518447e+02 
    6.1273999800e+00 -1.8994672281e+03  1.7713877609e+02 ] stress_104 gradient
 [ -8.8110371786e-01 -4.4192723210e-04 -5.1813900740e+02  4.9231213486e+02 
   -1.9106946128e-01 -1.9602357817e+03  1.1831861621e+02 ] stress_105 gradient
 [ -9.1776970671e-01 -4.2388985074e-04 -9.7644949444e+02  3.7332794611e+02 
   -2.7947299976e+00 -1.9980677035e+03  8.1700189213e+01 ] stress_106 gradient
 [ -9.4116496401e-01 -4.2856731822e-04 -1.4515257028e+03  2.8771789563e+02 
   -3.7058949156e+00 -2.0222899226e+03  5.8254447058e+01 ] stress_107 gradient
 [ -9.5653537184e-01 -4.4715920771e-04 -1.9378496772e+03  2.2572992894e+02 
   -3.8605332825e+00 -2.0382532624e+03  4.2803340875e+01 ] stress_108 gradient
 [ -9.6691940745e-01 -4.7433400662e-04 -2.4301471239e+03  1.8033891905e+02 
   -3.6942679703e+00 -2.0490677062e+03  3.2335857201e+01 ] stress_109 gradient
 [ -9.7411813704e-01 -5.0673697687e-04 -2.9233016972e+03  1.4666255823e+02 
   -3.4092140378e+00 -2.0565838353e+03  2.5060239423e+01 ] stress_110 gradient
 [ -9.7922647119e-01 -5.4215148245e-04 -3.4122870769e+03  1.2134190187e+02 
   -3.0972243481e+00 -2.0619296230e+03  1.9886182888e+01 ] stress_111 gradient
 [ -9.8292757150e-01 -5.7902909012e-04 -3.8921389364e+03  1.0206108374e+02 
   -2.7995745574e+00 -2.0658110596e+03  1.6129402641e+01 ] stress_112 gradient
 [ -9.8565894858e-01 -6.1623396112e-04 -4.3580724601e+03  8.7206858472e+01 
   -2.5319610407e+00 -2.0686803417e+03  1.3351940348e+01 ] stress_113 gradient
 [ -9.8770706000e-01 -6.5288865796e-04 -4.8054629376e+03  7.5645310640e+01 
   -2.2990345776e+00 -2.0708360799e+03  1.1265150721e+01 ] stress_114 gradient
 [ -9.8926339078e-01 -6.8828481638e-04 -5.2298538493e+03  6.6570605490e+01 
   -2.0998262550e+00 -2.0724761732e+03  9.6778012794e+00 ] stress_115 gradient
 [ -9.9045874672e-01 -7.2183523081e-04 -5.6270431180e+03  5.9402649203e+01 
   -1.9316231192e+00 -2.0737380933e+03  8.4561490388e+00 ] stress_116 gradient
 [ -9.9138362643e-01 -7.5303831578e-04 -5.9930593901e+03  5.3720465125e+01 
   -1.7911308689e+00 -2.0747149988e+03  7.5107658677e+00 ] stress_117 gradient
 [ -9.9210205940e-01 -7.8147117155e-04 -6.3243286093e+03  4.9214135394e+01 
   -1.6748614177e+00 -2.0754748700e+03  6.7749798972e+00 ] stress_118 gradient
 [ -9.9265953425e-01 -8.0676810688e-04 -6.6175812953e+03  4.5655538008e+01 
   -1.5801018162e+00 -2.0760655453e+03  6.2032785887e+00 ] stress_119 gradient
 [ -9.9308849232e-01 -8.2861206737e-04 -6.8698568571e+03  4.2876652694e+01 
   -1.5039453282e+00 -2.0765197560e+03  5.7637233188e+00 ] stress_120 gradient
 [ -9.9341255189e-01 -8.4674797445e-04 -7.0787278474e+03  4.0752329828e+01 
   -1.4446479082e+00 -2.0768636871e+03  5.4311624357e+00 ] stress_121 gradient
 [ -9.9364831860e-01 -8.6096254836e-04 -7.2421064348e+03  3.9192296039e+01 
   -1.4002717351e+00 -2.0771134527e+03  5.1892273833e+00 ] stress_122 gradient
 [ -9.9380732066e-01 -8.7109100170e-04 -7.3583581490e+03  3.8132860751e+01 
   -1.3698478938e+00 -2.0772821451e+03  5.0259411875e+00 ] stress_123 gradient
 [ -9.9389719501e-01 -8.7702257733e-04 -7.4263805848e+03  3.7531509901e+01 
   -1.3524074780e+00 -2.0773778214e+03  4.9333191824e+00 ] stress_124 gradient
 [ -9.9392093816e-01 -8.7861680626e-04 -7.4446557115e+03  3.7372220194e+01 
   -1.3477567007e+00 -2.0774029994e+03  4.9089659875e+00 ] stress_125 gradient
 [ -9.9353963285e-01 -3.8595643840e-04 -7.4445829366e+03  3.3368939043e+01 
   -1.1665701417e+00 -2.0770278475e+03  5.4650972198e+00 ] stress_126 gradient
 [ -9.5948855274e-01  7.4282154563e-04 -7.4376472185e+03 -1.6237348330e+02 
    7.8020676140e+00 -2.0427319206e+03  5.6304594271e+01 ] stress_127 gradient
 [ -6.6090891084e-01  1.5293966436e-03 -7.3627796273e+03 -1.0347015981e+03 
    4.8034302644e+01 -1.7378625054e+03  5.0824662002e+02 ] stress_128 gradient
 [ -6.5748509301e-02  1.2062514617e-03 -7.1216769020e+03 -1.6419093307e+03 
    7.6019872702e+01 -1.1247973337e+03  1.4170854563e+03 ] stress_129 gradient
 [  3.9212518996e-01  6.7209457552e-04 -6.7498095273e+03 -1.4831378446e+03 
    6.8498983372e+01 -6.5023278823e+02  2.1206230033e+03 ] stress_130 gradient
 [  6.2918405700e-01  3.6848348516e-04 -6.3605246916e+03 -1.1723305448e+03 
    5.4027700145e+01 -4.0345036196e+02  2.4864807008e+03 ] stress_131 gradient
 [  7.4020797288e-01  2.3117552251e-04 -6.0419005168e+03 -9.5538626905e+02 
    4.3964966872e+01 -2.8752794334e+02  2.6583384260e+03 ] stress_132 gradient
 [  7.8693757935e-01  1.7737951788e-04 -5.8497699114e+03 -8.4623326202e+02 
    3.8911121474e+01 -2.3864943677e+02  2.7308019661e+03 ] stress_133 gradient
 [  7.8944546707e-01  1.7460741063e-04 -5.8379631262e+03 -8.4002547252e+02 
    3.8623935934e+01 -2.3602438109e+02  2.7346936871e+03 ] stress_134 gradient
 [  7.3852636944e-01 -1.6554949073e-03 -5.8469151405e+03 -5.9950234141e+02 
   -1.8543233125e+01 -3.0730846555e+02  2.6662610005e+03 ] stress_135 gradient
 [  7.2747617947e-01 -1.7351924417e-03 -5.8490205994e+03 -5.5648452155e+02 
   -2.8611954275e+01 -3.2317497082e+02  2.6510291928e+03 ] stress_136 gradient
 [  7.3836901337e-01 -8.6936930573e-04 -5.8426131732e+03 -6.8829563127e+02 
   -1.9155391775e+01 -3.1189115915e+02  2.6661677796e+03 ] stress_137 gradient
 [  7.3835540424e-01 -1.0432214970e-03 -5.8426147904e+03 -6.8818592980e+02 
   -1.9181746184e+01 -3.1190828017e+02  2.6661514111e+03 ] stress_138 gradient
 [  7.2811319698e-01 -1.8487466437e-03 -5.8439973519e+03 -6.3851734713e+02 
   -3.0877212578e+01 -3.2619803993e+02  2.6524108176e+03 ] stress_139 gradient
 [  4.7389493141e-01 -2.6402996783e-03 -5.8890775253e+03  3.2061424530e+01 
   -1.7716557340e+02 -7.0520386122e+02  2.2879769837e+03 ] stress_140 gradient
 [ -2.2275569373e-01 -2.0340849544e-03 -6.1210230126e+03  7.6597328900e+02 
   -2.9027307505e+02 -1.7917321835e+03  1.2432084118e+03 ] stress_141 gradient
 [ -6.6599150587e-01 -1.4137078568e-03 -6.5181950310e+03  6.6952699489e+02 
   -2.1403074013e+02 -2.5076522944e+03  5.5479380161e+02 ] stress_142 gradient
 [ -8.3421217524e-01 -1.1823251703e-03 -6.9295031707e+03  4.7066781775e+02 
   -1.4254712000e+02 -2.7865180072e+03  2.8664033684e+02 ] stress_143 gradient
 [ -8.9633574540e-01 -1.1104954441e-03 -7.2507445467e+03  3.5662667111e+02 
   -1.0556025791e+02 -2.8912976612e+03  1.8588516734e+02 ] stress_144 gradient
 [ -9.1744945519e-01 -1.0913538139e-03 -7.4200011903e+03  3.0999390778e+02 
   -9.0943056522e+01 -2.9272568452e+03  1.5130761820e+02 ] stress_145 gradient
 [ -9.1744845636e-01 -9.9320004822e-04 -7.4200011903e+03  3.0997661918e+02 
   -9.0942281394e+01 -2.9272553345e+03  1.5130881590e+02 ] stress_146 gradient
 [ -9.0711467464e-01  1.2836133636e-04 -7.4178626862e+03  2.3245786006e+02 
   -8.6995321153e+01 -2.9121334427e+03  1.6646169522e+02 ] stress_147 gradient
 [ -6.8411760616e-01  1.3015501774e-03 -7.3629632373e+03 -6.0293020690e+02 
   -3.9669217662e+01 -2.5797275716e+03  4.9954709430e+02 ] stress_148 gradient
 [ -1.0731164110e-01  1.1814000591e-03 -7.1408760005e+03 -1.4660656298e+03 
    2.3137620415e+01 -1.7107457159e+03  1.3703153387e+03 ] stress_149 gradient
 [  3.2195899938e-01  7.2921791785e-04 -6.8269622489e+03 -1.4745210628e+03 
    4.0500718629e+01 -1.0596387484e+03  2.0227678605e+03 ] stress_150 gradient
 [  5.0438576777e-01  5.0724193320e-04 -6.5970016298e+03 -1.3210436589e+03 
    4.0604779786e+01 -7.8184158888e+02  2.3011408854e+03 ] stress_151 gradient
 [  5.2733177817e-01  4.7885660670e-04 -6.5601662064e+03 -1.2941630033e+03 
    4.0267985948e+01 -7.4684621776e+02  2.3362090916e+03 ] stress_152 gradient
 [  5.2271849168e-01 -5.5180233166e-04 -6.5607440931e+03 -1.2701999788e+03 
    3.0531388479e+01 -7.5230782412e+02  2.3307507814e+03 ] stress_153 gradient
 [  3.1949071132e-01 -1.8516607850e-03 -6.5983266722e+03 -5.9305078506e+02 
   -2.2005194735e+02 -1.0220233572e+03  2.0612195644e+03 ] stress_154 gradient
 [ -2.8300969425e-01 -1.7163078306e-03 -6.8104558220e+03  4.9560815959e+02 
   -5.1991860844e+02 -1.8936173774e+03  1.1902098640e+03 ] stress_155 gradient
 [ -6.4083840279e-01 -1.3563972868e-03 -7.1115455568e+03  6.6876530758e+02 
   -4.6664627215e+02 -2.4489040216e+03  6.3528910636e+02 ] stress_156 gradient
 [ -7.4596742267e-01 -1.2443378634e-03 -7.2838005266e+03  6.2813303167e+02 
   -4.0619332846e+02 -2.6193704948e+03  4.6493449253e+02 ] stress_157 gradient
 [ -7.4522766041e-01 -6.5554649271e-04 -7.2836447344e+03  6.2006173205e+02 
   -4.0567011593e+02 -2.6183251052e+03  4.6597968389e+02 ] stress_158 gradient
 [ -5.9706320911e-01  9.5135244896e-04 -7.2472811620e+03 -7.8219138063e+01 
   -3.4188521925e+02 -2.4023417880e+03  6.8198364916e+02 ] stress_159 gradient
 [ -3.0868438695e-01  1.1665464404e-03 -7.1546889473e+03 -8.1291593685e+02 
   -2.4616970878e+02 -1.9774930679e+03  1.1068760543e+03 ] stress_160 gradient
 [ -3.0985175885e-01  3.6667573569e-04 -7.1547682989e+03 -8.0940783066e+02 
   -2.4948586850e+02 -1.9787364570e+03  1.1056329632e+03 ] stress_161 gradient
 [ -5.6989451502e-01 -9.2858268383e-04 -7.2001503534e+03 -2.1453022226e+02 
   -6.7656766238e+02 -2.3061101573e+03  7.7833260648e+02 ] stress_162 gradient
 [ -9.3371646321e-01 -8.3718939077e-04 -7.4202540158e+03  2.8783079486e+02 
   -6.9160498405e+02 -2.8591806362e+03  2.2537886865e+02 ] stress_163 gradient
 [ -9.5851999480e-01 -8.3342191374e-04 -7.4671625643e+03  2.9152221418e+02 
   -6.3785012954e+02 -2.9058752052e+03  1.7869418691e+02 ] stress_164 gradient
 [ -9.5850442962e-01 -6.3251887528e-04 -7.4671598690e+03  2.9130801048e+02 
   -6.3783598343e+02 -2.9058535522e+03  1.7871574548e+02 ] stress_165 gradient
 [ -9.5770005521e-01 -2.3843806211e-04 -7.4670056940e+03  2.8351993090e+02 
   -6.3723990872e+02 -2.9047215504e+03  1.7984796958e+02 ] stress_166 gradient
 [ -9.4878043675e-01  3.2215920670e-04 -7.4652499320e+03  2.2133965018e+02 
   -6.3167021453e+02 -2.8919976089e+03  1.9257151756e+02 ] stress_167 gradient
 [ -9.0197329570e-01  9.4639720252e-04 -7.4555034852e+03 -1.0069288086e+01 
   -6.0657015959e+02 -2.8245584027e+03  2.6001031421e+02 ] stress_168 gradient
 [ -7.5698284069e-01  1.4115743320e-03 -7.4213990076e+03 -4.9557046632e+02 
   -5.3897937626e+02 -2.6140444970e+03  4.7052243367e+02 ] stress_169 gradient
 [ -4.7412958483e-01  1.5018861537e-03 -7.3379893151e+03 -1.0769880853e+03 
   -4.2334688974e+02 -2.2008747820e+03  8.8369192777e+02 ] stress_170 gradient
 [ -1.0923587615e-01  1.2464748024e-03 -7.1855732701e+03 -1.4362948575e+03 
   -2.9166036336e+02 -1.6652652289e+03  1.4193055896e+03 ] stress_171 gradient
 [  2.3140695849e-01  8.7012462140e-04 -6.9614756130e+03 -1.4639354750e+03 
   -1.8254807378e+02 -1.1632184201e+03  1.9213599455e+03 ] stress_172 gradient
 [  4.8951943873e-01  5.4468888083e-04 -6.6756632179e+03 -1.2850973392e+03 
   -1.0882897969e+02 -7.8147298333e+02  2.3031134945e+03 ] stress_173 gradient
 [  6.6473823831e-01  3.1923040214e-04 -6.3407762773e+03 -1.0460175226e+03 
   -6.4037337038e+01 -5.2152700812e+02  2.5630659200e+03 ] stress_174 gradient
 [  7.7852819916e-01  1.8086865735e-04 -5.9670997723e+03 -8.2364969007e+02 
   -3.7929613539e+01 -3.5225094964e+02  2.7323465977e+03 ] stress_175 gradient
 [  8.5183593430e-01  1.0427396552e-04 -5.5622141529e+03 -6.4200321050e+02 
   -2.2807221396e+01 -2.4292868541e+02  2.8416716976e+03 ] stress_176 gradient
 [  8.9954483618e-01  6.8531474275e-05 -5.1318411439e+03 -5.0138589679e+02 
   -1.3952527701e+01 -1.7162415643e+02  2.9129786604e+03 ] stress_177 gradient
 [  9.3117084866e-01  5.9346527466e-05 -4.6805785023e+03 -3.9474925993e+02 
   -8.6721506593e+00 -1.2426186752e+02  2.9603424371e+03 ] stress_178 gradient
 [  9.5258791300e-01  6.7511352677e-05 -4.2124876069e+03 -3.1426720384e+02 
   -5.4584630808e+00 -9.2129232163e+01  2.9924758833e+03 ] stress_179 gradient
 [  9.6741233258e-01  8.7146622770e-05 -3.7313198693e+03 -2.5332818195e+02 
   -3.4626979829e+00 -6.9850752695e+01  3.0147550673e+03 ] stress_180 gradient
 [  9.7789335924e-01  1.1444691435e-04 -3.2406531197e+03 -2.0685073989e+02 
   -2.1996241988e+00 -5.4075240634e+01  3.0305311489e+03 ] stress_181 gradient
 [  9.8545206485e-01  1.4687791098e-04 -2.7440306873e+03 -1.7108148164e+02 
   -1.3869007489e+00 -4.2683214030e+01  3.0419240541e+03 ] stress_182 gradient
 [  9.9100471416e-01  1.8269355010e-04 -2.2449204313e+03 -1.4328225305e+02 
   -8.5593692987e-01 -3.4302976807e+01  3.0503039497e+03 ] stress_183 gradient
 [  9.9515304290e-01  2.2063871233e-04 -1.7467832027e+03 -1.2146468193e+02 
   -5.0460941160e-01 -2.8034668134e+01  3.0565727025e+03 ] stress_184 gradient
 [  9.9830022671e-01  2.5977436956e-04 -1.2530189374e+03 -1.0417835544e+02 
   -2.7013268785e-01 -2.3274016602e+01  3.0613331539e+03 ] stress_185 gradient
 [  1.0007212990e+00  2.9936620182e-04 -7.6699037511e+02 -9.0359950367e+01 
   -1.1239379984e-01 -1.9608606991e+01  3.0649993083e+03 ] stress_186 gradient
 [  1.0026071205e+00  3.3881843190e-04 -2.9199448872e+02 -7.9223336125e+01 
   -5.6196901024e-03 -1.6750403260e+01  3.0678574156e+03 ] stress_187 gradient
 [  1.0040923884e+00  3.7763241181e-04  1.6876986036e+02 -7.0182092396e+01 
    6.6854933521e-02 -1.4496974489e+01  3.0701106853e+03 ] stress_188 gradient
 [  1.0052734901e+00  4.1537681464e-04  6.1217928094e+02 -6.2795768417e+01 
    1.1607566646e-01 -1.2704302667e+01  3.0719036396e+03 ] stress_189 gradient
 [  1.0062203858e+00  4.5167477712e-04  1.0352532363e+03 -5.6729888011e+01 
    1.4921245936e-01 -1.1266136729e+01  3.0733420752e+03 ] stress_190 gradient
 [  1.0069845987e+00  4.8619157185e-04  1.4351562004e+03 -5.1728780156e+01 
    1.7149743720e-01 -1.0103921399e+01  3.0745038426e+03 ] stress_191 gradient
 [  1.0076042510e+00  5.1862256848e-04  1.8091534540e+03 -4.7596231406e+01 
    1.8603111888e-01 -9.1617615742e+00  3.0754460319e+03 ] stress_192 gradient
 [  1.0081081217e+00  5.4870252769e-04  2.1547852053e+03 -4.4179232539e+01 
    1.9552645817e-01 -8.3948404460e+00  3.0762129580e+03 ] stress_193 gradient
 [  1.0085179355e+00  5.7618860236e-04  2.4697156493e+03 -4.1359386029e+01 
    2.0153371121e-01 -7.7709302267e+00  3.0768369588e+03 ] stress_194 gradient
 [  1.0088501314e+00  6.0086187858e-04  2.7517868751e+03 -3.9044532061e+01 
    2.0521557782e-01 -7.2648529327e+00  3.0773431859e+03 ] stress_195 gradient
 [  1.0091173406e+00  6.2253782526e-04  2.9991568692e+03 -3.7162042441e+01 
    2.0715340131e-01 -6.8579768533e+00  3.0777500041e+03 ] stress_196 gradient
 [  1.0093291769e+00  6.4104828417e-04  3.2101124562e+03 -3.5656243991e+01 
    2.0831609672e-01 -6.5346916487e+00  3.0780729834e+03 ] stress_197 gradient
 [  1.0094928818e+00  6.5625875756e-04  3.3832763037e+03 -3.4483725434e+01 
    2.0850987929e-01 -6.2859332580e+00  3.0783225039e+03 ] stress_198 gradient
 [  1.0096139073e+00  6.6805709179e-04  3.5174894039e+03 -3.3612003081e+01 
    2.0870366186e-01 -6.1011269231e+00  3.0785069494e+03 ] stress_199 gradient
 [  1.0096960199e+00  6.7635299570e-04  3.6118073003e+03 -3.3017898946e+01 
    2.0870366186e-01 -5.9757406051e+00  3.0786323085e+03 ] stress_200 gradient
 [  1.0097418622e+00  6.8108882739e-04  3.6656310822e+03 -3.2685470254e+01 
    2.0850987709e-01 -5.9057458361e+00  3.0787021742e+03 ] stress_201 gradient
 [  1.0097440888e+00  6.8132083956e-04  3.6682676901e+03 -3.2669308928e+01 
    2.0850987929e-01 -5.9022209225e+00  3.0787057673e+03 ] stress_202 gradient
 [  9.7546656446e-01 -9.8147072052e-04  3.6610748340e+03  1.7313238263e+02 
   -7.4152779131e+00 -6.5493955892e+01  3.0276594677e+03 ] stress_203 gradient
 [  6.2335812016e-01 -1.8239872273e-03  3.5676846290e+03  1.1769366434e+03 
   -4.4798967631e+01 -6.8519144987e+02  2.4968265782e+03 ] stress_204 gradient
 [  6.2336174093e-01 -1.2999051736e-03  3.5676846829e+03  1.1769257457e+03 
   -4.4789026594e+01 -6.8518691783e+02  2.4968338442e+03 ] stress_205 gradient
 [  7.9247426811e-01  4.1629470257e-04  3.5836913889e+03  6.8741463772e+02 
    3.1007085553e+02 -4.5520620753e+02  2.8670832618e+03 ] stress_206 gradient
 [  8.2770172629e-01  4.2638882120e-04  3.5889489716e+03  5.8565030123e+02 
    3.7191089376e+02 -4.0509700153e+02  2.9477602175e+03 ] stress_207 gradient
 [  8.2760427743e-01  1.1470266708e-04  3.5889306431e+03  5.8676845792e+02 
    3.7184965852e+02 -4.0525864413e+02  2.9476113037e+03 ] stress_208 gradient
 [  8.2355087965e-01 -4.3943341425e-04  3.5881409006e+03  6.1713778590e+02 
    3.6987598461e+02 -4.1209245012e+02  2.9413058215e+03 ] stress_209 gradient
 [  7.8573109057e-01 -1.1312631821e-03  3.5803830956e+03  8.0067289754e+02 
    3.5505046713e+02 -4.7652993818e+02  2.8818540754e+03 ] stress_210 gradient
 [  6.2988981933e-01 -1.6530398737e-03  3.5438363999e+03  1.2541226782e+03 
    3.0497649023e+02 -7.4407991364e+02  2.6350021535e+03 ] stress_211 gradient
 [  2.9797911139e-01 -1.6822392172e-03  3.4411889573e+03  1.7215138441e+03 
    2.1666404938e+02 -1.3171313817e+03  2.1062805665e+03 ] stress_212 gradient
 [ -1.0573412668e-01 -1.3263242138e-03  3.2469198478e+03  1.8042134641e+03 
    1.2725497446e+02 -2.0171883613e+03  1.4603734657e+03 ] stress_213 gradient
 [ -4.3602374394e-01 -9.2614458165e-04  2.9656847247e+03  1.5443188723e+03 
    6.6252270047e+01 -2.5919632618e+03  9.3005462829e+02 ] stress_214 gradient
 [ -6.5397578985e-01 -6.4337413637e-04  2.6168492603e+03  1.1914826359e+03 
    3.2687024070e+01 -2.9723979332e+03  5.7904359854e+02 ] stress_215 gradient
 [ -7.8607421124e-01 -4.7935920343e-04  2.2182115014e+03  8.8408534131e+02 
    1.5772725930e+01 -3.2035836110e+03  3.6573752848e+02 ] stress_216 gradient
 [ -8.6490202950e-01 -3.9634786777e-04  1.7826482939e+03  6.5246803122e+02 
    7.4358188489e+00 -3.3418600430e+03  2.3815551460e+02 ] stress_217 gradient
 [ -9.1268782088e-01 -3.6290373206e-04  1.3195653902e+03  4.8653258024e+02 
    3.3086409615e+00 -3.4258547750e+03  1.6065645169e+02 ] stress_218 gradient
 [ -9.4246798605e-01 -3.5911376651e-04  8.3656480317e+02  3.6907564251e+02 
    1.2448582379e+00 -3.4782954615e+03  1.1227143763e+02 ] stress_219 gradient
 [ -9.6160747741e-01 -3.7315315149e-04  3.4041244278e+02  2.8555777629e+02 
    2.0812231415e-01 -3.5120530833e+03  8.1124495579e+01 ] stress_220 gradient
 [ -9.7428648238e-01 -3.9797859841e-04 -1.6256620386e+02  2.2547620188e+02 
   -3.0753269287e-01 -3.5344483886e+03  6.0461006512e+01 ] stress_221 gradient
 [ -9.8292549060e-01 -4.2925502387e-04 -6.6624834127e+02  1.8163386108e+02 
   -5.5441149004e-01 -3.5497273910e+03  4.6363698609e+01 ] stress_222 gradient
 [ -9.8896376106e-01 -4.6418412417e-04 -1.1646755913e+03  1.4916724164e+02 
   -6.6157316492e-01 -3.5604189663e+03  3.6498657167e+01 ] stress_223 gradient
 [ -9.9328072646e-01 -5.0085553090e-04 -1.6520205708e+03  1.2478642675e+02 
   -6.9645400095e-01 -3.5680710565e+03  2.9438625082e+01 ] stress_224 gradient
 [ -9.9642859697e-01 -5.3789224363e-04 -2.1226618224e+03  1.0624452054e+02 
   -6.9432239489e-01 -3.5736555314e+03  2.4285727877e+01 ] stress_225 gradient
 [ -9.9876274980e-01 -5.7424659595e-04 -2.5711832759e+03  9.1990495847e+01 
   -6.7494415118e-01 -3.5778003296e+03  2.0461876527e+01 ] stress_226 gradient
 [ -1.0005171621e+00 -6.0908627188e-04 -2.9924286943e+03  8.0939703421e+01 
   -6.4820218086e-01 -3.5809178665e+03  1.7585404505e+01 ] stress_227 gradient
 [ -1.0018494000e+00 -6.4173464147e-04 -3.3816272783e+03  7.2322898664e+01 
   -6.1990994778e-01 -3.5832866104e+03  1.5399605157e+01 ] stress_228 gradient
 [ -1.0028668801e+00 -6.7161740478e-04 -3.7342615928e+03  6.5591896312e+01 
   -5.9297419268e-01 -3.5850969068e+03  1.3729614533e+01 ] stress_229 gradient
 [ -1.0036445565e+00 -6.9826037669e-04 -4.0463581280e+03  6.0348932205e+01 
   -5.6894517172e-01 -3.5864811919e+03  1.2452069712e+01 ] stress_230 gradient
 [ -1.0042348472e+00 -7.2126285707e-04 -4.3143649293e+03  5.6306426770e+01 
   -5.4840423700e-01 -3.5875321206e+03  1.1482333341e+01 ] stress_231 gradient
 [ -1.0046744803e+00 -7.4028679579e-04 -4.5351526757e+03  5.3257388506e+01 
   -5.3173894706e-01 -3.5883151556e+03  1.0760121286e+01 ] stress_232 gradient
 [ -1.0049894047e+00 -7.5507369529e-04 -4.7062879901e+03  5.1051925432e+01 
   -5.1914309107e-01 -3.5888766244e+03  1.0241917164e+01 ] stress_233 gradient
 [ -1.0051970168e+00 -7.6541990684e-04 -4.8258037936e+03  4.9587398752e+01 
   -5.1022909950e-01 -3.5892462371e+03  9.9009723909e+00 ] stress_234 gradient
 [ -1.0053084077e+00 -7.7118183139e-04 -4.8922871749e+03  4.8798265950e+01 
   -5.0538453967e-01 -3.5894446396e+03  9.7177245551e+00 ] stress_235 gradient
 [ -1.0053084077e+00 -7.3994287074e-04 -4.8922877139e+03  4.8797955376e+01 
   -5.0557832224e-01 -3.5894451431e+03  9.7177245551e+00 ] stress_236 gradient
 [ -9.6941480972e-01  9.3176420732e-04 -4.8847703356e+03 -1.6403364829e+02 
    9.7019104161e+00 -3.5276498318e+03  7.1524943923e+01 ] stress_237 gradient
 [ -7.0472170611e-01  1.7401823407e-03 -4.8177209273e+03 -9.9057542312e+02 
    4.9516619916e+01 -3.0653598010e+03  5.3390949691e+02 ] stress_238 gradient
 [ -7.1125725704e-01  6.9625702045e-04 -4.8214874330e+03 -8.7000606598e+02 
    3.2242874774e+01 -3.0736733166e+03  5.2560709240e+02 ] stress_239 gradient
 [ -8.0008805531e-01 -3.0225229263e-04 -4.9046362679e+03  6.1709865363e+01 
   -8.8432799111e+01 -3.2083956256e+03  3.9106365692e+02 ] stress_240 gradient
 [ -7.5746890508e-01  1.1919024382e-03 -4.8963259127e+03 -1.5933165724e+02 
   -7.5853801172e+01 -3.1351100935e+03  4.6435879889e+02 ] stress_241 gradient
 [ -5.9829307688e-01  1.6741436682e-03 -4.8604800663e+03 -6.4950074281e+02 
   -4.4773388353e+01 -2.8584558126e+03  7.4105061473e+02 ] stress_242 gradient
 [ -6.2822544580e-01  1.4330141782e-04 -4.8766265540e+03 -2.9512933006e+02 
   -9.2758991538e+01 -2.9024676181e+03  6.9706718174e+02 ] stress_243 gradient
 [ -6.9062683779e-01 -3.0856357269e-04 -4.9220132984e+03  1.7800869744e+02 
   -1.4894019567e+02 -3.0025631615e+03  5.9703582123e+02 ] stress_244 gradient
 [ -7.9216129977e-01 -5.9629757601e-04 -5.0375210913e+03  6.0985048886e+02 
   -1.8377335999e+02 -3.1761824207e+03  4.2352726861e+02 ] stress_245 gradient
 [ -7.8800487630e-01  2.8434228200e-04 -5.0367033170e+03  5.7539596884e+02 
   -1.8181150681e+02 -3.1691753903e+03  4.3053460197e+02 ] stress_246 gradient
 [ -6.1431773004e-01  1.4931983861e-03 -4.9967764156e+03 -1.3541382350e+02 
   -1.3345064398e+02 -2.8700494141e+03  7.2967815024e+02 ] stress_247 gradient
 [ -2.1926615918e-02  1.3806345650e-03 -4.7803431961e+03 -1.1365910556e+03 
   -3.5334091867e+01 -1.8378406092e+03  1.7619622747e+03 ] stress_248 gradient
 [  4.4176502742e-01  8.5836197024e-04 -4.4259935501e+03 -1.1759065573e+03 
    6.1334072331e+00 -1.0237545948e+03  2.5761196334e+03 ] stress_249 gradient
 [  6.4028690014e-01  6.0585355931e-04 -4.1221938934e+03 -9.9487168898e+02 
    1.4500738154e+01 -6.7356823910e+02  2.9263397831e+03 ] stress_250 gradient
 [  6.9699946831e-01  5.3430886426e-04 -3.9927925622e+03 -9.1572102706e+02 
    1.5595221236e+01 -5.7329644979e+02  3.0266214625e+03 ] stress_251 gradient
 [  6.9665268524e-01  2.7876902986e-05 -3.9928594073e+03 -9.1197461321e+02 
    1.5168899923e+01 -5.7383122998e+02  3.0260868899e+03 ] stress_252 gradient
 [  6.3789897461e-01 -1.3836466493e-03 -4.0059541466e+03 -5.7362888834e+02 
   -2.2334799245e+01 -6.7102214154e+02  2.9289001426e+03 ] stress_253 gradient
 [  2.1087894064e-01 -2.0026365182e-03 -4.1404808797e+03  6.5810270905e+02 
   -1.4804899034e+02 -1.4049914364e+03  2.1949569489e+03 ] stress_254 gradient
 [ -2.9674294888e-01 -1.6460752227e-03 -4.4388488331e+03  1.1517638718e+03 
   -1.7968416346e+02 -2.2993428212e+03  1.3006244701e+03 ] stress_255 gradient
 [ -5.3491247896e-01 -1.3911384370e-03 -4.7074577794e+03  1.0945633383e+03 
   -1.5929883469e+02 -2.7254906241e+03  8.7448222690e+02 ] stress_256 gradient
 [ -5.8477888552e-01 -1.3352170024e-03 -4.7874546522e+03  1.0558936110e+03 
   -1.5178046453e+02 -2.8153206036e+03  7.8465325950e+02 ] stress_257 gradient
 [ -5.7170265631e-01 -3.1095024502e-05 -4.7843404253e+03  9.4470283909e+02 
   -1.4559861169e+02 -2.7932782935e+03  8.0669529928e+02 ] stress_258 gradient
 [ -2.8611593206e-01  1.1345925423e-03 -4.6974544641e+03 -2.3366929923e+02 
   -7.0324607509e+01 -2.3006815845e+03  1.2992833275e+03 ] stress_259 gradient
 [ -4.3726171684e-02  1.1430061859e-03 -4.5940459038e+03 -7.6784004290e+02 
   -2.9036163361e+01 -1.8784798752e+03  1.7214816700e+03 ] stress_260 gradient
 [ -5.0075995257e-02  1.2489225404e-04 -4.5957661894e+03 -7.0511983898e+02 
   -3.7303264203e+01 -1.8881786478e+03  1.7117830767e+03 ] stress_261 gradient
 [ -2.8290564892e-01 -1.0961360673e-03 -4.6875681278e+03  3.5968883398e+02 
   -1.6085587640e+02 -2.2778509017e+03  1.3221191617e+03 ] stress_262 gradient
 [ -6.0381597547e-01 -1.1134481818e-03 -4.9320109534e+03  8.7436244622e+02 
   -1.8999958900e+02 -2.8415283579e+03  7.5844841976e+02 ] stress_263 gradient
 [ -6.6203027143e-01 -1.0840149481e-03 -5.0066807031e+03  8.8228931765e+02 
   -1.8253741574e+02 -2.9461811148e+03  6.5379633931e+02 ] stress_264 gradient
 [ -6.6201497677e-01 -8.8175263039e-04 -5.0066774686e+03  8.8205003801e+02 
   -1.8252520745e+02 -2.9461564404e+03  6.5382069251e+02 ] stress_265 gradient
 [ -6.6092668348e-01 -4.3092307486e-04 -5.0064418936e+03  8.7033159304e+02 
   -1.8188766330e+02 -2.9443456404e+03  6.5563201153e+02 ] stress_266 gradient
 [ -6.4706946924e-01  2.2381643156e-04 -5.0033228150e+03  7.6557628403e+02 
   -1.7580677110e+02 -2.9208973923e+03  6.7907935062e+02 ] stress_267 gradient
 [ -5.7248403878e-01  9.0531971705e-04 -4.9850185782e+03  3.7897840798e+02 
   -1.5129600849e+02 -2.7931449510e+03  8.0682864302e+02 ] stress_268 gradient
 [ -3.6123207068e-01  1.2893076877e-03 -4.9222503290e+03 -3.2606292296e+02 
   -1.0014454323e+02 -2.4279418971e+03  1.1720250913e+03 ] stress_269 gradient
 [ -2.2799972379e-02  1.2244143357e-03 -4.7809275517e+03 -9.5558369028e+02 
   -4.1867466006e+01 -1.8386347226e+03  1.7613266961e+03 ] stress_270 gradient
 [  3.1856397960e-01  9.2712088194e-04 -4.5491259969e+03 -1.1764519359e+03 
   -2.8210844050e+00 -1.2407383840e+03  2.3592232632e+03 ] stress_271 gradient
 [  5.7363608897e-01  6.4472445877e-04 -4.2391275353e+03 -1.0823609738e+03 
    1.3997291439e+01 -7.9178688904e+02  2.8081780654e+03 ] stress_272 gradient
 [  7.3766487623e-01  4.5737169203e-04 -3.8698121340e+03 -8.8022689094e+02 
    1.8081837193e+01 -5.0186452026e+02  3.0981036886e+03 ] stress_273 gradient
 [  8.3770986694e-01  3.5368690645e-04 -3.4565045712e+03 -6.8252217309e+02 
    1.7052658784e+01 -3.2438799530e+02  3.2755834094e+03 ] stress_274 gradient
 [  8.9853370290e-01  3.0610977189e-04 -3.0102693279e+03 -5.2284255848e+02 
    1.4567205523e+01 -2.1614284485e+02  3.3838301816e+03 ] stress_275 gradient
 [  9.3620859846e-01  2.9333927872e-04 -2.5395693173e+03 -4.0236057717e+02 
    1.2015091110e+01 -1.4890455884e+02  3.4510697611e+03 ] stress_276 gradient
 [  9.6018403331e-01  3.0182452921e-04 -2.0514426815e+03 -3.1347389555e+02 
    9.8193425595e+00 -1.0600783559e+02  3.4939669217e+03 ] stress_277 gradient
 [  9.7588890524e-01  3.2332374600e-04 -1.5522731273e+03 -2.4808780596e+02 
    8.0468148062e+00 -7.7845766903e+01  3.5221295989e+03 ] stress_278 gradient
 [  9.8646908710e-01  3.5277176338e-04 -1.0481009722e+03 -1.9970231522e+02 
    6.6508062832e+00 -5.8834885045e+01  3.5411406636e+03 ] stress_279 gradient
 [  9.9378499254e-01  3.8694184004e-04 -5.4476977160e+02 -1.6354515065e+02 
    5.5598112841e+00 -4.5665796956e+01  3.5543101545e+03 ] stress_280 gradient
 [  9.9896447288e-01  4.2367512631e-04 -4.7976992023e+01 -1.3622442383e+02 
    4.7075562208e+00 -3.6327286000e+01  3.5636490072e+03 ] stress_281 gradient
 [  1.0027090641e+00  4.6144577377e-04  4.3673461395e+02 -1.1535128378e+02 
    4.0392006682e+00 -2.9565992573e+01  3.5704108124e+03 ] stress_282 gradient
 [  1.0054661612e+00  4.9911462096e-04  9.0398617213e+02 -9.9241490291e+01 
    3.5130814112e+00 -2.4580753509e+01  3.5753956326e+03 ] stress_283 gradient
 [  1.0075279442e+00  5.3579262497e-04  1.3486500165e+03 -8.6698633666e+01 
    3.0966430003e+00 -2.0848370483e+01  3.5791280597e+03 ] stress_284 gradient
 [  1.0090890819e+00  5.7075365221e-04  1.7658146494e+03 -7.6867520960e+01 
    2.7660501994e+00 -1.8019876763e+01  3.5819570230e+03 ] stress_285 gradient
 [  1.0102820864e+00  6.0339556900e-04  2.1509324478e+03 -6.9129363195e+01 
    2.5026998970e+00 -1.5856081586e+01  3.5841208646e+03 ] stress_286 gradient
 [  1.0111985176e+00  6.3320715879e-04  2.4997932487e+03 -6.3034070327e+01 
    2.2936086700e+00 -1.4192824555e+01  3.5857840682e+03 ] stress_287 gradient
 [  1.0119024259e+00  6.5974938985e-04  2.8085426772e+03 -5.8252675983e+01 
    2.1285060532e+00 -1.2913783414e+01  3.5870628107e+03 ] stress_288 gradient
 [  1.0124391749e+00  6.8265700431e-04  3.0738427911e+03 -5.4542530223e+01 
    1.9994469634e+00 -1.1938388664e+01  3.5880381364e+03 ] stress_289 gradient
 [  1.0128408523e+00  7.0162354193e-04  3.2927933755e+03 -5.1726617644e+01 
    1.9011992779e+00 -1.1208227386e+01  3.5887687323e+03 ] stress_290 gradient
 [  1.0131299734e+00  7.1639951018e-04  3.4629745299e+03 -4.9677453570e+01 
    1.8294997846e+00 -1.0682007707e+01  3.5892945219e+03 ] stress_291 gradient
 [  1.0133220619e+00  7.2679970381e-04  3.5825690381e+03 -4.8305247743e+01 
    1.7812479645e+00 -1.0332537411e+01  3.5896442498e+03 ] stress_292 gradient
 [  1.0134269188e+00  7.3269029928e-04  3.6502416153e+03 -4.7552360021e+01 
    1.7546997723e+00 -1.0142191923e+01  3.5898350830e+03 ] stress_293 gradient
 [  1.0134284586e+00  7.3277736404e-04  3.6512410573e+03 -4.7541363418e+01 
    1.7543122094e+00 -1.0139170563e+01  3.5898378776e+03 ] stress_294 gradient
 [  9.7637644083e-01 -9.8076187469e-04  3.6433738204e+03  1.7407129239e+02 
   -6.4870601422e+00 -7.4365667187e+01  3.5256129047e+03 ] stress_295 gradient
 [  6.3403387181e-01 -1.8085518687e-03  3.5519654648e+03  1.1642222696e+03 
   -4.3587827534e+01 -6.7497191121e+02  2.9250194405e+03 ] stress_296 gradient
 [  6.3406125446e-01 -1.1801341866e-03  3.5519662734e+03  1.1641373094e+03 
   -4.3504462339e+01 -6.7493887770e+02  2.9250524571e+03 ] stress_297 gradient
 [  8.3083811019e-01  4.0103342534e-04  3.5759605375e+03  5.7354826345e+02 
    3.9816221003e+02 -4.0961795873e+02  3.1903659796e+03 ] stress_298 gradient
 [  8.5865202680e-01  4.0779283850e-04  3.5816159564e+03  4.9044615165e+02 
    4.4743255187e+02 -3.6965749093e+02  3.2303259848e+03 ] stress_299 gradient
 [  8.5862969867e-01  1.9845342717e-04  3.5816116438e+03  4.9073603177e+02 
    4.4741666171e+02 -3.6969425077e+02  3.2302892554e+03 ] stress_300 gradient
 [  8.5770858541e-01 -1.7641270418e-04  3.5814353668e+03  4.9908318970e+02 
    4.4688550411e+02 -3.7122859657e+02  3.2287546047e+03 ] stress_301 gradient
 [  8.4866142818e-01 -6.9145251931e-04  3.5796596591e+03  5.5736043549e+02 
    4.4251105986e+02 -3.8646278217e+02  3.2135210803e+03 ] stress_302 gradient
 [  8.0453965536e-01 -1.2538118382e-03  3.5705207480e+03  7.5518817497e+02 
    4.2428330451e+02 -4.6133956226e+02  3.1386461743e+03 ] stress_303 gradient
 [  6.7308590505e-01 -1.6725456253e-03  3.5399247217e+03  1.1417345188e+03 
    3.7734116150e+02 -6.8576983831e+02  2.9142209530e+03 ] stress_304 gradient
 [  4.1922179729e-01 -1.7619204221e-03  3.4667059959e+03  1.5698740806e+03 
    2.9835380178e+02 -1.1212442178e+03  2.4787531516e+03 ] stress_305 gradient
 [  8.7002555426e-02 -1.5374973303e-03  3.3335133616e+03  1.7839644503e+03 
    2.0777040542e+02 -1.6932903294e+03  1.9067100994e+03 ] stress_306 gradient
 [ -2.3188637854e-01 -1.1884883728e-03  3.1366637078e+03  1.7080594082e+03 
    1.3123855957e+02 -2.2441184578e+03  1.3558806791e+03 ] stress_307 gradient
 [ -4.8077436671e-01 -8.7392580713e-04  2.8835940908e+03  1.4599820237e+03 
    7.8480134249e+01 -2.6752056759e+03  9.2478874822e+02 ] stress_308 gradient
 [ -6.5410366155e-01 -6.4784723282e-04  2.5846169846e+03  1.1727111699e+03 
    4.5946198288e+01 -2.9761484443e+03  6.2384150627e+02 ] stress_309 gradient
 [ -7.6887135714e-01 -5.0409002521e-04  2.2485074256e+03  9.1569909136e+02 
    2.6845646935e+01 -3.1758465465e+03  4.2413969166e+02 ] stress_310 gradient
 [ -8.4385528328e-01 -4.2094842950e-04  1.8817100360e+03  7.0890204619e+02 
    1.5780671009e+01 -3.3065761323e+03  2.9340773132e+02 ] stress_311 gradient
 [ -8.9314363482e-01 -3.7893154514e-04  1.4889206843e+03  5.4997978236e+02 
    9.3406999934e+00 -3.3926606362e+03  2.0732157102e+02 ] stress_312 gradient
 [ -9.2603515059e-01 -3.6418292910e-04  1.0738568203e+03  4.3000673903e+02 
    5.5462465153e+00 -3.4501998626e+03  1.4978055290e+02 ] stress_313 gradient
 [ -9.4840718455e-01 -3.6756492306e-04  6.3961811615e+02  3.3975483374e+02 
    3.2766668640e+00 -3.4893959271e+03  1.1058388076e+02 ] stress_314 gradient
 [ -9.6393336904e-01 -3.8317513349e-04  1.8900829238e+02  2.7160585912e+02 
    1.9000365847e+00 -3.5166344677e+03  8.3344628944e+01 ] stress_315 gradient
 [ -9.7492405132e-01 -4.0717693238e-04 -2.7530477678e+02  2.1976324801e+02 
    1.0545639069e+00 -3.5359409390e+03  6.4037333555e+01 ] stress_316 gradient
 [ -9.8285265887e-01 -4.3702656486e-04 -7.5073892983e+02  1.7995900712e+02 
    5.3096381899e-01 -3.5498850051e+03  5.0093331025e+01 ] stress_317 gradient
 [ -9.8867436939e-01 -4.7098750310e-04 -1.2347260212e+03  1.4909292254e+02 
    2.0521557782e-01 -3.5601344552e+03  3.9843828442e+01 ] stress_318 gradient
 [ -9.9301978079e-01 -5.0783275042e-04 -1.7247081476e+03  1.2491637301e+02 
    2.5191711973e-03 -3.5677925881e+03  3.2185346450e+01 ] stress_319 gradient
 [ -9.9631277372e-01 -5.4666242895e-04 -2.2181446563e+03  1.0579217596e+02 
   -1.2247048684e-01 -3.5736016505e+03  2.6376110597e+01 ] stress_320 gradient
 [ -9.9884315603e-01 -5.8678700316e-04 -2.7124733315e+03  9.0521966219e+01 
   -1.9785184680e-01 -3.5780687269e+03  2.1908696036e+01 ] stress_321 gradient
 [ -1.0008125468e+00 -6.2765981420e-04 -3.2051675361e+03  7.8220057130e+01 
   -2.4164667220e-01 -3.5815488266e+03  1.8428983320e+01 ] stress_322 gradient
 [ -1.0023632799e+00 -6.6882748007e-04 -3.6936898518e+03  6.8227319665e+01 
   -2.6548190839e-01 -3.5842912116e+03  1.5686254282e+01 ] stress_323 gradient
 [ -1.0035973823e+00 -7.0990461401e-04 -4.1755465252e+03  6.0047905947e+01 
   -2.7633372346e-01 -3.5864751492e+03  1.3502451095e+01 ] stress_324 gradient
 [ -1.0045890383e+00 -7.5055538103e-04 -4.6483025616e+03  5.3305492893e+01 
   -2.7885289465e-01 -3.5882305576e+03  1.1746625427e+01 ] stress_325 gradient
 [ -1.0053928093e+00 -7.9047515079e-04 -5.1095213496e+03  4.7712846011e+01 
   -2.7672129080e-01 -3.5896551274e+03  1.0322562177e+01 ] stress_326 gradient
 [ -1.0060493769e+00 -8.2939252010e-04 -5.5568908032e+03  4.3047652173e+01 
   -2.7129538106e-01 -3.5908188534e+03  9.1583994582e+00 ] stress_327 gradient
 [ -1.0065892265e+00 -8.6705072497e-04 -5.9880826647e+03  3.9137853652e+01 
   -2.6412543261e-01 -3.5917761201e+03  8.2010393040e+00 ] stress_328 gradient
 [ -1.0070357474e+00 -9.0322078701e-04 -6.4009492655e+03  3.5847856349e+01 
   -2.5637413645e-01 -3.5925687227e+03  7.4085622824e+00 ] stress_329 gradient
 [ -1.0074067730e+00 -9.3768677791e-04 -6.7933930712e+03  3.3071087536e+01 
   -2.4842905772e-01 -3.5932273785e+03  6.7498282317e+00 ] stress_330 gradient
 [ -1.0077160998e+00 -9.7024610838e-04 -7.1633925566e+03  3.0723186245e+01 
   -2.4048397678e-01 -3.5937762584e+03  6.2008831948e+00 ] stress_331 gradient
 [ -1.0079745900e+00 -1.0007165588e-03 -7.5090997782e+03  2.8736481955e+01 
   -2.3312024576e-01 -3.5942360082e+03  5.7409670517e+00 ] stress_332 gradient
 [ -1.0081906089e+00 -1.0289252036e-03 -7.8287309420e+03  2.7057187935e+01 
   -2.2633786245e-01 -3.5946202241e+03  5.3573043714e+00 ] stress_333 gradient
 [ -1.0083708570e+00 -1.0547178494e-03 -8.1206785314e+03  2.5641835395e+01 
   -2.1994304207e-01 -3.5949399844e+03  5.0371197000e+00 ] stress_334 gradient
 [ -1.0085206406e+00 -1.0779565315e-03 -8.3834924388e+03  2.4455444555e+01 
   -2.1451713453e-01 -3.5952068709e+03  4.7704322197e+00 ] stress_335 gradient
 [ -1.0086440592e+00 -1.0985083412e-03 -8.6157581357e+03  2.3470420381e+01 
   -2.0967257471e-01 -3.5954259193e+03  4.5508542013e+00 ] stress_336 gradient
 [ -1.0087444213e+00 -1.1162692149e-03 -8.8163694436e+03  2.2664102511e+01 
   -2.0540936039e-01 -3.5956046830e+03  4.3723971623e+00 ] stress_337 gradient
 [ -1.0088243073e+00 -1.1311412047e-03 -8.9842767866e+03  2.2018949291e+01 
   -2.0211505891e-01 -3.5957466867e+03  4.2302702968e+00 ] stress_338 gradient
 [ -1.0088856525e+00 -1.1430444212e-03 -9.1186198035e+03  2.1521272482e+01 
   -1.9959588772e-01 -3.5958559591e+03  4.1208805252e+00 ] stress_339 gradient
 [ -1.0089299550e+00 -1.1519178996e-03 -9.2187429811e+03  2.1160616108e+01 
   -1.9746428166e-01 -3.5959345144e+03  4.0422316731e+00 ] stress_340 gradient
 [ -1.0089582761e+00 -1.1577135328e-03 -9.2841261135e+03  2.0929687443e+01 
   -1.9630158624e-01 -3.5959853739e+03  3.9919283420e+00 ] stress_341 gradient
 [ -1.0089712193e+00 -1.1603994421e-03 -9.3144241940e+03  2.0823873895e+01 
   -1.9572023853e-01 -3.5960085377e+03  3.9687728464e+00 ] stress_342 gradient



---------------------
Begin Evaluation  102
---------------------
Parameters for evaluation 102:
                      4.8061979121e+02 fy
                      2.0786484908e+05 E
                      1.8387636048e-02 b
                      8.7017434223e-01 cR1
                      5.4660738456e-02 cR2
                      2.0013469992e-02 a1
                      2.5018689898e-02 a3

blocking fork: workflow_driver1 paramsDakota.in results.out

Active response data for evaluation 102:
Active set vector = { 1 1 1 1 1 1 1 1 1 1 1 1 1 1 1 1 1 1 1 1 1 1 1 1 1 1 1 1 1 1 1 1 1 1 1 1 1 1 1 1 1 1 1 1 1 1 1 1 1 1 1 1 1 1 1 1 1 1 1 1 1 1 1 1 1 1 1 1 1 1 1 1 1 1 1 1 1 1 1 1 1 1 1 1 1 1 1 1 1 1 1 1 1 1 1 1 1 1 1 1 1 1 1 1 1 1 1 1 1 1 1 1 1 1 1 1 1 1 1 1 1 1 1 1 1 1 1 1 1 1 1 1 1 1 1 1 1 1 1 1 1 1 1 1 1 1 1 1 1 1 1 1 1 1 1 1 1 1 1 1 1 1 1 1 1 1 1 1 1 1 1 1 1 1 1 1 1 1 1 1 1 1 1 1 1 1 1 1 1 1 1 1 1 1 1 1 1 1 1 1 1 1 1 1 1 1 1 1 1 1 1 1 1 1 1 1 1 1 1 1 1 1 1 1 1 1 1 1 1 1 1 1 1 1 1 1 1 1 1 1 1 1 1 1 1 1 1 1 1 1 1 1 1 1 1 1 1 1 1 1 1 1 1 1 1 1 1 1 1 1 1 1 1 1 1 1 1 1 1 1 1 1 1 1 1 1 1 1 1 1 1 1 1 1 1 1 1 1 1 1 1 1 1 1 1 1 1 1 1 1 1 1 1 1 1 1 1 1 1 1 1 1 1 1 1 1 1 1 1 1 1 1 1 1 1 1 1 1 1 1 1 1 }
                      2.4222983503e+00 stress_1
                     -2.5174504396e+02 stress_2
                     -4.9432910002e+02 stress_3
                     -4.9584877984e+02 stress_4
                     -1.6687234505e+02 stress_5
                      2.5318407025e+02 stress_6
                      4.0125070863e+02 stress_7
                      4.0211945706e+02 stress_8
                      1.5243171522e+02 stress_9
                     -2.3143072278e+02 stress_10
                     -4.3990440900e+02 stress_11
                     -4.8924070942e+02 stress_12
                     -5.0317953060e+02 stress_13
                     -5.0417435115e+02 stress_14
                     -1.7339359610e+02 stress_15
                     -3.4137706788e+02 stress_16
                     -5.0986020849e+02 stress_17
                     -3.1504029704e+02 stress_18
                      2.1418549035e+01 stress_19
                      2.9848796483e+02 stress_20
                      4.1851744987e+02 stress_21
                      4.6349674794e+02 stress_22
                      4.8207791250e+02 stress_23
                      4.8820738250e+02 stress_24
                      1.5748428752e+02 stress_25
                      2.8561176017e+02 stress_26
                      4.2950000400e+02 stress_27
                      4.6527306915e+02 stress_28
                      3.4238838102e+02 stress_29
                      1.2873973952e+02 stress_30
                     -1.2498342930e+02 stress_31
                     -3.2058973969e+02 stress_32
                     -4.2443170352e+02 stress_33
                     -4.7426614715e+02 stress_34
                     -5.0124304986e+02 stress_35
                     -5.1874176834e+02 stress_36
                     -5.3174850331e+02 stress_37
                     -5.4206825541e+02 stress_38
                     -5.5030937438e+02 stress_39
                     -5.5661753970e+02 stress_40
                     -5.6097888922e+02 stress_41
                     -5.6333438210e+02 stress_42
                     -5.4786576781e+02 stress_43
                     -1.6078451474e+02 stress_44
                      1.0630833493e+02 stress_45
                     -9.9921284181e+01 stress_46
                     -4.5324299931e+02 stress_47
                     -1.5680129494e+02 stress_48
                     -2.5974944359e+02 stress_49
                     -4.1957130074e+02 stress_50
                     -5.6865818159e+02 stress_51
                     -3.9866723987e+02 stress_52
                     -6.1066028001e+01 stress_53
                      2.2645745179e+02 stress_54
                      3.5823411275e+02 stress_55
                      4.0780528833e+02 stress_56
                      4.2286473274e+02 stress_57
                      3.3648563404e+02 stress_58
                      2.1642319615e+01 stress_59
                     -3.1586762634e+02 stress_60
                     -4.7135514110e+02 stress_61
                     -5.2129552312e+02 stress_62
                     -5.3231757978e+02 stress_63
                     -2.6382384757e+02 stress_64
                      1.1341116053e+02 stress_65
                      2.0041834907e+02 stress_66
                     -7.1932163324e+01 stress_67
                     -4.4059187812e+02 stress_68
                     -5.3479756331e+02 stress_69
                     -5.3587770220e+02 stress_70
                     -4.4046864737e+02 stress_71
                     -2.6821067376e+02 stress_72
                     -4.4735467762e+01 stress_73
                      1.6689891951e+02 stress_74
                      3.1134203958e+02 stress_75
                      3.9198760182e+02 stress_76
                      4.3622954499e+02 stress_77
                      4.6306842168e+02 stress_78
                      4.8169878138e+02 stress_79
                      4.9617060327e+02 stress_80
                      5.0823030744e+02 stress_81
                      5.1860649497e+02 stress_82
                      5.2756789352e+02 stress_83
                      5.3517478650e+02 stress_84
                      5.4139297927e+02 stress_85
                      5.4615678558e+02 stress_86
                      5.4939845779e+02 stress_87
                      5.5106222528e+02 stress_88
                      4.7732556225e+02 stress_89
                      4.3701399207e+01 stress_90
                     -1.5946546387e+02 stress_91
                      1.3079482245e+02 stress_92
                      4.7799039485e+02 stress_93
                      4.8432786874e+02 stress_94
                      4.2411608048e+02 stress_95
                      3.1592846875e+02 stress_96
                      1.6523452160e+02 stress_97
                     -1.0300581503e+01 stress_98
                     -1.7748654024e+02 stress_99
                     -3.0621482678e+02 stress_100
                     -3.9079362471e+02 stress_101
                     -4.4297427807e+02 stress_102
                     -4.7593469912e+02 stress_103
                     -4.9842095853e+02 stress_104
                     -5.1530825237e+02 stress_105
                     -5.2917317460e+02 stress_106
                     -5.4135969424e+02 stress_107
                     -5.5256663723e+02 stress_108
                     -5.6315099198e+02 stress_109
                     -5.7328456350e+02 stress_110
                     -5.8303555360e+02 stress_111
                     -5.9241247337e+02 stress_112
                     -6.0139116905e+02 stress_113
                     -6.0992830857e+02 stress_114
                     -6.1796987803e+02 stress_115
                     -6.2545763204e+02 stress_116
                     -6.3233174691e+02 stress_117
                     -6.3853579767e+02 stress_118
                     -6.4401628450e+02 stress_119
                     -6.4872351819e+02 stress_120
                     -6.5261625486e+02 stress_121
                     -6.5565853535e+02 stress_122
                     -6.5782197723e+02 stress_123
                     -6.5908738796e+02 stress_124
                     -6.5942730276e+02 stress_125
                     -5.5683929949e+02 stress_126
                     -3.0591726579e+02 stress_127
                      8.5936041068e-01 stress_128
                      2.1960573053e+02 stress_129
                      3.2862601513e+02 stress_130
                      3.7947668672e+02 stress_131
                      4.0431330151e+02 stress_132
                      4.1559655281e+02 stress_133
                      4.1622593359e+02 stress_134
                      1.1272840975e+01 stress_135
                     -1.0617597440e+01 stress_136
                      1.7451473777e+02 stress_137
                      1.3837041341e+02 stress_138
                     -3.4010552881e+01 stress_139
                     -3.2104465037e+02 stress_140
                     -5.2999954985e+02 stress_141
                     -6.1372682929e+02 stress_142
                     -6.4624576020e+02 stress_143
                     -6.6105269235e+02 stress_144
                     -6.6717060572e+02 stress_145
                     -6.4676741752e+02 stress_146
                     -4.0870077880e+02 stress_147
                     -5.7886139845e+01 stress_148
                      1.9425140843e+02 stress_149
                      3.0661615968e+02 stress_150
                      3.4819820056e+02 stress_151
                      3.5333318938e+02 stress_152
                      1.3685881864e+02 stress_153
                     -2.3150638218e+02 stress_154
                     -4.9332025346e+02 stress_155
                     -5.9015487551e+02 stress_156
                     -6.1719881843e+02 stress_157
                     -4.9445795276e+02 stress_158
                     -8.9395789357e+01 stress_159
                      9.3900710016e+01 stress_160
                     -7.2935904395e+01 stress_161
                     -4.6822992693e+02 stress_162
                     -6.2375952661e+02 stress_163
                     -6.3473279641e+02 stress_164
                     -5.9296472277e+02 stress_165
                     -5.1066567455e+02 stress_166
                     -3.8986871565e+02 stress_167
                     -2.3765344648e+02 stress_168
                     -7.1273354993e+01 stress_169
                      8.3576697937e+01 stress_170
                      2.0611169491e+02 stress_171
                      2.9187636513e+02 stress_172
                      3.4851895207e+02 stress_173
                      3.8604317127e+02 stress_174
                      4.1208947671e+02 stress_175
                      4.3146929117e+02 stress_176
                      4.4699908261e+02 stress_177
                      4.6029049115e+02 stress_178
                      4.7226014118e+02 stress_179
                      4.8342975055e+02 stress_180
                      4.9409359241e+02 stress_181
                      5.0441112408e+02 stress_182
                      5.1446221809e+02 stress_183
                      5.2427707869e+02 stress_184
                      5.3385589970e+02 stress_185
                      5.4317947519e+02 stress_186
                      5.5221674417e+02 stress_187
                      5.6092973768e+02 stress_188
                      5.6927591050e+02 stress_189
                      5.7721129294e+02 stress_190
                      5.8469165882e+02 stress_191
                      5.9167263114e+02 stress_192
                      5.9811339876e+02 stress_193
                      6.0397435664e+02 stress_194
                      6.0921833893e+02 stress_195
                      6.1381343284e+02 stress_196
                      6.1772957618e+02 stress_197
                      6.2094258265e+02 stress_198
                      6.2343193683e+02 stress_199
                      6.2518087281e+02 stress_200
                      6.2617876494e+02 stress_201
                      6.2622764342e+02 stress_202
                      2.6420334994e+02 stress_203
                     -7.9892399739e+01 stress_204
                      2.9047633468e+01 stress_205
                      4.6807605490e+02 stress_206
                      4.8723791428e+02 stress_207
                      4.2240300502e+02 stress_208
                      3.0528090335e+02 stress_209
                      1.4333788868e+02 stress_210
                     -4.0020854871e+01 stress_211
                     -2.0579700472e+02 stress_212
                     -3.2616946290e+02 stress_213
                     -4.0204189483e+02 stress_214
                     -4.4825019671e+02 stress_215
                     -4.7779720399e+02 stress_216
                     -4.9851084041e+02 stress_217
                     -5.1455815398e+02 stress_218
                     -5.2808051183e+02 stress_219
                     -5.4017077828e+02 stress_220
                     -5.5138187839e+02 stress_221
                     -5.6198165241e+02 stress_222
                     -5.7208425863e+02 stress_223
                     -5.8171832242e+02 stress_224
                     -5.9086537278e+02 stress_225
                     -5.9948029324e+02 stress_226
                     -6.0750410520e+02 stress_227
                     -6.1487313952e+02 stress_228
                     -6.2152074755e+02 stress_229
                     -6.2738527406e+02 stress_230
                     -6.3240939754e+02 stress_231
                     -6.3654116885e+02 stress_232
                     -6.3973976602e+02 stress_233
                     -6.4197168373e+02 stress_234
                     -6.4321261345e+02 stress_235
                     -6.3671912624e+02 stress_236
                     -2.7206054552e+02 stress_237
                      2.2993149700e+01 stress_238
                     -1.9710746253e+02 stress_239
                     -4.4707685915e+02 stress_240
                     -1.1608150773e+02 stress_241
                      6.0573467797e+01 stress_242
                     -2.7192561603e+02 stress_243
                     -3.9571804810e+02 stress_244
                     -5.0420558444e+02 stress_245
                     -3.1916889407e+02 stress_246
                      1.5391415438e+01 stress_247
                      2.7654927114e+02 stress_248
                      3.9084145826e+02 stress_249
                      4.3379262289e+02 stress_250
                      4.4618855222e+02 stress_251
                      3.4075355118e+02 stress_252
                      1.9171640495e+01 stress_253
                     -3.1459288299e+02 stress_254
                     -4.8435239025e+02 stress_255
                     -5.4578648775e+02 stress_256
                     -5.5812068011e+02 stress_257
                     -2.8080498237e+02 stress_258
                      9.8382335838e+01 stress_259
                      2.1650311716e+02 stress_260
                      1.8377365029e+00 stress_261
                     -3.6361780941e+02 stress_262
                     -5.2125785918e+02 stress_263
                     -5.4309301668e+02 stress_264
                     -5.0104256912e+02 stress_265
                     -4.0681361740e+02 stress_266
                     -2.6410041268e+02 stress_267
                     -8.6723725257e+01 stress_268
                      9.4445763557e+01 stress_269
                      2.4349821705e+02 stress_270
                      3.4575419769e+02 stress_271
                      4.0969553038e+02 stress_272
                      4.4964710696e+02 stress_273
                      4.7622017096e+02 stress_274
                      4.9557890759e+02 stress_275
                      5.1102209203e+02 stress_276
                      5.2427962986e+02 stress_277
                      5.3625274994e+02 stress_278
                      5.4740487068e+02 stress_279
                      5.5796294480e+02 stress_280
                      5.6802302303e+02 stress_281
                      5.7760737568e+02 stress_282
                      5.8669601092e+02 stress_283
                      5.9524608798e+02 stress_284
                      6.0320152566e+02 stress_285
                      6.1050196323e+02 stress_286
                      6.1708608320e+02 stress_287
                      6.2289418826e+02 stress_288
                      6.2787289236e+02 stress_289
                      6.3197446643e+02 stress_290
                      6.3515835995e+02 stress_291
                      6.3739387293e+02 stress_292
                      6.3865816247e+02 stress_293
                      6.3867683041e+02 stress_294
                      2.6477767618e+02 stress_295
                     -7.1556755480e+01 stress_296
                      5.9082722274e+01 stress_297
                      4.8350497976e+02 stress_298
                      4.9837670656e+02 stress_299
                      4.5485182612e+02 stress_300
                      3.7649111555e+02 stress_301
                      2.6510243225e+02 stress_302
                      1.2703548902e+02 stress_303
                     -2.3193443150e+01 stress_304
                     -1.6392398903e+02 stress_305
                     -2.7720833925e+02 stress_306
                     -3.5822007319e+02 stress_307
                     -4.1271119899e+02 stress_308
                     -4.4921945274e+02 stress_309
                     -4.7463304690e+02 stress_310
                     -4.9347415085e+02 stress_311
                     -5.0847310487e+02 stress_312
                     -5.2122846688e+02 stress_313
                     -5.3267329946e+02 stress_314
                     -5.4335226032e+02 stress_315
                     -5.5358258204e+02 stress_316
                     -5.6354700004e+02 stress_317
                     -5.7334608557e+02 stress_318
                     -5.8302974354e+02 stress_319
                     -5.9261617318e+02 stress_320
                     -6.0210254100e+02 stress_321
                     -6.1147310616e+02 stress_322
                     -6.2070286951e+02 stress_323
                     -6.2976151100e+02 stress_324
                     -6.3861554372e+02 stress_325
                     -6.4722841116e+02 stress_326
                     -6.5556379254e+02 stress_327
                     -6.6358349982e+02 stress_328
                     -6.7125155937e+02 stress_329
                     -6.7853211389e+02 stress_330
                     -6.8539006964e+02 stress_331
                     -6.9179305976e+02 stress_332
                     -6.9770954598e+02 stress_333
                     -7.0311098991e+02 stress_334
                     -7.0797147566e+02 stress_335
                     -7.1226563075e+02 stress_336
                     -7.1597360410e+02 stress_337
                     -7.1907644852e+02 stress_338
                     -7.2155864228e+02 stress_339
                     -7.2340836302e+02 stress_340
                     -7.2461617397e+02 stress_341
                     -7.2517584798e+02 stress_342



------------------------------------------
Begin Dakota derivative estimation routine
------------------------------------------

>>>>> map at X performed previously and results retrieved

>>>>> Dakota finite difference gradient evaluation for x[1] + h:

---------------------
Begin Evaluation  103
---------------------
Parameters for evaluation 103:
                      4.8110041100e+02 fy
                      2.0786484908e+05 E
                      1.8387636048e-02 b
                      8.7017434223e-01 cR1
                      5.4660738456e-02 cR2
                      2.0013469992e-02 a1
                      2.5018689898e-02 a3

(Asynchronous job 103 added to queue)


>>>>> Dakota finite difference gradient evaluation for x[2] + h:

---------------------
Begin Evaluation  104
---------------------
Parameters for evaluation 104:
                      4.8061979121e+02 fy
                      2.0807271393e+05 E
                      1.8387636048e-02 b
                      8.7017434223e-01 cR1
                      5.4660738456e-02 cR2
                      2.0013469992e-02 a1
                      2.5018689898e-02 a3

(Asynchronous job 104 added to queue)


>>>>> Dakota finite difference gradient evaluation for x[3] + h:

---------------------
Begin Evaluation  105
---------------------
Parameters for evaluation 105:
                      4.8061979121e+02 fy
                      2.0786484908e+05 E
                      1.8406023684e-02 b
                      8.7017434223e-01 cR1
                      5.4660738456e-02 cR2
                      2.0013469992e-02 a1
                      2.5018689898e-02 a3

(Asynchronous job 105 added to queue)


>>>>> Dakota finite difference gradient evaluation for x[4] + h:

---------------------
Begin Evaluation  106
---------------------
Parameters for evaluation 106:
                      4.8061979121e+02 fy
                      2.0786484908e+05 E
                      1.8387636048e-02 b
                      8.7104451657e-01 cR1
                      5.4660738456e-02 cR2
                      2.0013469992e-02 a1
                      2.5018689898e-02 a3

(Asynchronous job 106 added to queue)


>>>>> Dakota finite difference gradient evaluation for x[5] + h:

---------------------
Begin Evaluation  107
---------------------
Parameters for evaluation 107:
                      4.8061979121e+02 fy
                      2.0786484908e+05 E
                      1.8387636048e-02 b
                      8.7017434223e-01 cR1
                      5.4715399195e-02 cR2
                      2.0013469992e-02 a1
                      2.5018689898e-02 a3

(Asynchronous job 107 added to queue)


>>>>> Dakota finite difference gradient evaluation for x[6] + h:

---------------------
Begin Evaluation  108
---------------------
Parameters for evaluation 108:
                      4.8061979121e+02 fy
                      2.0786484908e+05 E
                      1.8387636048e-02 b
                      8.7017434223e-01 cR1
                      5.4660738456e-02 cR2
                      2.0033483462e-02 a1
                      2.5018689898e-02 a3

(Asynchronous job 108 added to queue)


>>>>> Dakota finite difference gradient evaluation for x[7] + h:

---------------------
Begin Evaluation  109
---------------------
Parameters for evaluation 109:
                      4.8061979121e+02 fy
                      2.0786484908e+05 E
                      1.8387636048e-02 b
                      8.7017434223e-01 cR1
                      5.4660738456e-02 cR2
                      2.0013469992e-02 a1
                      2.5043708588e-02 a3

(Asynchronous job 109 added to queue)



Blocking synchronize of 7 asynchronous evaluations
First pass: initiating 7 local asynchronous jobs
Initiating evaluation 103
nonblocking fork: workflow_driver1 paramsDakota.in results.out
Initiating evaluation 104
nonblocking fork: workflow_driver1 paramsDakota.in results.out
Initiating evaluation 105
nonblocking fork: workflow_driver1 paramsDakota.in results.out
Initiating evaluation 106
nonblocking fork: workflow_driver1 paramsDakota.in results.out
Initiating evaluation 107
nonblocking fork: workflow_driver1 paramsDakota.in results.out
Initiating evaluation 108
nonblocking fork: workflow_driver1 paramsDakota.in results.out
Initiating evaluation 109
nonblocking fork: workflow_driver1 paramsDakota.in results.out
Waiting on completed jobs
Evaluation 103 has completed
Evaluation 104 has completed
Evaluation 105 has completed
Evaluation 106 has completed
Evaluation 107 has completed
Waiting on completed jobs
Evaluation 108 has completed
Waiting on completed jobs
Evaluation 109 has completed

Active response data for evaluation 103:
Active set vector = { 1 1 1 1 1 1 1 1 1 1 1 1 1 1 1 1 1 1 1 1 1 1 1 1 1 1 1 1 1 1 1 1 1 1 1 1 1 1 1 1 1 1 1 1 1 1 1 1 1 1 1 1 1 1 1 1 1 1 1 1 1 1 1 1 1 1 1 1 1 1 1 1 1 1 1 1 1 1 1 1 1 1 1 1 1 1 1 1 1 1 1 1 1 1 1 1 1 1 1 1 1 1 1 1 1 1 1 1 1 1 1 1 1 1 1 1 1 1 1 1 1 1 1 1 1 1 1 1 1 1 1 1 1 1 1 1 1 1 1 1 1 1 1 1 1 1 1 1 1 1 1 1 1 1 1 1 1 1 1 1 1 1 1 1 1 1 1 1 1 1 1 1 1 1 1 1 1 1 1 1 1 1 1 1 1 1 1 1 1 1 1 1 1 1 1 1 1 1 1 1 1 1 1 1 1 1 1 1 1 1 1 1 1 1 1 1 1 1 1 1 1 1 1 1 1 1 1 1 1 1 1 1 1 1 1 1 1 1 1 1 1 1 1 1 1 1 1 1 1 1 1 1 1 1 1 1 1 1 1 1 1 1 1 1 1 1 1 1 1 1 1 1 1 1 1 1 1 1 1 1 1 1 1 1 1 1 1 1 1 1 1 1 1 1 1 1 1 1 1 1 1 1 1 1 1 1 1 1 1 1 1 1 1 1 1 1 1 1 1 1 1 1 1 1 1 1 1 1 1 1 1 1 1 1 1 1 1 1 1 1 1 1 }
                      2.4222983503e+00 stress_1
                     -2.5174505358e+02 stress_2
                     -4.9480880037e+02 stress_3
                     -4.9632969227e+02 stress_4
                     -1.6734489729e+02 stress_5
                      2.5304288504e+02 stress_6
                      4.0147158936e+02 stress_7
                      4.0234281866e+02 stress_8
                      1.5265165468e+02 stress_9
                     -2.3142661387e+02 stress_10
                     -4.4030769173e+02 stress_11
                     -4.8971940799e+02 stress_12
                     -5.0366490322e+02 stress_13
                     -5.0465988322e+02 stress_14
                     -1.7386375156e+02 stress_15
                     -3.4184722349e+02 stress_16
                     -5.1033631383e+02 stress_17
                     -3.1551445419e+02 stress_18
                      2.1034589174e+01 stress_19
                      2.9845842789e+02 stress_20
                      4.1876788570e+02 stress_21
                      4.6385951961e+02 stress_22
                      4.8248132262e+02 stress_23
                      4.8862256967e+02 stress_24
                      1.5788352586e+02 stress_25
                      2.8601099822e+02 stress_26
                      4.2989798803e+02 stress_27
                      4.6567225265e+02 stress_28
                      3.4278715527e+02 stress_29
                      1.2912070017e+02 stress_30
                     -1.2473276690e+02 stress_31
                     -3.2061274064e+02 stress_32
                     -4.2467951231e+02 stress_33
                     -4.7462935162e+02 stress_34
                     -5.0165905466e+02 stress_35
                     -5.1918267006e+02 stress_36
                     -5.3220195550e+02 stress_37
                     -5.4252846319e+02 stress_38
                     -5.5077340539e+02 stress_39
                     -5.5708378385e+02 stress_40
                     -5.6144637919e+02 stress_41
                     -5.6380246375e+02 stress_42
                     -5.4833384925e+02 stress_43
                     -1.6122081484e+02 stress_44
                      1.0604289782e+02 stress_45
                     -1.0018686516e+02 stress_46
                     -4.5362860244e+02 stress_47
                     -1.5717265518e+02 stress_48
                     -2.6012080799e+02 stress_49
                     -4.1994941237e+02 stress_50
                     -5.6914607498e+02 stress_51
                     -3.9915377645e+02 stress_52
                     -6.1479745232e+01 stress_53
                      2.2634585883e+02 stress_54
                      3.5838827197e+02 stress_55
                      4.0807720932e+02 stress_56
                      4.2317237077e+02 stress_57
                      3.3679319287e+02 stress_58
                      2.1921201389e+01 stress_59
                     -3.1584271026e+02 stress_60
                     -4.7160081446e+02 stress_61
                     -5.2164368578e+02 stress_62
                     -5.3268761433e+02 stress_63
                     -2.6418668059e+02 stress_64
                      1.1321779214e+02 stress_65
                      2.0032676636e+02 stress_66
                     -7.2029935809e+01 stress_67
                     -4.4090959064e+02 stress_68
                     -5.3524072944e+02 stress_69
                     -5.3632215874e+02 stress_70
                     -4.4091292763e+02 stress_71
                     -2.6864742104e+02 stress_72
                     -4.5109088743e+01 stress_73
                      1.6671429126e+02 stress_74
                      3.1140216909e+02 stress_75
                      3.9222844655e+02 stress_76
                      4.3657351863e+02 stress_77
                      4.6346745799e+02 stress_78
                      4.8212767525e+02 stress_79
                      4.9661638160e+02 stress_80
                      5.0868608668e+02 stress_81
                      5.1906845291e+02 stress_82
                      5.2803380144e+02 stress_83
                      5.3564327955e+02 stress_84
                      5.4186317724e+02 stress_85
                      5.4662808823e+02 stress_86
                      5.4987042714e+02 stress_87
                      5.5153451286e+02 stress_88
                      4.7779778872e+02 stress_89
                      4.4104740113e+01 stress_90
                     -1.5922629477e+02 stress_91
                      1.3103656075e+02 stress_92
                      4.7843979287e+02 stress_93
                      4.8478553316e+02 stress_94
                      4.2457370872e+02 stress_95
                      3.1638458942e+02 stress_96
                      1.6567630866e+02 stress_97
                     -9.9211689266e+00 stress_98
                     -1.7725331045e+02 stress_99
                     -3.0618041865e+02 stress_100
                     -3.9093774528e+02 stress_101
                     -4.4324333359e+02 stress_102
                     -4.7628178440e+02 stress_103
                     -4.9881518422e+02 stress_104
                     -5.1573111959e+02 stress_105
                     -5.2961383910e+02 stress_106
                     -5.4181173346e+02 stress_107
                     -5.5302616021e+02 stress_108
                     -5.6361557716e+02 stress_109
                     -5.7375266183e+02 stress_110
                     -5.8350614734e+02 stress_111
                     -5.9288487660e+02 stress_112
                     -6.0186490867e+02 stress_113
                     -6.1040305095e+02 stress_114
                     -6.1844538286e+02 stress_115
                     -6.2593372276e+02 stress_116
                     -6.3280829117e+02 stress_117
                     -6.3901269438e+02 stress_118
                     -6.4449345477e+02 stress_119
                     -6.4920089904e+02 stress_120
                     -6.5309379482e+02 stress_121
                     -6.5613619109e+02 stress_122
                     -6.5829971107e+02 stress_123
                     -6.5956516594e+02 stress_124
                     -6.5990509241e+02 stress_125
                     -5.5731689885e+02 stress_126
                     -3.0637820736e+02 stress_127
                      5.4250968049e-01 stress_128
                      2.1957398651e+02 stress_129
                      3.2881349179e+02 stress_130
                      3.7977796302e+02 stress_131
                      4.0466801582e+02 stress_132
                      4.1597379801e+02 stress_133
                      4.1660438877e+02 stress_134
                      1.1626491945e+01 stress_135
                     -1.0269315889e+01 stress_136
                      1.7486836928e+02 stress_137
                      1.3872403822e+02 stress_138
                     -3.3661925566e+01 stress_139
                     -3.2081917489e+02 stress_140
                     -5.3010928756e+02 stress_141
                     -6.1404867689e+02 stress_142
                     -6.4664784339e+02 stress_143
                     -6.6148435163e+02 stress_144
                     -6.6761230723e+02 stress_145
                     -6.4720911851e+02 stress_146
                     -4.0913739533e+02 stress_147
                     -5.8214845429e+01 stress_148
                      1.9419935696e+02 stress_149
                      3.0676972918e+02 stress_150
                      3.4843931260e+02 stress_151
                      3.5358532493e+02 stress_152
                      1.3710872109e+02 stress_153
                     -2.3135517933e+02 stress_154
                     -4.9346062005e+02 stress_155
                     -5.9046681626e+02 stress_156
                     -6.1756077875e+02 stress_157
                     -4.9481954485e+02 stress_158
                     -8.9685410273e+01 stress_159
                      9.3749986773e+01 stress_160
                     -7.3087155330e+01 stress_161
                     -4.6850632630e+02 stress_162
                     -6.2421128890e+02 stress_163
                     -6.3519617386e+02 stress_164
                     -5.9342809237e+02 stress_165
                     -5.1112864564e+02 stress_166
                     -3.9032731669e+02 stress_167
                     -2.3808931516e+02 stress_168
                     -7.1639297073e+01 stress_169
                      8.3346554752e+01 stress_170
                      2.0605649276e+02 stress_171
                      2.9198469870e+02 stress_172
                      3.4875156079e+02 stress_173
                      3.8636042663e+02 stress_174
                      4.1246187904e+02 stress_175
                      4.3187732258e+02 stress_176
                      4.4743035920e+02 stress_177
                      4.6073721021e+02 stress_178
                      4.7271733766e+02 stress_179
                      4.8389421142e+02 stress_180
                      4.9456319693e+02 stress_181
                      5.0488444307e+02 stress_182
                      5.1493826904e+02 stress_183
                      5.2475517288e+02 stress_184
                      5.3433554557e+02 stress_185
                      5.4366031581e+02 stress_186
                      5.5269851618e+02 stress_187
                      5.6141224379e+02 stress_188
                      5.6975900077e+02 stress_189
                      5.7769485184e+02 stress_190
                      5.8517559613e+02 stress_191
                      5.9215687545e+02 stress_192
                      5.9859789281e+02 stress_193
                      6.0445905389e+02 stress_194
                      6.0970320094e+02 stress_195
                      6.1429842744e+02 stress_196
                      6.1821467591e+02 stress_197
                      6.2142776365e+02 stress_198
                      6.2391717791e+02 stress_199
                      6.2566615467e+02 stress_200
                      6.2666406956e+02 stress_201
                      6.2671294915e+02 stress_202
                      2.6467189162e+02 stress_203
                     -7.9593544431e+01 stress_204
                      2.9346490156e+01 stress_205
                      4.6845438230e+02 stress_206
                      4.8763324856e+02 stress_207
                      4.2279829083e+02 stress_208
                      3.0567420596e+02 stress_209
                      1.4371289733e+02 stress_210
                     -3.9720578674e+01 stress_211
                     -2.0565508434e+02 stress_212
                     -3.2622002693e+02 stress_213
                     -4.0225036361e+02 stress_214
                     -4.4856328680e+02 stress_215
                     -4.7817395979e+02 stress_216
                     -4.9892572218e+02 stress_217
                     -5.1499621713e+02 stress_218
                     -5.2853305827e+02 stress_219
                     -5.4063265317e+02 stress_220
                     -5.5184994448e+02 stress_221
                     -5.6245394381e+02 stress_222
                     -5.7255950755e+02 stress_223
                     -5.8219568841e+02 stress_224
                     -5.9134428424e+02 stress_225
                     -5.9996035176e+02 stress_226
                     -6.0798502664e+02 stress_227
                     -6.1535471671e+02 stress_228
                     -6.2200282589e+02 stress_229
                     -6.2786773564e+02 stress_230
                     -6.3289215016e+02 stress_231
                     -6.3702413831e+02 stress_232
                     -6.4022289084e+02 stress_233
                     -6.4245491102e+02 stress_234
                     -6.4369589571e+02 stress_235
                     -6.3720240849e+02 stress_236
                     -2.7252627880e+02 stress_237
                      2.2655165106e+01 stress_238
                     -1.9744869134e+02 stress_239
                     -4.4746146674e+02 stress_240
                     -1.1644532860e+02 stress_241
                      6.0286481963e+01 stress_242
                     -2.7222730958e+02 stress_243
                     -3.9605010963e+02 stress_244
                     -5.0458672466e+02 stress_245
                     -3.1954798322e+02 stress_246
                      1.5096447371e+01 stress_247
                      2.7653838996e+02 stress_248
                      3.9105267172e+02 stress_249
                      4.3409917940e+02 stress_250
                      4.4652239945e+02 stress_251
                      3.4108722609e+02 stress_252
                      1.9476668232e+01 stress_253
                     -3.1449361058e+02 stress_254
                     -4.8449625647e+02 stress_255
                     -5.4604430431e+02 stress_256
                     -5.5840235997e+02 stress_257
                     -2.8108023200e+02 stress_258
                      9.8245076749e+01 stress_259
                      2.1648215511e+02 stress_260
                      1.8136475176e+00 stress_261
                     -3.6375466784e+02 stress_262
                     -5.2154887493e+02 stress_263
                     -5.4341193315e+02 stress_264
                     -5.0136147785e+02 stress_265
                     -4.0713198559e+02 stress_266
                     -2.6441198090e+02 stress_267
                     -8.6999053704e+01 stress_268
                      9.4272254556e+01 stress_269
                      2.4348700964e+02 stress_270
                      3.4590648538e+02 stress_271
                      4.0997016119e+02 stress_272
                      4.5000062175e+02 stress_273
                      4.7662193636e+02 stress_274
                      4.9601008542e+02 stress_275
                      5.1147153095e+02 stress_276
                      5.2474071353e+02 stress_277
                      5.3672147506e+02 stress_278
                      5.4787875187e+02 stress_279
                      5.5844039621e+02 stress_280
                      5.6850300517e+02 stress_281
                      5.7808918946e+02 stress_282
                      5.8717917460e+02 stress_283
                      5.9573026200e+02 stress_284
                      6.0368646525e+02 stress_285
                      6.1098748827e+02 stress_286
                      6.1757205822e+02 stress_287
                      6.2338050906e+02 stress_288
                      6.2835947694e+02 stress_289
                      6.3246124848e+02 stress_290
                      6.3564528418e+02 stress_291
                      6.3788089164e+02 stress_292
                      6.3914523276e+02 stress_293
                      6.3916390144e+02 stress_294
                      2.6524663187e+02 stress_295
                     -7.1252792051e+01 stress_296
                      5.9386696591e+01 stress_297
                      4.8390226111e+02 stress_298
                      4.9878751784e+02 stress_299
                      4.5526262623e+02 stress_300
                      3.7690146195e+02 stress_301
                      2.6550837104e+02 stress_302
                      1.2742011767e+02 stress_303
                     -2.2871871198e+01 stress_304
                     -1.6372365467e+02 stress_305
                     -2.7716644863e+02 stress_306
                     -3.5833048228e+02 stress_307
                     -4.1294083421e+02 stress_308
                     -4.4953241132e+02 stress_309
                     -4.7500136474e+02 stress_310
                     -4.9387874846e+02 stress_311
                     -5.0890161377e+02 stress_312
                     -5.2167296985e+02 stress_313
                     -5.3312870361e+02 stress_314
                     -5.4381524371e+02 stress_315
                     -5.5405093939e+02 stress_316
                     -5.6401923986e+02 stress_317
                     -5.7382117997e+02 stress_318
                     -5.8350697124e+02 stress_319
                     -5.9309501933e+02 stress_320
                     -6.0258263207e+02 stress_321
                     -6.1195416707e+02 stress_322
                     -6.2118469475e+02 stress_323
                     -6.3024394502e+02 stress_324
                     -6.3909846728e+02 stress_325
                     -6.4771173178e+02 stress_326
                     -6.5604743770e+02 stress_327
                     -6.6406741200e+02 stress_328
                     -6.7173569252e+02 stress_329
                     -6.7901643074e+02 stress_330
                     -6.8587453972e+02 stress_331
                     -6.9227765792e+02 stress_332
                     -6.9819425123e+02 stress_333
                     -7.0359578455e+02 stress_334
                     -7.0845634460e+02 stress_335
                     -7.1275056092e+02 stress_336
                     -7.1645858408e+02 stress_337
                     -7.1956146815e+02 stress_338
                     -7.2204369237e+02 stress_339
                     -7.2389343510e+02 stress_340
                     -7.2510126011e+02 stress_341
                     -7.2566094054e+02 stress_342


Active response data for evaluation 104:
Active set vector = { 1 1 1 1 1 1 1 1 1 1 1 1 1 1 1 1 1 1 1 1 1 1 1 1 1 1 1 1 1 1 1 1 1 1 1 1 1 1 1 1 1 1 1 1 1 1 1 1 1 1 1 1 1 1 1 1 1 1 1 1 1 1 1 1 1 1 1 1 1 1 1 1 1 1 1 1 1 1 1 1 1 1 1 1 1 1 1 1 1 1 1 1 1 1 1 1 1 1 1 1 1 1 1 1 1 1 1 1 1 1 1 1 1 1 1 1 1 1 1 1 1 1 1 1 1 1 1 1 1 1 1 1 1 1 1 1 1 1 1 1 1 1 1 1 1 1 1 1 1 1 1 1 1 1 1 1 1 1 1 1 1 1 1 1 1 1 1 1 1 1 1 1 1 1 1 1 1 1 1 1 1 1 1 1 1 1 1 1 1 1 1 1 1 1 1 1 1 1 1 1 1 1 1 1 1 1 1 1 1 1 1 1 1 1 1 1 1 1 1 1 1 1 1 1 1 1 1 1 1 1 1 1 1 1 1 1 1 1 1 1 1 1 1 1 1 1 1 1 1 1 1 1 1 1 1 1 1 1 1 1 1 1 1 1 1 1 1 1 1 1 1 1 1 1 1 1 1 1 1 1 1 1 1 1 1 1 1 1 1 1 1 1 1 1 1 1 1 1 1 1 1 1 1 1 1 1 1 1 1 1 1 1 1 1 1 1 1 1 1 1 1 1 1 1 1 1 1 1 1 1 1 1 1 1 1 1 1 1 1 1 1 1 }
                      2.4247206486e+00 stress_1
                     -2.5199677922e+02 stress_2
                     -4.9434370576e+02 stress_3
                     -4.9586371148e+02 stress_4
                     -1.6656671759e+02 stress_5
                      2.5357762254e+02 stress_6
                      4.0143066081e+02 stress_7
                      4.0229780245e+02 stress_8
                      1.5236382107e+02 stress_9
                     -2.3166616152e+02 stress_10
                     -4.3994132385e+02 stress_11
                     -4.8925147349e+02 stress_12
                     -5.0319747650e+02 stress_13
                     -5.0419312629e+02 stress_14
                     -1.7309702606e+02 stress_15
                     -3.4124848115e+02 stress_16
                     -5.0989408940e+02 stress_17
                     -3.1488131430e+02 stress_18
                      2.1823517825e+01 stress_19
                      2.9881522475e+02 stress_20
                      4.1868505137e+02 stress_21
                      4.6359721329e+02 stress_22
                      4.8215641086e+02 stress_23
                      4.8828026005e+02 stress_24
                      1.5724244781e+02 stress_25
                      2.8549804823e+02 stress_26
                      4.2953143952e+02 stress_27
                      4.6533909088e+02 stress_28
                      3.4233192896e+02 stress_29
                      1.2848751439e+02 stress_30
                     -1.2535875950e+02 stress_31
                     -3.2088679419e+02 stress_32
                     -4.2460795281e+02 stress_33
                     -4.7437701012e+02 stress_34
                     -5.0132818370e+02 stress_35
                     -5.1881954938e+02 stress_36
                     -5.3182676295e+02 stress_37
                     -5.4215009078e+02 stress_38
                     -5.5039563391e+02 stress_39
                     -5.5670789779e+02 stress_40
                     -5.6107236475e+02 stress_41
                     -5.6342962235e+02 stress_42
                     -5.4794553965e+02 stress_43
                     -1.6050908927e+02 stress_44
                      1.0667961715e+02 stress_45
                     -9.9756085342e+01 stress_46
                     -4.5331065685e+02 stress_47
                     -1.5658680224e+02 stress_48
                     -2.5963789481e+02 stress_49
                     -4.1961278280e+02 stress_50
                     -5.6873893065e+02 stress_51
                     -3.9857935972e+02 stress_52
                     -6.0713584728e+01 stress_53
                      2.2679485951e+02 stress_54
                      3.5843762218e+02 stress_55
                      4.0794075631e+02 stress_56
                      4.2297960108e+02 stress_57
                      3.3651420282e+02 stress_58
                      2.1384818133e+01 stress_59
                     -3.1620822451e+02 stress_60
                     -4.7158063017e+02 stress_61
                     -5.2146854561e+02 stress_62
                     -5.3247977354e+02 stress_63
                     -2.6372477271e+02 stress_64
                      1.1371762715e+02 stress_65
                      2.0070991954e+02 stress_66
                     -7.1906724527e+01 stress_67
                     -4.4071486156e+02 stress_68
                     -5.3488930361e+02 stress_69
                     -5.3596923172e+02 stress_70
                     -4.4046494474e+02 stress_71
                     -2.6804227122e+02 stress_72
                     -4.4406892425e+01 stress_73
                      1.6724982608e+02 stress_74
                      3.1159258700e+02 stress_75
                      3.9213826141e+02 stress_76
                      4.3632149362e+02 stress_77
                      4.6313225998e+02 stress_78
                      4.8175145907e+02 stress_79
                      4.9622090733e+02 stress_80
                      5.0828269377e+02 stress_81
                      5.1866309338e+02 stress_82
                      5.2762951267e+02 stress_83
                      5.3524143354e+02 stress_84
                      5.4146414360e+02 stress_85
                      5.4623161165e+02 stress_86
                      5.4947586041e+02 stress_87
                      5.5114097418e+02 stress_88
                      4.7733063581e+02 stress_89
                      4.3341936156e+01 stress_90
                     -1.5986361272e+02 stress_91
                      1.3068433936e+02 stress_92
                      4.7801905931e+02 stress_93
                      4.8435460774e+02 stress_94
                      4.2408264401e+02 stress_95
                      3.1578835758e+02 stress_96
                      1.6495809783e+02 stress_97
                     -1.0689990736e+01 stress_98
                     -1.7789668222e+02 stress_99
                     -3.0655475047e+02 stress_100
                     -3.9103968716e+02 stress_101
                     -4.4314774918e+02 stress_102
                     -4.7606324160e+02 stress_103
                     -4.9852494546e+02 stress_104
                     -5.1540054963e+02 stress_105
                     -5.2926158124e+02 stress_106
                     -5.4144893991e+02 stress_107
                     -5.5265962423e+02 stress_108
                     -5.6324951347e+02 stress_109
                     -5.7338971398e+02 stress_110
                     -5.8314796578e+02 stress_111
                     -5.9253245738e+02 stress_112
                     -6.0151879862e+02 stress_113
                     -6.1006347497e+02 stress_114
                     -6.1811232540e+02 stress_115
                     -6.2560698270e+02 stress_116
                     -6.3248751923e+02 stress_117
                     -6.3869742245e+02 stress_118
                     -6.4418311686e+02 stress_119
                     -6.4889484772e+02 stress_120
                     -6.5279131840e+02 stress_121
                     -6.5583652567e+02 stress_122
                     -6.5800205307e+02 stress_123
                     -6.5926868518e+02 stress_124
                     -6.5960892825e+02 stress_125
                     -5.5691852792e+02 stress_126
                     -3.0576228277e+02 stress_127
                      1.1766927978e+00 stress_128
                      2.1985645554e+02 stress_129
                      3.2876664848e+02 stress_130
                      3.7955451735e+02 stress_131
                      4.0436261916e+02 stress_132
                      4.1563466374e+02 stress_133
                      4.1626346620e+02 stress_134
                      1.0930303708e+01 stress_135
                     -1.0976640066e+01 stress_136
                      1.7433547667e+02 stress_137
                      1.3815501472e+02 stress_138
                     -3.4393314148e+01 stress_139
                     -3.2159092126e+02 stress_140
                     -5.3041927547e+02 stress_141
                     -6.1401839154e+02 stress_142
                     -6.4648975083e+02 stress_143
                     -6.6128197326e+02 stress_144
                     -6.6739598288e+02 stress_145
                     -6.4697239200e+02 stress_146
                     -4.0867278750e+02 stress_147
                     -5.7615519944e+01 stress_148
                      1.9449719009e+02 stress_149
                      3.0676872136e+02 stress_150
                      3.4830487919e+02 stress_151
                      3.5343399171e+02 stress_152
                      1.3674538824e+02 stress_153
                     -2.3188922364e+02 stress_154
                     -4.9367307041e+02 stress_155
                     -5.9043300504e+02 stress_156
                     -6.1745400441e+02 stress_157
                     -4.9459076726e+02 stress_158
                     -8.9195698898e+01 stress_159
                      9.4144967595e+01 stress_160
                     -7.2857952364e+01 stress_161
                     -4.6842187033e+02 stress_162
                     -6.2393162413e+02 stress_163
                     -6.3490424826e+02 stress_164
                     -5.9309441443e+02 stress_165
                     -5.1071346696e+02 stress_166
                     -3.8980009514e+02 stress_167
                     -2.3745541036e+02 stress_168
                     -7.0979036708e+01 stress_169
                      8.3889847215e+01 stress_170
                      2.0637233010e+02 stress_171
                      2.9205928192e+02 stress_172
                      3.4863436611e+02 stress_173
                      3.8611159281e+02 stress_174
                      4.1212889945e+02 stress_175
                      4.3149253742e+02 stress_176
                      4.4701466378e+02 stress_177
                      4.6030395585e+02 stress_178
                      4.7227512208e+02 stress_179
                      4.8344865353e+02 stress_180
                      4.9411802761e+02 stress_181
                      5.0444217106e+02 stress_182
                      5.1450059065e+02 stress_183
                      5.2432322771e+02 stress_184
                      5.3391007953e+02 stress_185
                      5.4324178667e+02 stress_186
                      5.5228716374e+02 stress_187
                      5.6100813787e+02 stress_188
                      5.6936207409e+02 stress_189
                      5.7730492439e+02 stress_190
                      5.8479239311e+02 stress_191
                      5.9178004015e+02 stress_192
                      5.9822699937e+02 stress_193
                      6.0409361549e+02 stress_194
                      6.0934267738e+02 stress_195
                      6.1394223411e+02 stress_196
                      6.1786218871e+02 stress_197
                      6.2107832711e+02 stress_198
                      6.2357011070e+02 stress_199
                      6.2532075494e+02 stress_200
                      6.2631962226e+02 stress_201
                      6.2636854852e+02 stress_202
                      2.6399904676e+02 stress_203
                     -8.0270740117e+01 stress_204
                      2.8778231712e+01 stress_205
                      4.6816587517e+02 stress_206
                      4.8732986152e+02 stress_207
                      4.2243016599e+02 stress_208
                      3.0519293196e+02 stress_209
                      1.4310632458e+02 stress_210
                     -4.0360857314e+01 stress_211
                     -2.0614418602e+02 stress_212
                     -3.2644446498e+02 stress_213
                     -4.0223496845e+02 stress_214
                     -4.4838499792e+02 stress_215
                     -4.7789799844e+02 stress_216
                     -4.9859429869e+02 stress_217
                     -5.1463452773e+02 stress_218
                     -5.2815595676e+02 stress_219
                     -5.4024900618e+02 stress_220
                     -5.5146514042e+02 stress_221
                     -5.6207129868e+02 stress_222
                     -5.7218105688e+02 stress_223
                     -5.8182264259e+02 stress_224
                     -5.9097729816e+02 stress_225
                     -5.9959968915e+02 stress_226
                     -6.0763066403e+02 stress_227
                     -6.1500641317e+02 stress_228
                     -6.2166016883e+02 stress_229
                     -6.2753017751e+02 stress_230
                     -6.3255903476e+02 stress_231
                     -6.3669472151e+02 stress_232
                     -6.3989636228e+02 stress_233
                     -6.4213040969e+02 stress_234
                     -6.4337252549e+02 stress_235
                     -6.3687254480e+02 stress_236
                     -2.7186690853e+02 stress_237
                      2.3353793399e+01 stress_238
                     -1.9696366692e+02 stress_239
                     -4.4713954813e+02 stress_240
                     -1.1583405134e+02 stress_241
                      6.0920558950e+01 stress_242
                     -2.7189627367e+02 stress_243
                     -3.9578204775e+02 stress_244
                     -5.0432887277e+02 stress_245
                     -3.1910920304e+02 stress_246
                      1.5701342378e+01 stress_247
                      2.7683601012e+02 stress_248
                      3.9102053824e+02 stress_249
                      4.3391945239e+02 stress_250
                      4.4630053568e+02 stress_251
                      3.4076027255e+02 stress_252
                      1.8885514740e+01 stress_253
                     -3.1500660890e+02 stress_254
                     -4.8469259549e+02 stress_255
                     -5.4607421352e+02 stress_256
                     -5.5839689192e+02 stress_257
                     -2.8081032789e+02 stress_258
                      9.8617884061e+01 stress_259
                      2.1674034402e+02 stress_260
                      1.8634328929e+00 stress_261
                     -3.6384460050e+02 stress_262
                     -5.2148802912e+02 stress_263
                     -5.4331711854e+02 stress_264
                     -5.0122462828e+02 stress_265
                     -4.0690198982e+02 stress_266
                     -2.6405289194e+02 stress_267
                     -8.6535163056e+01 stress_268
                      9.4713475175e+01 stress_269
                      2.4375251396e+02 stress_270
                      3.4594724672e+02 stress_271
                      4.0983026266e+02 stress_272
                      4.4974299997e+02 stress_273
                      4.7629445738e+02 stress_274
                      4.9564318851e+02 stress_275
                      5.1108358677e+02 stress_276
                      5.2434275828e+02 stress_277
                      5.3632022399e+02 stress_278
                      5.4747835032e+02 stress_279
                      5.5804341893e+02 stress_280
                      5.6811103123e+02 stress_281
                      5.7770314001e+02 stress_282
                      5.8679951650e+02 stress_283
                      5.9535713520e+02 stress_284
                      6.0331976417e+02 stress_285
                      6.1062691783e+02 stress_286
                      6.1721717277e+02 stress_287
                      6.2303074080e+02 stress_288
                      6.2801416032e+02 stress_289
                      6.3211963886e+02 stress_290
                      6.3530657437e+02 stress_291
                      6.3754422857e+02 stress_292
                      6.3880973091e+02 stress_293
                      6.3882841676e+02 stress_294
                      2.6457353423e+02 stress_295
                     -7.1931879466e+01 stress_296
                      5.8838226707e+01 stress_297
                      4.8359127960e+02 stress_298
                      4.9846433223e+02 stress_299
                      4.5489593812e+02 stress_300
                      3.7645732206e+02 stress_301
                      2.6496167199e+02 stress_302
                      1.2677803622e+02 stress_303
                     -2.3537909384e+01 stress_304
                     -1.6428773980e+02 stress_305
                     -2.7752681297e+02 stress_306
                     -3.5846728795e+02 stress_307
                     -4.1289378934e+02 stress_308
                     -4.4935534814e+02 stress_309
                     -4.7473909505e+02 stress_310
                     -4.9356283260e+02 stress_311
                     -5.0855292517e+02 stress_312
                     -5.2130508391e+02 stress_313
                     -5.3275048491e+02 stress_314
                     -5.4343256298e+02 stress_315
                     -5.5366775360e+02 stress_316
                     -5.6363826267e+02 stress_317
                     -5.7344429943e+02 stress_318
                     -5.8313551282e+02 stress_319
                     -5.9272991427e+02 stress_320
                     -6.0222452649e+02 stress_321
                     -6.1160349467e+02 stress_322
                     -6.2084172527e+02 stress_323
                     -6.2990881809e+02 stress_324
                     -6.3877121645e+02 stress_325
                     -6.4739230064e+02 stress_326
                     -6.5573569363e+02 stress_327
                     -6.6376315423e+02 stress_328
                     -6.7143866139e+02 stress_329
                     -6.7872631320e+02 stress_330
                     -6.8559097404e+02 stress_331
                     -6.9200023936e+02 stress_332
                     -6.9792253524e+02 stress_333
                     -7.0332929143e+02 stress_334
                     -7.0819456354e+02 stress_335
                     -7.1249295170e+02 stress_336
                     -7.1620458333e+02 stress_337
                     -7.1931049105e+02 stress_338
                     -7.2179513662e+02 stress_339
                     -7.2364668514e+02 stress_340
                     -7.2485568988e+02 stress_341
                     -7.2541591714e+02 stress_342


Active response data for evaluation 105:
Active set vector = { 1 1 1 1 1 1 1 1 1 1 1 1 1 1 1 1 1 1 1 1 1 1 1 1 1 1 1 1 1 1 1 1 1 1 1 1 1 1 1 1 1 1 1 1 1 1 1 1 1 1 1 1 1 1 1 1 1 1 1 1 1 1 1 1 1 1 1 1 1 1 1 1 1 1 1 1 1 1 1 1 1 1 1 1 1 1 1 1 1 1 1 1 1 1 1 1 1 1 1 1 1 1 1 1 1 1 1 1 1 1 1 1 1 1 1 1 1 1 1 1 1 1 1 1 1 1 1 1 1 1 1 1 1 1 1 1 1 1 1 1 1 1 1 1 1 1 1 1 1 1 1 1 1 1 1 1 1 1 1 1 1 1 1 1 1 1 1 1 1 1 1 1 1 1 1 1 1 1 1 1 1 1 1 1 1 1 1 1 1 1 1 1 1 1 1 1 1 1 1 1 1 1 1 1 1 1 1 1 1 1 1 1 1 1 1 1 1 1 1 1 1 1 1 1 1 1 1 1 1 1 1 1 1 1 1 1 1 1 1 1 1 1 1 1 1 1 1 1 1 1 1 1 1 1 1 1 1 1 1 1 1 1 1 1 1 1 1 1 1 1 1 1 1 1 1 1 1 1 1 1 1 1 1 1 1 1 1 1 1 1 1 1 1 1 1 1 1 1 1 1 1 1 1 1 1 1 1 1 1 1 1 1 1 1 1 1 1 1 1 1 1 1 1 1 1 1 1 1 1 1 1 1 1 1 1 1 1 1 1 1 1 1 }
                      2.4222983503e+00 stress_1
                     -2.5174504397e+02 stress_2
                     -4.9433328538e+02 stress_3
                     -4.9585440937e+02 stress_4
                     -1.6687795662e+02 stress_5
                      2.5317985873e+02 stress_6
                      4.0125021975e+02 stress_7
                      4.0211901313e+02 stress_8
                      1.5243126523e+02 stress_9
                     -2.3143198072e+02 stress_10
                     -4.3991114901e+02 stress_11
                     -4.8925504054e+02 stress_12
                     -5.0319919149e+02 stress_13
                     -5.0419450608e+02 stress_14
                     -1.7341367413e+02 stress_15
                     -3.4139714590e+02 stress_16
                     -5.0988075467e+02 stress_17
                     -3.1506083421e+02 stress_18
                      2.1398555787e+01 stress_19
                      2.9847166535e+02 stress_20
                      4.1850833440e+02 stress_21
                      4.6349518772e+02 stress_22
                      4.8208196075e+02 stress_23
                      4.8821382715e+02 stress_24
                      1.5749064115e+02 stress_25
                      2.8561811381e+02 stress_26
                      4.2950637162e+02 stress_27
                      4.6527950411e+02 stress_28
                      3.4239481400e+02 stress_29
                      1.2874606978e+02 stress_30
                     -1.2497808032e+02 stress_31
                     -3.2058785288e+02 stress_32
                     -4.2443609101e+02 stress_33
                     -4.7427857196e+02 stress_34
                     -5.0126431754e+02 stress_35
                     -5.1877204418e+02 stress_36
                     -5.3178746952e+02 stress_37
                     -5.4211518824e+02 stress_38
                     -5.5036319965e+02 stress_39
                     -5.5667688398e+02 stress_40
                     -5.6104214696e+02 stress_41
                     -5.6339978152e+02 stress_42
                     -5.4793116722e+02 stress_43
                     -1.6084968490e+02 stress_44
                      1.0624476857e+02 stress_45
                     -9.9984850695e+01 stress_46
                     -4.5330700305e+02 stress_47
                     -1.5686520144e+02 stress_48
                     -2.5981335009e+02 stress_49
                     -4.1963522343e+02 stress_50
                     -5.6872376964e+02 stress_51
                     -3.9873281915e+02 stress_52
                     -6.1131053898e+01 stress_53
                      2.2639597488e+02 stress_54
                      3.5817905141e+02 stress_55
                      4.0775603074e+02 stress_56
                      4.2281818719e+02 stress_57
                      3.3643908816e+02 stress_58
                      2.1595607531e+01 stress_59
                     -3.1591677083e+02 stress_60
                     -4.7141028010e+02 stress_61
                     -5.2135620081e+02 stress_62
                     -5.3238020610e+02 stress_63
                     -2.6388642128e+02 stress_64
                      1.1335024283e+02 stress_65
                      2.0035881248e+02 stress_66
                     -7.1991720881e+01 stress_67
                     -4.4065344655e+02 stress_68
                     -5.3486343551e+02 stress_69
                     -5.3594367895e+02 stress_70
                     -4.4053462300e+02 stress_71
                     -2.6827659802e+02 stress_72
                     -4.4800900417e+01 stress_73
                      1.6683547633e+02 stress_74
                      3.1128296126e+02 stress_75
                      3.9193501061e+02 stress_76
                      4.3618483760e+02 stress_77
                      4.6303240533e+02 stress_78
                      4.8167184558e+02 stress_79
                      4.9615280980e+02 stress_80
                      5.0822143403e+02 stress_81
                      5.1860606135e+02 stress_82
                      5.2757518332e+02 stress_83
                      5.3518887235e+02 stress_84
                      5.4141274799e+02 stress_85
                      5.4618097090e+02 stress_86
                      5.4942567508e+02 stress_87
                      5.5109100619e+02 stress_88
                      4.7735434275e+02 stress_89
                      4.3729628581e+01 stress_90
                     -1.5943896180e+02 stress_91
                      1.3082132883e+02 stress_92
                      4.7801828219e+02 stress_93
                      4.8435589675e+02 stress_94
                      4.2414410826e+02 stress_95
                      3.1595648652e+02 stress_96
                      1.6526243859e+02 stress_97
                     -1.0273158683e+01 stress_98
                     -1.7746058970e+02 stress_99
                     -3.0619184445e+02 stress_100
                     -3.9077516083e+02 stress_101
                     -4.4296160218e+02 stress_102
                     -4.7592876684e+02 stress_103
                     -4.9842248990e+02 stress_104
                     -5.1531779749e+02 stress_105
                     -5.2919115347e+02 stress_106
                     -5.4138641596e+02 stress_107
                     -5.5260230919e+02 stress_108
                     -5.6319572438e+02 stress_109
                     -5.7333837226e+02 stress_110
                     -5.8309836212e+02 stress_111
                     -5.9248411361e+02 stress_112
                     -6.0147138491e+02 stress_113
                     -6.1001675878e+02 stress_114
                     -6.1806613930e+02 stress_115
                     -6.2556120374e+02 stress_116
                     -6.3244205531e+02 stress_117
                     -6.3865220323e+02 stress_118
                     -6.4413808751e+02 stress_119
                     -6.4884996447e+02 stress_120
                     -6.5274654552e+02 stress_121
                     -6.5579183308e+02 stress_122
                     -6.5795741463e+02 stress_123
                     -6.5922407734e+02 stress_124
                     -6.5956432851e+02 stress_125
                     -5.5697632384e+02 stress_126
                     -3.0605415984e+02 stress_127
                      7.2385701655e-01 stress_128
                      2.1947467573e+02 stress_129
                      3.2850180530e+02 stress_130
                      3.7935963932e+02 stress_131
                      4.0420211646e+02 stress_132
                      4.1548890294e+02 stress_133
                      4.1611850097e+02 stress_134
                      1.1165243000e+01 stress_135
                     -1.0725234289e+01 stress_136
                      1.7440722037e+02 stress_137
                      1.3826289599e+02 stress_138
                     -3.4118095875e+01 stress_139
                     -3.2115302597e+02 stress_140
                     -5.3011220206e+02 stress_141
                     -6.1384679629e+02 stress_142
                     -6.4637329928e+02 stress_143
                     -6.6118614469e+02 stress_144
                     -6.6730717356e+02 stress_145
                     -6.4690398535e+02 stress_146
                     -4.0883730628e+02 stress_147
                     -5.8021645899e+01 stress_148
                      1.9412000200e+02 stress_149
                      3.0649053191e+02 stress_150
                      3.4807680376e+02 stress_151
                      3.5321247025e+02 stress_152
                      1.3673808905e+02 stress_153
                     -2.3162780039e+02 stress_154
                     -4.9344557815e+02 stress_155
                     -5.9028574910e+02 stress_156
                     -6.1733286571e+02 stress_157
                     -4.9459199708e+02 stress_158
                     -8.9529156770e+01 stress_159
                      9.3769053793e+01 stress_160
                     -7.3067561956e+01 stress_161
                     -4.6836240605e+02 stress_162
                     -6.2389606547e+02 stress_163
                     -6.3487020184e+02 stress_164
                     -5.9310212815e+02 stress_165
                     -5.1080307700e+02 stress_166
                     -3.9000608512e+02 stress_167
                     -2.3779063426e+02 stress_168
                     -7.1409910852e+01 stress_169
                      8.3441680867e+01 stress_170
                      2.0597948281e+02 stress_171
                      2.9174827345e+02 stress_172
                      3.4839611519e+02 stress_173
                      3.8592649278e+02 stress_174
                      4.1197967159e+02 stress_175
                      4.3136693493e+02 stress_176
                      4.4690464522e+02 stress_177
                      4.6020435776e+02 stress_178
                      4.7218262198e+02 stress_179
                      4.8336108657e+02 stress_180
                      4.9403395873e+02 stress_181
                      5.0436063050e+02 stress_182
                      5.1442091052e+02 stress_183
                      5.2424493931e+02 stress_184
                      5.3383284811e+02 stress_185
                      5.4316536906e+02 stress_186
                      5.5221138048e+02 stress_187
                      5.6093285451e+02 stress_188
                      5.6928718845e+02 stress_189
                      5.7723035776e+02 stress_190
                      5.8471808403e+02 stress_191
                      5.9170593995e+02 stress_192
                      5.9815306909e+02 stress_193
                      6.0401982343e+02 stress_194
                      6.0926899738e+02 stress_195
                      6.1386864427e+02 stress_196
                      6.1778867035e+02 stress_197
                      6.2100486400e+02 stress_198
                      6.2349668845e+02 stress_199
                      6.2524736040e+02 stress_200
                      6.2624624319e+02 stress_201
                      6.2629517020e+02 stress_202
                      2.6427074151e+02 stress_203
                     -7.9826741453e+01 stress_204
                      2.9113291754e+01 stress_205
                      4.6814199635e+02 stress_206
                      4.8730395075e+02 stress_207
                      4.2246904114e+02 stress_208
                      3.0534692458e+02 stress_209
                      1.4340376503e+02 stress_210
                     -3.9955655851e+01 stress_211
                     -2.0573369837e+02 stress_212
                     -3.2610972994e+02 stress_213
                     -4.0198733200e+02 stress_214
                     -4.4820204794e+02 stress_215
                     -4.7775638725e+02 stress_216
                     -4.9847803676e+02 stress_217
                     -5.1453387109e+02 stress_218
                     -5.2806511707e+02 stress_219
                     -5.4016451427e+02 stress_220
                     -5.5138487113e+02 stress_221
                     -5.6199391509e+02 stress_222
                     -5.7210569471e+02 stress_223
                     -5.8174872803e+02 stress_224
                     -5.9090444058e+02 stress_225
                     -5.9952761615e+02 stress_226
                     -6.0755918125e+02 stress_227
                     -6.1493537889e+02 stress_228
                     -6.2158947729e+02 stress_229
                     -6.2745974805e+02 stress_230
                     -6.3248880431e+02 stress_231
                     -6.3662463932e+02 stress_232
                     -6.3982638631e+02 stress_233
                     -6.4206050377e+02 stress_234
                     -6.4330265715e+02 stress_235
                     -6.3680916994e+02 stress_236
                     -2.7215044808e+02 stress_237
                      2.2904492507e+01 stress_238
                     -1.9719618991e+02 stress_239
                     -4.4716712458e+02 stress_240
                     -1.1617161741e+02 stress_241
                      6.0484024150e+01 stress_242
                     -2.7201535962e+02 stress_243
                     -3.9580863130e+02 stress_244
                     -5.0429829860e+02 stress_245
                     -3.1926159276e+02 stress_246
                      1.5299460316e+01 stress_247
                      2.7646131140e+02 stress_248
                      3.9076002039e+02 stress_249
                      4.3371677410e+02 stress_250
                      4.4611508408e+02 stress_251
                      3.4068008177e+02 stress_252
                      1.9097926867e+01 stress_253
                     -3.1466908581e+02 stress_254
                     -4.8443409222e+02 stress_255
                     -5.4587313477e+02 stress_256
                     -5.5820879953e+02 stress_257
                     -2.8089304308e+02 stress_258
                      9.8295889001e+01 stress_259
                      2.1641858027e+02 stress_260
                      1.7531674595e+00 stress_261
                     -3.6370407814e+02 stress_262
                     -5.2134863438e+02 stress_263
                     -5.4318516697e+02 stress_264
                     -5.0113471934e+02 stress_265
                     -4.0690576314e+02 stress_266
                     -2.6419249972e+02 stress_267
                     -8.6815470642e+01 stress_268
                      9.4355182048e+01 stress_269
                      2.4341024416e+02 stress_270
                      3.4567049359e+02 stress_271
                      4.0961753050e+02 stress_272
                      4.4957590181e+02 stress_273
                      4.7615657039e+02 stress_274
                      4.9552351819e+02 stress_275
                      5.1097536461e+02 stress_276
                      5.2424188557e+02 stress_277
                      5.3622419235e+02 stress_278
                      5.4738559208e+02 stress_279
                      5.5795292986e+02 stress_280
                      5.6802215154e+02 stress_281
                      5.7761542535e+02 stress_282
                      5.8671266044e+02 stress_283
                      5.9527092167e+02 stress_284
                      6.0323403740e+02 stress_285
                      6.1054156321e+02 stress_286
                      6.1713210412e+02 stress_287
                      6.2294589184e+02 stress_288
                      6.2792947891e+02 stress_289
                      6.3203508287e+02 stress_290
                      6.3522210866e+02 stress_291
                      6.3745982284e+02 stress_292
                      6.3872535793e+02 stress_293
                      6.3874404426e+02 stress_294
                      2.6484474220e+02 stress_295
                     -7.1491386104e+01 stress_296
                      5.9148091662e+01 stress_297
                      4.8357077605e+02 stress_298
                      4.9844260557e+02 stress_299
                      4.5491772505e+02 stress_300
                      3.7655701113e+02 stress_301
                      2.6516829448e+02 stress_302
                      1.2710118090e+02 stress_303
                     -2.3128318157e+01 stress_304
                     -1.6386021472e+02 stress_305
                     -2.7714701588e+02 stress_306
                     -3.5816236871e+02 stress_307
                     -4.1265814661e+02 stress_308
                     -4.4917189767e+02 stress_309
                     -4.7459167356e+02 stress_310
                     -4.9343952516e+02 stress_311
                     -5.0844570612e+02 stress_312
                     -5.2120870573e+02 stress_313
                     -5.3266152933e+02 stress_314
                     -5.4334878290e+02 stress_315
                     -5.5358764979e+02 stress_316
                     -5.6356081785e+02 stress_317
                     -5.7336881102e+02 stress_318
                     -5.8306148706e+02 stress_319
                     -5.9265699842e+02 stress_320
                     -6.0215246445e+02 stress_321
                     -6.1153209778e+02 stress_322
                     -6.2077085255e+02 stress_323
                     -6.2983836280e+02 stress_324
                     -6.3870109680e+02 stress_325
                     -6.4732245319e+02 stress_326
                     -6.5566606862e+02 stress_327
                     -6.6369371220e+02 stress_328
                     -6.7136937078e+02 stress_329
                     -6.7865714844e+02 stress_330
                     -6.8552191423e+02 stress_331
                     -6.9193126728e+02 stress_332
                     -6.9785363649e+02 stress_333
                     -7.0326045389e+02 stress_334
                     -7.0812577688e+02 stress_335
                     -7.1242420695e+02 stress_336
                     -7.1613587268e+02 stress_337
                     -7.1924180753e+02 stress_338
                     -7.2172647395e+02 stress_339
                     -7.2357803752e+02 stress_340
                     -7.2478705188e+02 stress_341
                     -7.2534728354e+02 stress_342


Active response data for evaluation 106:
Active set vector = { 1 1 1 1 1 1 1 1 1 1 1 1 1 1 1 1 1 1 1 1 1 1 1 1 1 1 1 1 1 1 1 1 1 1 1 1 1 1 1 1 1 1 1 1 1 1 1 1 1 1 1 1 1 1 1 1 1 1 1 1 1 1 1 1 1 1 1 1 1 1 1 1 1 1 1 1 1 1 1 1 1 1 1 1 1 1 1 1 1 1 1 1 1 1 1 1 1 1 1 1 1 1 1 1 1 1 1 1 1 1 1 1 1 1 1 1 1 1 1 1 1 1 1 1 1 1 1 1 1 1 1 1 1 1 1 1 1 1 1 1 1 1 1 1 1 1 1 1 1 1 1 1 1 1 1 1 1 1 1 1 1 1 1 1 1 1 1 1 1 1 1 1 1 1 1 1 1 1 1 1 1 1 1 1 1 1 1 1 1 1 1 1 1 1 1 1 1 1 1 1 1 1 1 1 1 1 1 1 1 1 1 1 1 1 1 1 1 1 1 1 1 1 1 1 1 1 1 1 1 1 1 1 1 1 1 1 1 1 1 1 1 1 1 1 1 1 1 1 1 1 1 1 1 1 1 1 1 1 1 1 1 1 1 1 1 1 1 1 1 1 1 1 1 1 1 1 1 1 1 1 1 1 1 1 1 1 1 1 1 1 1 1 1 1 1 1 1 1 1 1 1 1 1 1 1 1 1 1 1 1 1 1 1 1 1 1 1 1 1 1 1 1 1 1 1 1 1 1 1 1 1 1 1 1 1 1 1 1 1 1 1 1 }
                      2.4222983503e+00 stress_1
                     -2.5174504180e+02 stress_2
                     -4.9432890672e+02 stress_3
                     -4.9584873106e+02 stress_4
                     -1.6689293303e+02 stress_5
                      2.5272791643e+02 stress_6
                      4.0070317998e+02 stress_7
                      4.0157292369e+02 stress_8
                      1.5189528950e+02 stress_9
                     -2.3149923817e+02 stress_10
                     -4.3955522863e+02 stress_11
                     -4.8902778517e+02 stress_12
                     -5.0303978945e+02 stress_13
                     -5.0403987304e+02 stress_14
                     -1.7335882300e+02 stress_15
                     -3.4134229240e+02 stress_16
                     -5.0983253368e+02 stress_17
                     -3.1502887844e+02 stress_18
                      2.1021346671e+01 stress_19
                      2.9747065609e+02 stress_20
                      4.1764472279e+02 stress_21
                      4.6288194757e+02 stress_22
                      4.8160531976e+02 stress_23
                      4.8778349675e+02 stress_24
                      1.5718367419e+02 stress_25
                      2.8531114498e+02 stress_26
                      4.2918846753e+02 stress_27
                      4.6495196348e+02 stress_28
                      3.4207183981e+02 stress_29
                      1.2855415538e+02 stress_30
                     -1.2460088007e+02 stress_31
                     -3.1968829251e+02 stress_32
                     -4.2358255249e+02 stress_33
                     -4.7365803646e+02 stress_34
                     -5.0082956579e+02 stress_35
                     -5.1845407445e+02 stress_36
                     -5.3153879453e+02 stress_37
                     -5.4190709703e+02 stress_38
                     -5.5017872935e+02 stress_39
                     -5.5650593128e+02 stress_40
                     -5.6087855694e+02 stress_41
                     -5.6323957058e+02 stress_42
                     -5.4777096157e+02 stress_43
                     -1.6095283150e+02 stress_44
                      1.0541952808e+02 stress_45
                     -1.0080946939e+02 stress_46
                     -4.5362919021e+02 stress_47
                     -1.5731209874e+02 stress_48
                     -2.6026022865e+02 stress_49
                     -4.2005199082e+02 stress_50
                     -5.6863137335e+02 stress_51
                     -3.9865823482e+02 stress_52
                     -6.1533064799e+01 stress_53
                      2.2520399281e+02 stress_54
                      3.5700795719e+02 stress_55
                      4.0679750002e+02 stress_56
                      4.2195499480e+02 stress_57
                      3.3557680332e+02 stress_58
                      2.0938739257e+01 stress_59
                     -3.1556722320e+02 stress_60
                     -4.7070130947e+02 stress_61
                     -5.2072026285e+02 stress_62
                     -5.3178249709e+02 stress_63
                     -2.6337381888e+02 stress_64
                      1.1292166162e+02 stress_65
                      1.9963208567e+02 stress_66
                     -7.2685858298e+01 stress_67
                     -4.4053602373e+02 stress_68
                     -5.3453863103e+02 stress_69
                     -5.3561905543e+02 stress_70
                     -4.4021291229e+02 stress_71
                     -2.6803487899e+02 stress_72
                     -4.4972124682e+01 stress_73
                      1.6600408679e+02 stress_74
                      3.1018088669e+02 stress_75
                      3.9098182207e+02 stress_76
                      4.3547804684e+02 stress_77
                      4.6252628717e+02 stress_78
                      4.8130373812e+02 stress_79
                      4.9587482565e+02 stress_80
                      5.0800142113e+02 stress_81
                      5.1842317077e+02 stress_82
                      5.2741596894e+02 stress_83
                      5.3504463880e+02 stress_84
                      5.4127784328e+02 stress_85
                      5.4605169913e+02 stress_86
                      5.4929957474e+02 stress_87
                      5.5096634292e+02 stress_88
                      4.7723085668e+02 stress_89
                      4.4107055656e+01 stress_90
                     -1.5844956768e+02 stress_91
                      1.3179896311e+02 stress_92
                      4.7808890878e+02 stress_93
                      4.8439166612e+02 stress_94
                      4.2418056586e+02 stress_95
                      3.1601259808e+02 stress_96
                      1.6544639295e+02 stress_97
                     -9.7277315503e+00 stress_98
                     -1.7642936604e+02 stress_99
                     -3.0490002757e+02 stress_100
                     -3.8954845527e+02 stress_101
                     -4.4195683931e+02 stress_102
                     -4.7515574567e+02 stress_103
                     -4.9783677591e+02 stress_104
                     -5.1486957629e+02 stress_105
                     -5.2883995051e+02 stress_106
                     -5.4110249353e+02 stress_107
                     -5.5236457622e+02 stress_108
                     -5.6298936666e+02 stress_109
                     -5.7315297677e+02 stress_110
                     -5.8292657811e+02 stress_111
                     -5.9232073296e+02 stress_112
                     -6.0131271876e+02 stress_113
                     -6.0986021070e+02 stress_114
                     -6.1790991160e+02 stress_115
                     -6.2540409252e+02 stress_116
                     -6.3228330495e+02 stress_117
                     -6.3849140034e+02 stress_118
                     -6.4397508247e+02 stress_119
                     -6.4868481223e+02 stress_120
                     -6.5257945757e+02 stress_121
                     -6.5562314005e+02 stress_122
                     -6.5778753418e+02 stress_123
                     -6.5905348547e+02 stress_124
                     -6.5939354347e+02 stress_125
                     -5.5680916524e+02 stress_126
                     -3.0606124062e+02 stress_127
                     -5.1320147950e-02 stress_128
                      2.1816385305e+02 stress_129
                      3.2732105811e+02 stress_130
                      3.7844258361e+02 stress_131
                      4.0346895702e+02 stress_132
                      4.1484788738e+02 stress_133
                      4.1548271386e+02 stress_134
                      1.0739968299e+01 stress_135
                     -1.1112862497e+01 stress_136
                      1.7390320326e+02 stress_137
                      1.3775897508e+02 stress_138
                     -3.4578497226e+01 stress_139
                     -3.2102594655e+02 stress_140
                     -5.2933859525e+02 stress_141
                     -6.1314755608e+02 stress_142
                     -6.4583824381e+02 stress_143
                     -6.6074381102e+02 stress_144
                     -6.6690207560e+02 stress_145
                     -6.4649890339e+02 stress_146
                     -4.0850151994e+02 stress_147
                     -5.8422248059e+01 stress_148
                      1.9296120482e+02 stress_149
                      3.0531772535e+02 stress_150
                      3.4703336782e+02 stress_151
                      3.5219180200e+02 stress_152
                      1.3573799551e+02 stress_153
                     -2.3203874884e+02 stress_154
                     -4.9290102675e+02 stress_155
                     -5.8958310269e+02 stress_156
                     -6.1666162379e+02 stress_157
                     -4.9392802346e+02 stress_158
                     -8.9480715090e+01 stress_159
                      9.3174543305e+01 stress_160
                     -7.3659249014e+01 stress_161
                     -4.6843825980e+02 stress_162
                     -6.2352272008e+02 stress_163
                     -6.3449227873e+02 stress_164
                     -5.9272440039e+02 stress_165
                     -5.1043234663e+02 stress_166
                     -3.8969066060e+02 stress_167
                     -2.3767943552e+02 stress_168
                     -7.1724704790e+01 stress_169
                      8.2617987059e+01 stress_170
                      2.0483969259e+02 stress_171
                      2.9058008827e+02 stress_172
                      3.4737916916e+02 stress_173
                      3.8511341645e+02 stress_174
                      4.1135575067e+02 stress_175
                      4.3089618544e+02 stress_176
                      4.4655064629e+02 stress_177
                      4.5993681443e+02 stress_178
                      4.7197812605e+02 stress_179
                      4.8320209192e+02 stress_180
                      4.9390745620e+02 stress_181
                      5.0425698893e+02 stress_182
                      5.1433298535e+02 stress_183
                      5.2416741262e+02 stress_184
                      5.3376175287e+02 stress_185
                      5.4309774607e+02 stress_186
                      5.5214503154e+02 stress_187
                      5.6086616337e+02 stress_188
                      5.6921898969e+02 stress_189
                      5.7715983980e+02 stress_190
                      5.8464471623e+02 stress_191
                      5.9162941775e+02 stress_192
                      5.9807327031e+02 stress_193
                      6.0393677510e+02 stress_194
                      6.0918284896e+02 stress_195
                      6.1377964432e+02 stress_196
                      6.1769714902e+02 stress_197
                      6.2091121578e+02 stress_198
                      6.2340135837e+02 stress_199
                      6.2515083176e+02 stress_200
                      6.2614902461e+02 stress_201
                      6.2619791771e+02 stress_202
                      2.6435683933e+02 stress_203
                     -7.8856753672e+01 stress_204
                      3.0083272034e+01 stress_205
                      4.6869555532e+02 stress_206
                      4.8776841334e+02 stress_207
                      4.2293451775e+02 stress_208
                      3.0583953194e+02 stress_209
                      1.4405863626e+02 stress_210
                     -3.8902840959e+01 stress_211
                     -2.0427154429e+02 stress_212
                     -3.2457219586e+02 stress_213
                     -4.0067216182e+02 stress_214
                     -4.4719050870e+02 stress_215
                     -4.7700872633e+02 stress_216
                     -4.9792745095e+02 stress_217
                     -5.1412214525e+02 stress_218
                     -5.2774909787e+02 stress_219
                     -5.3991390223e+02 stress_220
                     -5.5117872709e+02 stress_221
                     -5.6181777057e+02 stress_222
                     -5.7194949991e+02 stress_223
                     -5.8160546211e+02 stress_224
                     -5.9076918556e+02 stress_225
                     -5.9939693636e+02 stress_226
                     -6.0743070420e+02 stress_227
                     -6.1480750761e+02 stress_228
                     -6.2146118852e+02 stress_229
                     -6.2733044808e+02 stress_230
                     -6.3235822267e+02 stress_231
                     -6.3649274889e+02 stress_232
                     -6.3969333938e+02 stress_233
                     -6.4192658104e+02 stress_234
                     -6.4316822424e+02 stress_235
                     -6.3667473732e+02 stress_236
                     -2.7220540763e+02 stress_237
                      2.2121652117e+01 stress_238
                     -1.9787257340e+02 stress_239
                     -4.4702579752e+02 stress_240
                     -1.1622658136e+02 stress_241
                      5.9997704705e+01 stress_242
                     -2.7218957333e+02 stress_243
                     -3.9556753793e+02 stress_244
                     -5.0367712775e+02 stress_245
                     -3.1867130405e+02 stress_246
                      1.5262829729e+01 stress_247
                      2.7554667105e+02 stress_248
                      3.8980432324e+02 stress_249
                      4.3291360172e+02 stress_250
                      4.4537882260e+02 stress_251
                      3.3994717485e+02 stress_252
                      1.8664076364e+01 stress_253
                     -3.1402105124e+02 stress_254
                     -4.8334787396e+02 stress_255
                     -5.4483033461e+02 stress_256
                     -5.5719790571e+02 stress_257
                     -2.7998142186e+02 stress_258
                      9.8170476902e+01 stress_259
                      2.1582501535e+02 stress_260
                      1.2151530432e+00 stress_261
                     -3.6330674438e+02 stress_262
                     -5.2049649609e+02 stress_263
                     -5.4232434033e+02 stress_264
                     -5.0027411169e+02 stress_265
                     -4.0605571079e+02 stress_266
                     -2.6343578922e+02 stress_267
                     -8.6400265847e+01 stress_268
                      9.4151550123e+01 stress_269
                      2.4265478150e+02 stress_270
                      3.4471792793e+02 stress_271
                      4.0874097597e+02 stress_272
                      4.4886916834e+02 stress_273
                      4.7561559885e+02 stress_274
                      4.9511478587e+02 stress_275
                      5.1066422190e+02 stress_276
                      5.2400032562e+02 stress_277
                      5.3603135359e+02 stress_278
                      5.4722639985e+02 stress_279
                      5.5781659974e+02 stress_280
                      5.6790098510e+02 stress_281
                      5.7750393056e+02 stress_282
                      5.8660693076e+02 stress_283
                      5.9516820262e+02 stress_284
                      6.0313242200e+02 stress_285
                      6.1043977670e+02 stress_286
                      6.1702934865e+02 stress_287
                      6.2284173275e+02 stress_288
                      6.2782375868e+02 stress_289
                      6.3192785487e+02 stress_290
                      6.3511358428e+02 stress_291
                      6.3735032691e+02 stress_292
                      6.3861529121e+02 stress_293
                      6.3863396900e+02 stress_294
                      2.6493204721e+02 stress_295
                     -7.0532244800e+01 stress_296
                      6.0107172161e+01 stress_297
                      4.8402394115e+02 stress_298
                      4.9882254026e+02 stress_299
                      4.5529792407e+02 stress_300
                      3.7694470971e+02 stress_301
                      2.6560782784e+02 stress_302
                      1.2771531419e+02 stress_303
                     -2.2174944990e+01 stress_304
                     -1.6253184525e+02 stress_305
                     -2.7562946081e+02 stress_306
                     -3.5670731824e+02 stress_307
                     -4.1141559898e+02 stress_308
                     -4.4817629766e+02 stress_309
                     -4.7381656750e+02 stress_310
                     -4.9284064790e+02 stress_311
                     -5.0798061383e+02 stress_312
                     -5.2084268905e+02 stress_313
                     -5.3236797128e+02 stress_314
                     -5.4310779525e+02 stress_315
                     -5.5338449596e+02 stress_316
                     -5.6338457803e+02 stress_317
                     -5.7321135776e+02 stress_318
                     -5.8291673548e+02 stress_319
                     -5.9252036602e+02 stress_320
                     -6.0202048311e+02 stress_321
                     -6.1140213589e+02 stress_322
                     -6.2064091386e+02 stress_323
                     -6.2970694041e+02 stress_324
                     -6.3856706550e+02 stress_325
                     -6.4718499005e+02 stress_326
                     -6.5552459272e+02 stress_327
                     -6.6354783995e+02 stress_328
                     -6.7121887997e+02 stress_329
                     -6.7850195132e+02 stress_330
                     -6.8536203619e+02 stress_331
                     -6.9176682864e+02 stress_332
                     -6.9768483893e+02 stress_333
                     -7.0308756781e+02 stress_334
                     -7.0794913098e+02 stress_335
                     -7.1224418086e+02 stress_336
                     -7.1595288684e+02 stress_337
                     -7.1905631756e+02 stress_338
                     -7.2153896368e+02 stress_339
                     -7.2338901226e+02 stress_340
                     -7.2459703315e+02 stress_341
                     -7.2515680334e+02 stress_342


Active response data for evaluation 107:
Active set vector = { 1 1 1 1 1 1 1 1 1 1 1 1 1 1 1 1 1 1 1 1 1 1 1 1 1 1 1 1 1 1 1 1 1 1 1 1 1 1 1 1 1 1 1 1 1 1 1 1 1 1 1 1 1 1 1 1 1 1 1 1 1 1 1 1 1 1 1 1 1 1 1 1 1 1 1 1 1 1 1 1 1 1 1 1 1 1 1 1 1 1 1 1 1 1 1 1 1 1 1 1 1 1 1 1 1 1 1 1 1 1 1 1 1 1 1 1 1 1 1 1 1 1 1 1 1 1 1 1 1 1 1 1 1 1 1 1 1 1 1 1 1 1 1 1 1 1 1 1 1 1 1 1 1 1 1 1 1 1 1 1 1 1 1 1 1 1 1 1 1 1 1 1 1 1 1 1 1 1 1 1 1 1 1 1 1 1 1 1 1 1 1 1 1 1 1 1 1 1 1 1 1 1 1 1 1 1 1 1 1 1 1 1 1 1 1 1 1 1 1 1 1 1 1 1 1 1 1 1 1 1 1 1 1 1 1 1 1 1 1 1 1 1 1 1 1 1 1 1 1 1 1 1 1 1 1 1 1 1 1 1 1 1 1 1 1 1 1 1 1 1 1 1 1 1 1 1 1 1 1 1 1 1 1 1 1 1 1 1 1 1 1 1 1 1 1 1 1 1 1 1 1 1 1 1 1 1 1 1 1 1 1 1 1 1 1 1 1 1 1 1 1 1 1 1 1 1 1 1 1 1 1 1 1 1 1 1 1 1 1 1 1 1 }
                      2.4222983503e+00 stress_1
                     -2.5174504553e+02 stress_2
                     -4.9432924115e+02 stress_3
                     -4.9584881544e+02 stress_4
                     -1.6687069223e+02 stress_5
                      2.5322164714e+02 stress_6
                      4.0129582998e+02 stress_7
                      4.0216449590e+02 stress_8
                      1.5247590750e+02 stress_9
                     -2.3142600614e+02 stress_10
                     -4.3993452460e+02 stress_11
                     -4.8925890587e+02 stress_12
                     -5.0319143473e+02 stress_13
                     -5.0418580415e+02 stress_14
                     -1.7340257787e+02 stress_15
                     -3.4138605060e+02 stress_16
                     -5.0986938502e+02 stress_17
                     -3.1504908377e+02 stress_18
                      2.1420021519e+01 stress_19
                      2.9850701195e+02 stress_20
                      4.1853560617e+02 stress_21
                      4.6350990470e+02 stress_22
                      4.8208813157e+02 stress_23
                      4.8821657772e+02 stress_24
                      1.5749130017e+02 stress_25
                      2.8561877298e+02 stress_26
                      4.2950829455e+02 stress_27
                      4.6528400310e+02 stress_28
                      3.4239923382e+02 stress_29
                      1.2874820522e+02 stress_30
                     -1.2498570814e+02 stress_31
                     -3.2060279620e+02 stress_32
                     -4.2444518639e+02 stress_33
                     -4.7427608653e+02 stress_34
                     -5.0124989509e+02 stress_35
                     -5.1874656335e+02 stress_36
                     -5.3175201236e+02 stress_37
                     -5.4207095868e+02 stress_38
                     -5.5031156925e+02 stress_39
                     -5.5661941662e+02 stress_40
                     -5.6098057752e+02 stress_41
                     -5.6333597798e+02 stress_42
                     -5.4786736366e+02 stress_43
                     -1.6078432330e+02 stress_44
                      1.0631353738e+02 stress_45
                     -9.9916119150e+01 stress_46
                     -4.5326129336e+02 stress_47
                     -1.5681841811e+02 stress_48
                     -2.5976656766e+02 stress_49
                     -4.1958949690e+02 stress_50
                     -5.6867136044e+02 stress_51
                     -3.9868028445e+02 stress_52
                     -6.1074957284e+01 stress_53
                      2.2645778914e+02 stress_54
                      3.5823782764e+02 stress_55
                      4.0780913181e+02 stress_56
                      4.2286840515e+02 stress_57
                      3.3648928574e+02 stress_58
                      2.1641480567e+01 stress_59
                     -3.1588780466e+02 stress_60
                     -4.7137763319e+02 stress_61
                     -5.2131344080e+02 stress_62
                     -5.3233392220e+02 stress_63
                     -2.6383950307e+02 stress_64
                      1.1340449435e+02 stress_65
                      2.0041524767e+02 stress_66
                     -7.1937002162e+01 stress_67
                     -4.4062798663e+02 stress_68
                     -5.3482801302e+02 stress_69
                     -5.3590787624e+02 stress_70
                     -4.4049879752e+02 stress_71
                     -2.6824008006e+02 stress_72
                     -4.4760269392e+01 stress_73
                      1.6688420553e+02 stress_74
                      3.1133659066e+02 stress_75
                      3.9198670627e+02 stress_76
                      4.3623017657e+02 stress_77
                      4.6306939537e+02 stress_78
                      4.8169972581e+02 stress_79
                      4.9617142861e+02 stress_80
                      5.0823101079e+02 stress_81
                      5.1860709609e+02 stress_82
                      5.2756841489e+02 stress_83
                      5.3517524793e+02 stress_84
                      5.4139339707e+02 stress_85
                      5.4615717307e+02 stress_86
                      5.4939882612e+02 stress_87
                      5.5106258421e+02 stress_88
                      4.7732591533e+02 stress_89
                      4.3699226362e+01 stress_90
                     -1.5947072344e+02 stress_91
                      1.3079026376e+02 stress_92
                      4.7802222022e+02 stress_93
                      4.8436020546e+02 stress_94
                      4.2414841261e+02 stress_95
                      3.1596065239e+02 stress_96
                      1.6526557757e+02 stress_97
                     -1.0273483546e+01 stress_98
                     -1.7746693755e+02 stress_99
                     -3.0620342539e+02 stress_100
                     -3.9078808745e+02 stress_101
                     -4.4297195489e+02 stress_102
                     -4.7593390750e+02 stress_103
                     -4.9842084290e+02 stress_104
                     -5.1530841445e+02 stress_105
                     -5.2917343587e+02 stress_106
                     -5.4135997694e+02 stress_107
                     -5.5256690917e+02 stress_108
                     -5.6315124144e+02 stress_109
                     -5.7328478779e+02 stress_110
                     -5.8303575388e+02 stress_111
                     -5.9241265218e+02 stress_112
                     -6.0139132930e+02 stress_113
                     -6.0992845307e+02 stress_114
                     -6.1797000930e+02 stress_115
                     -6.2545775229e+02 stress_116
                     -6.3233185805e+02 stress_117
                     -6.3853590132e+02 stress_118
                     -6.4401638207e+02 stress_119
                     -6.4872361091e+02 stress_120
                     -6.5261634381e+02 stress_121
                     -6.5565862149e+02 stress_122
                     -6.5782206144e+02 stress_123
                     -6.5908747107e+02 stress_124
                     -6.5942738557e+02 stress_125
                     -5.5683937199e+02 stress_126
                     -3.0591683718e+02 stress_127
                      8.6201074667e-01 stress_128
                      2.1960992016e+02 stress_129
                      3.2862979855e+02 stress_130
                      3.7947967872e+02 stress_131
                      4.0431574099e+02 stress_132
                      4.1559871419e+02 stress_133
                      4.1622807916e+02 stress_134
                      1.1271855384e+01 stress_135
                     -1.0619134159e+01 stress_136
                      1.7451372459e+02 stress_137
                      1.3836939878e+02 stress_138
                     -3.4012208797e+01 stress_139
                     -3.2105430947e+02 stress_140
                     -5.3001536799e+02 stress_141
                     -6.1373848360e+02 stress_142
                     -6.4625352034e+02 stress_143
                     -6.6105843869e+02 stress_144
                     -6.6717555635e+02 stress_145
                     -6.4677236809e+02 stress_146
                     -4.0870550812e+02 stress_147
                     -5.7888257714e+01 stress_148
                      1.9425272294e+02 stress_149
                      3.0661841810e+02 stress_150
                      3.4820046212e+02 stress_151
                      3.5333543212e+02 stress_152
                      1.3686054006e+02 stress_153
                     -2.3151822438e+02 stress_154
                     -4.9334834196e+02 stress_155
                     -5.9018001724e+02 stress_156
                     -6.1722066990e+02 stress_157
                     -4.9447977483e+02 stress_158
                     -8.9414121880e+01 stress_159
                      9.3887553586e+01 stress_160
                     -7.2949223719e+01 stress_161
                     -4.6826559602e+02 stress_162
                     -6.2379558085e+02 stress_163
                     -6.3476594645e+02 stress_164
                     -5.9299787202e+02 stress_165
                     -5.1069879093e+02 stress_166
                     -3.8990152958e+02 stress_167
                     -2.3768491509e+02 stress_168
                     -7.1301243345e+01 stress_169
                      8.3554874476e+01 stress_170
                      2.0609672819e+02 stress_171
                      2.9186705065e+02 stress_172
                      3.4851344032e+02 stress_173
                      3.8603995970e+02 stress_174
                      4.1208759856e+02 stress_175
                      4.3146818018e+02 stress_176
                      4.4699841714e+02 stress_177
                      4.6029008872e+02 stress_178
                      4.7225989695e+02 stress_179
                      4.8342960318e+02 stress_180
                      4.9409350531e+02 stress_181
                      5.0441107499e+02 stress_182
                      5.1446219322e+02 stress_183
                      5.2427706938e+02 stress_184
                      5.3385590040e+02 stress_185
                      5.4317948232e+02 stress_186
                      5.5221675540e+02 stress_187
                      5.6092975148e+02 stress_188
                      5.6927592587e+02 stress_189
                      5.7721130922e+02 stress_190
                      5.8469167556e+02 stress_191
                      5.9167264808e+02 stress_192
                      5.9811341571e+02 stress_193
                      6.0397437351e+02 stress_194
                      6.0921835566e+02 stress_195
                      6.1381344941e+02 stress_196
                      6.1772959258e+02 stress_197
                      6.2094259891e+02 stress_198
                      6.2343195297e+02 stress_199
                      6.2518088886e+02 stress_200
                      6.2617878095e+02 stress_201
                      6.2622765942e+02 stress_202
                      2.6420293961e+02 stress_203
                     -7.9894873929e+01 stress_204
                      2.9045159687e+01 stress_205
                      4.6809154828e+02 stress_206
                      4.8725662496e+02 stress_207
                      4.2242171230e+02 stress_208
                      3.0529950372e+02 stress_209
                      1.4335570159e+02 stress_210
                     -4.0005653002e+01 stress_211
                     -2.0578633149e+02 stress_212
                     -3.2616330813e+02 stress_213
                     -4.0203877951e+02 stress_214
                     -4.4824872601e+02 stress_215
                     -4.7779654400e+02 stress_216
                     -4.9851056815e+02 stress_217
                     -5.1455806573e+02 stress_218
                     -5.2808051008e+02 stress_219
                     -5.4017081600e+02 stress_220
                     -5.5138193268e+02 stress_221
                     -5.6198171213e+02 stress_222
                     -5.7208431847e+02 stress_223
                     -5.8171837997e+02 stress_224
                     -5.9086542712e+02 stress_225
                     -5.9948034417e+02 stress_226
                     -6.0750415289e+02 stress_227
                     -6.1487318428e+02 stress_228
                     -6.2152078978e+02 stress_229
                     -6.2738531414e+02 stress_230
                     -6.3240943588e+02 stress_231
                     -6.3654120580e+02 stress_232
                     -6.3973980194e+02 stress_233
                     -6.4197171895e+02 stress_234
                     -6.4321264829e+02 stress_235
                     -6.3671916107e+02 stress_236
                     -2.7206001026e+02 stress_237
                      2.2995883606e+01 stress_238
                     -1.9710568447e+02 stress_239
                     -4.4708170565e+02 stress_240
                     -1.1608565343e+02 stress_241
                      6.0571036523e+01 stress_242
                     -2.7193069321e+02 stress_243
                     -3.9572620609e+02 stress_244
                     -5.0421564668e+02 stress_245
                     -3.1917884599e+02 stress_246
                      1.5384136503e+01 stress_247
                      2.7654736230e+02 stress_248
                      3.9084181456e+02 stress_249
                      4.3379343664e+02 stress_250
                      4.4618942565e+02 stress_251
                      3.4075440066e+02 stress_252
                      1.9170412669e+01 stress_253
                     -3.1460101479e+02 stress_254
                     -4.8436225537e+02 stress_255
                     -5.4579524132e+02 stress_256
                     -5.5812902311e+02 stress_257
                     -2.8081297890e+02 stress_258
                      9.8378493380e+01 stress_259
                      2.1650153832e+02 stress_260
                      1.8356987545e+00 stress_261
                     -3.6362663507e+02 stress_262
                     -5.2126827621e+02 stress_263
                     -5.4310302611e+02 stress_264
                     -5.0105257784e+02 stress_265
                     -4.0682359007e+02 stress_266
                     -2.6411004536e+02 stress_267
                     -8.6731999987e+01 stress_268
                      9.4440301559e+01 stress_269
                      2.4349594484e+02 stress_270
                      3.4575406047e+02 stress_271
                      4.0969631420e+02 stress_272
                      4.4964811493e+02 stress_273
                      4.7622112202e+02 stress_274
                      4.9557972115e+02 stress_275
                      5.1102276411e+02 stress_276
                      5.2428017995e+02 stress_277
                      5.3625320137e+02 stress_278
                      5.4740524428e+02 stress_279
                      5.5796325749e+02 stress_280
                      5.6802328808e+02 stress_281
                      5.7760760332e+02 stress_282
                      5.8669620908e+02 stress_283
                      5.9524626279e+02 stress_284
                      6.0320168191e+02 stress_285
                      6.1050210470e+02 stress_286
                      6.1708621291e+02 stress_287
                      6.2289430869e+02 stress_288
                      6.2787300553e+02 stress_289
                      6.3197457407e+02 stress_290
                      6.3515846355e+02 stress_291
                      6.3739397382e+02 stress_292
                      6.3865826187e+02 stress_293
                      6.3867692978e+02 stress_294
                      2.6477731487e+02 stress_295
                     -7.1559164641e+01 stress_296
                      5.9080316690e+01 stress_297
                      4.8352510976e+02 stress_298
                      4.9839941703e+02 stress_299
                      4.5487453570e+02 stress_300
                      3.7651379608e+02 stress_301
                      2.6512487760e+02 stress_302
                      1.2705696909e+02 stress_303
                     -2.3174414592e+01 stress_304
                     -1.6390903492e+02 stress_305
                     -2.7719801043e+02 stress_306
                     -3.5821361913e+02 stress_307
                     -4.1270739455e+02 stress_308
                     -4.4921726761e+02 stress_309
                     -4.7463180223e+02 stress_310
                     -4.9347344383e+02 stress_311
                     -5.0847270572e+02 stress_312
                     -5.2122824553e+02 stress_313
                     -5.3267318182e+02 stress_314
                     -5.4335220365e+02 stress_315
                     -5.5358256133e+02 stress_316
                     -5.6354700046e+02 stress_317
                     -5.7334609822e+02 stress_318
                     -5.8302976303e+02 stress_319
                     -5.9261619624e+02 stress_320
                     -6.0210256564e+02 stress_321
                     -6.1147313119e+02 stress_322
                     -6.2070289424e+02 stress_323
                     -6.2976153503e+02 stress_324
                     -6.3861556684e+02 stress_325
                     -6.4722843329e+02 stress_326
                     -6.5556381366e+02 stress_327
                     -6.6358351996e+02 stress_328
                     -6.7125157859e+02 stress_329
                     -6.7853213226e+02 stress_330
                     -6.8539008723e+02 stress_331
                     -6.9179307664e+02 stress_332
                     -6.9770956225e+02 stress_333
                     -7.0311100562e+02 stress_334
                     -7.0797149090e+02 stress_335
                     -7.1226564558e+02 stress_336
                     -7.1597361859e+02 stress_337
                     -7.1907646273e+02 stress_338
                     -7.2155865627e+02 stress_339
                     -7.2340837685e+02 stress_340
                     -7.2461618770e+02 stress_341
                     -7.2517586165e+02 stress_342


Active response data for evaluation 108:
Active set vector = { 1 1 1 1 1 1 1 1 1 1 1 1 1 1 1 1 1 1 1 1 1 1 1 1 1 1 1 1 1 1 1 1 1 1 1 1 1 1 1 1 1 1 1 1 1 1 1 1 1 1 1 1 1 1 1 1 1 1 1 1 1 1 1 1 1 1 1 1 1 1 1 1 1 1 1 1 1 1 1 1 1 1 1 1 1 1 1 1 1 1 1 1 1 1 1 1 1 1 1 1 1 1 1 1 1 1 1 1 1 1 1 1 1 1 1 1 1 1 1 1 1 1 1 1 1 1 1 1 1 1 1 1 1 1 1 1 1 1 1 1 1 1 1 1 1 1 1 1 1 1 1 1 1 1 1 1 1 1 1 1 1 1 1 1 1 1 1 1 1 1 1 1 1 1 1 1 1 1 1 1 1 1 1 1 1 1 1 1 1 1 1 1 1 1 1 1 1 1 1 1 1 1 1 1 1 1 1 1 1 1 1 1 1 1 1 1 1 1 1 1 1 1 1 1 1 1 1 1 1 1 1 1 1 1 1 1 1 1 1 1 1 1 1 1 1 1 1 1 1 1 1 1 1 1 1 1 1 1 1 1 1 1 1 1 1 1 1 1 1 1 1 1 1 1 1 1 1 1 1 1 1 1 1 1 1 1 1 1 1 1 1 1 1 1 1 1 1 1 1 1 1 1 1 1 1 1 1 1 1 1 1 1 1 1 1 1 1 1 1 1 1 1 1 1 1 1 1 1 1 1 1 1 1 1 1 1 1 1 1 1 1 1 }
                      2.4222983503e+00 stress_1
                     -2.5174504257e+02 stress_2
                     -4.9433837089e+02 stress_3
                     -4.9585818008e+02 stress_4
                     -1.6688165238e+02 stress_5
                      2.5317824001e+02 stress_6
                      4.0124846937e+02 stress_7
                      4.0211724154e+02 stress_8
                      1.5242946171e+02 stress_9
                     -2.3143556896e+02 stress_10
                     -4.3991472245e+02 stress_11
                     -4.8925230572e+02 stress_12
                     -5.0319131792e+02 stress_13
                     -5.0418614749e+02 stress_14
                     -1.7340521979e+02 stress_15
                     -3.4138869130e+02 stress_16
                     -5.0987374155e+02 stress_17
                     -3.1505380544e+02 stress_18
                      2.1406244040e+01 stress_19
                      2.9848056499e+02 stress_20
                      4.1851403879e+02 stress_21
                      4.6349497363e+02 stress_22
                      4.8207673925e+02 stress_23
                      4.8820638480e+02 stress_24
                      1.5748299436e+02 stress_25
                      2.8561046701e+02 stress_26
                      4.2949867201e+02 stress_27
                      4.6527171492e+02 stress_28
                      3.4238701974e+02 stress_29
                      1.2873804673e+02 stress_30
                     -1.2498768969e+02 stress_31
                     -3.2059964087e+02 stress_32
                     -4.2444641565e+02 stress_33
                     -4.7428340853e+02 stress_34
                     -5.0126150911e+02 stress_35
                     -5.1876080510e+02 stress_36
                     -5.3176783661e+02 stress_37
                     -5.4208775078e+02 stress_38
                     -5.5032896258e+02 stress_39
                     -5.5663718216e+02 stress_40
                     -5.6099856243e+02 stress_41
                     -5.6335406998e+02 stress_42
                     -5.4788545568e+02 stress_43
                     -1.6080357796e+02 stress_44
                      1.0629272372e+02 stress_45
                     -9.9936905224e+01 stress_46
                     -4.5326747607e+02 stress_47
                     -1.5682539360e+02 stress_48
                     -2.5977354252e+02 stress_49
                     -4.1959588341e+02 stress_50
                     -5.6869251709e+02 stress_51
                     -3.9870153135e+02 stress_52
                     -6.1097846054e+01 stress_53
                      2.2643616834e+02 stress_54
                      3.5822225928e+02 stress_55
                      4.0779766073e+02 stress_56
                      4.2285839417e+02 stress_57
                      3.3647929334e+02 stress_58
                      2.1635099120e+01 stress_59
                     -3.1588337336e+02 stress_60
                     -4.7138062870e+02 stress_61
                     -5.2132489655e+02 stress_62
                     -5.3234780416e+02 stress_63
                     -2.6385383551e+02 stress_64
                      1.1338699341e+02 stress_65
                      2.0039774266e+02 stress_66
                     -7.1952931613e+01 stress_67
                     -4.4061949166e+02 stress_68
                     -5.3482993033e+02 stress_69
                     -5.3591012601e+02 stress_70
                     -4.4050106564e+02 stress_71
                     -2.6824284556e+02 stress_72
                     -4.4765515684e+01 stress_73
                      1.6687536049e+02 stress_74
                      3.1132701552e+02 stress_75
                      3.9197895864e+02 stress_76
                      4.3622458074e+02 stress_77
                      4.6306543850e+02 stress_78
                      4.8169688013e+02 stress_79
                      4.9616931754e+02 stress_80
                      5.0822938816e+02 stress_81
                      5.1860580306e+02 stress_82
                      5.2756734747e+02 stress_83
                      5.3517433621e+02 stress_84
                      5.4139259227e+02 stress_85
                      5.4615643967e+02 stress_86
                      5.4939813671e+02 stress_87
                      5.5106191606e+02 stress_88
                      4.7732525062e+02 stress_89
                      4.3698197154e+01 stress_90
                     -1.5947567853e+02 stress_91
                      1.3078468844e+02 stress_92
                      4.7798761848e+02 stress_93
                      4.8432542509e+02 stress_94
                      4.2411363546e+02 stress_95
                      3.1592596466e+02 stress_96
                      1.6523144369e+02 stress_97
                     -1.0306196995e+01 stress_98
                     -1.7749817724e+02 stress_99
                     -3.0623473496e+02 stress_100
                     -3.9082102075e+02 stress_101
                     -4.4300695064e+02 stress_102
                     -4.7597068704e+02 stress_103
                     -4.9845895990e+02 stress_104
                     -5.1534748275e+02 stress_105
                     -5.2921317181e+02 stress_106
                     -5.4140018335e+02 stress_107
                     -5.5260745106e+02 stress_108
                     -5.6319202611e+02 stress_109
                     -5.7332575093e+02 stress_110
                     -5.8307685020e+02 stress_111
                     -5.9245384929e+02 stress_112
                     -6.0143260368e+02 stress_113
                     -6.0996978733e+02 stress_114
                     -6.1801139040e+02 stress_115
                     -6.2549917027e+02 stress_116
                     -6.3237330519e+02 stress_117
                     -6.3857737154e+02 stress_118
                     -6.4405787049e+02 stress_119
                     -6.4876511352e+02 stress_120
                     -6.5265785724e+02 stress_121
                     -6.5570014287e+02 stress_122
                     -6.5786358821e+02 stress_123
                     -6.5912900091e+02 stress_124
                     -6.5946891622e+02 stress_125
                     -5.5688090518e+02 stress_126
                     -3.0595817363e+02 stress_127
                      8.2457764838e-01 stress_128
                      2.1958318178e+02 stress_129
                      3.2861293559e+02 stress_130
                      3.7946854594e+02 stress_131
                      4.0430748725e+02 stress_132
                      4.1559172135e+02 stress_133
                      4.1622115496e+02 stress_134
                      1.1266624002e+01 stress_135
                     -1.0624134122e+01 stress_136
                      1.7450843081e+02 stress_137
                      1.3836410611e+02 stress_138
                     -3.4017148975e+01 stress_139
                     -3.2105887456e+02 stress_140
                     -5.3003554842e+02 stress_141
                     -6.1377712674e+02 stress_142
                     -6.4630161807e+02 stress_143
                     -6.6111063797e+02 stress_144
                     -6.6722926762e+02 stress_145
                     -6.4682607938e+02 stress_146
                     -4.0875913144e+02 stress_147
                     -5.7937799346e+01 stress_148
                      1.9421710401e+02 stress_149
                      3.0659484812e+02 stress_150
                      3.4818244416e+02 stress_151
                      3.5331813363e+02 stress_152
                      1.3684365368e+02 stress_153
                     -2.3152697406e+02 stress_154
                     -4.9335837932e+02 stress_155
                     -5.9020410920e+02 stress_156
                     -6.1725144471e+02 stress_157
                     -4.9451055746e+02 stress_158
                     -8.9444032585e+01 stress_159
                      9.3860979344e+01 stress_160
                     -7.2975658369e+01 stress_161
                     -4.6827622870e+02 stress_162
                     -6.2381696200e+02 stress_163
                     -6.3479115578e+02 stress_164
                     -5.9302308170e+02 stress_165
                     -5.1072401017e+02 stress_166
                     -3.8992679211e+02 stress_167
                     -2.3771016043e+02 stress_168
                     -7.1325843346e+01 stress_169
                      8.3532468923e+01 stress_170
                      2.0607816146e+02 stress_171
                      2.9185287354e+02 stress_172
                      3.4850312021e+02 stress_173
                      3.8603257382e+02 stress_174
                      4.1208229945e+02 stress_175
                      4.3146432941e+02 stress_176
                      4.4699556970e+02 stress_177
                      4.6028794282e+02 stress_178
                      4.7225824857e+02 stress_179
                      4.8342831338e+02 stress_180
                      4.9409247825e+02 stress_181
                      5.0441024353e+02 stress_182
                      5.1446150960e+02 stress_183
                      5.2427649904e+02 stress_184
                      5.3385541801e+02 stress_185
                      5.4317906901e+02 stress_186
                      5.5221639691e+02 stress_187
                      5.6092943690e+02 stress_188
                      5.6927564674e+02 stress_189
                      5.7721105890e+02 stress_190
                      5.8469144879e+02 stress_191
                      5.9167244062e+02 stress_192
                      5.9811322410e+02 stress_193
                      6.0397419490e+02 stress_194
                      6.0921818766e+02 stress_195
                      6.1381329001e+02 stress_196
                      6.1772944004e+02 stress_197
                      6.2094245168e+02 stress_198
                      6.2343180969e+02 stress_199
                      6.2518074826e+02 stress_200
                      6.2617864185e+02 stress_201
                      6.2622752040e+02 stress_202
                      2.6420201439e+02 stress_203
                     -7.9906170054e+01 stress_204
                      2.9033863224e+01 stress_205
                      4.6806678406e+02 stress_206
                      4.8722965072e+02 stress_207
                      4.2239473812e+02 stress_208
                      3.0527249737e+02 stress_209
                      1.4332818514e+02 stress_210
                     -4.0035902416e+01 stress_211
                     -2.0582344498e+02 stress_212
                     -3.2620981644e+02 stress_213
                     -4.0209370605e+02 stress_214
                     -4.4830962418e+02 stress_215
                     -4.7786127938e+02 stress_216
                     -4.9857770611e+02 stress_217
                     -5.1462671997e+02 stress_218
                     -5.2815014219e+02 stress_219
                     -5.4024109537e+02 stress_220
                     -5.5145265197e+02 stress_221
                     -5.6205273796e+02 stress_222
                     -5.7215556282e+02 stress_223
                     -5.8178978328e+02 stress_224
                     -5.9093694814e+02 stress_225
                     -5.9955195365e+02 stress_226
                     -6.0757582964e+02 stress_227
                     -6.1494491266e+02 stress_228
                     -6.2159255792e+02 stress_229
                     -6.2745711292e+02 stress_230
                     -6.3248125805e+02 stress_231
                     -6.3661304549e+02 stress_232
                     -6.3981165422e+02 stress_233
                     -6.4204357956e+02 stress_234
                     -6.4328451337e+02 stress_235
                     -6.3679102616e+02 stress_236
                     -2.7213118903e+02 stress_237
                      2.2931793277e+01 stress_238
                     -1.9716898832e+02 stress_239
                     -4.4714110440e+02 stress_240
                     -1.1614426666e+02 stress_241
                      6.0516265865e+01 stress_242
                     -2.7198371067e+02 stress_243
                     -3.9577816183e+02 stress_244
                     -5.0426918803e+02 stress_245
                     -3.1923235405e+02 stress_246
                      1.5333980630e+01 stress_247
                      2.7651243959e+02 stress_248
                      3.9082086499e+02 stress_249
                      4.3377903587e+02 stress_250
                      4.4617697564e+02 stress_251
                      3.4074196361e+02 stress_252
                      1.9158086675e+01 stress_253
                     -3.1462114395e+02 stress_254
                     -4.8439849349e+02 stress_255
                     -5.4584109168e+02 stress_256
                     -5.5817707712e+02 stress_257
                     -2.8086092919e+02 stress_258
                      9.8336288576e+01 stress_259
                      2.1646550080e+02 stress_260
                      1.7999227287e+00 stress_261
                     -3.6366346097e+02 stress_262
                     -5.2131478740e+02 stress_263
                     -5.4315203669e+02 stress_264
                     -5.0110158861e+02 stress_265
                     -4.0687259955e+02 stress_266
                     -2.6415891682e+02 stress_267
                     -8.6779648706e+01 stress_268
                      9.4397162593e+01 stress_269
                      2.4346137853e+02 stress_270
                      3.4572928237e+02 stress_271
                      4.0967958403e+02 stress_272
                      4.4963696960e+02 stress_273
                      4.7621360061e+02 stress_274
                      4.9557451904e+02 stress_275
                      5.1101906217e+02 stress_276
                      5.2427746873e+02 stress_277
                      5.3625116025e+02 stress_278
                      5.4740366740e+02 stress_279
                      5.5796200959e+02 stress_280
                      5.6802227819e+02 stress_281
                      5.7760676882e+02 stress_282
                      5.8669550589e+02 stress_283
                      5.9524565927e+02 stress_284
                      6.0320115484e+02 stress_285
                      6.1050163672e+02 stress_286
                      6.1708579078e+02 stress_287
                      6.2289392206e+02 stress_288
                      6.2787264616e+02 stress_289
                      6.3197423522e+02 stress_290
                      6.3515813954e+02 stress_291
                      6.3739365970e+02 stress_292
                      6.3865795316e+02 stress_293
                      6.3867662115e+02 stress_294
                      2.6477616052e+02 stress_295
                     -7.1570323466e+01 stress_296
                      5.9069154833e+01 stress_297
                      4.8349665161e+02 stress_298
                      4.9836918794e+02 stress_299
                      4.5484430674e+02 stress_300
                      3.7648356474e+02 stress_301
                      2.6509457265e+02 stress_302
                      1.2702612396e+02 stress_303
                     -2.3207291723e+01 stress_304
                     -1.6394650182e+02 stress_305
                     -2.7724222159e+02 stress_306
                     -3.5826492151e+02 stress_307
                     -4.1276465724e+02 stress_308
                     -4.4927894390e+02 stress_309
                     -4.7469655563e+02 stress_310
                     -4.9354029805e+02 stress_311
                     -5.0854099436e+02 stress_312
                     -5.2129752380e+02 stress_313
                     -5.3274315335e+02 stress_314
                     -5.4342266913e+02 stress_315
                     -5.5365338483e+02 stress_316
                     -5.6361808784e+02 stress_317
                     -5.7341738315e+02 stress_318
                     -5.8310119807e+02 stress_319
                     -5.9268774690e+02 stress_320
                     -6.0217420649e+02 stress_321
                     -6.1154484320e+02 stress_322
                     -6.2077466299e+02 stress_323
                     -6.2983334947e+02 stress_324
                     -6.3868741839e+02 stress_325
                     -6.4730031521e+02 stress_326
                     -6.5563572061e+02 stress_327
                     -6.6365544767e+02 stress_328
                     -6.7132352360e+02 stress_329
                     -6.7860409175e+02 stress_330
                     -6.8546205886e+02 stress_331
                     -6.9186505848e+02 stress_332
                     -6.9778155266e+02 stress_333
                     -7.0318300322e+02 stress_334
                     -7.0804349449e+02 stress_335
                     -7.1233765413e+02 stress_336
                     -7.1604563118e+02 stress_337
                     -7.1914847855e+02 stress_338
                     -7.2163067458e+02 stress_339
                     -7.2348039695e+02 stress_340
                     -7.2468820895e+02 stress_341
                     -7.2524788343e+02 stress_342


Active response data for evaluation 109:
Active set vector = { 1 1 1 1 1 1 1 1 1 1 1 1 1 1 1 1 1 1 1 1 1 1 1 1 1 1 1 1 1 1 1 1 1 1 1 1 1 1 1 1 1 1 1 1 1 1 1 1 1 1 1 1 1 1 1 1 1 1 1 1 1 1 1 1 1 1 1 1 1 1 1 1 1 1 1 1 1 1 1 1 1 1 1 1 1 1 1 1 1 1 1 1 1 1 1 1 1 1 1 1 1 1 1 1 1 1 1 1 1 1 1 1 1 1 1 1 1 1 1 1 1 1 1 1 1 1 1 1 1 1 1 1 1 1 1 1 1 1 1 1 1 1 1 1 1 1 1 1 1 1 1 1 1 1 1 1 1 1 1 1 1 1 1 1 1 1 1 1 1 1 1 1 1 1 1 1 1 1 1 1 1 1 1 1 1 1 1 1 1 1 1 1 1 1 1 1 1 1 1 1 1 1 1 1 1 1 1 1 1 1 1 1 1 1 1 1 1 1 1 1 1 1 1 1 1 1 1 1 1 1 1 1 1 1 1 1 1 1 1 1 1 1 1 1 1 1 1 1 1 1 1 1 1 1 1 1 1 1 1 1 1 1 1 1 1 1 1 1 1 1 1 1 1 1 1 1 1 1 1 1 1 1 1 1 1 1 1 1 1 1 1 1 1 1 1 1 1 1 1 1 1 1 1 1 1 1 1 1 1 1 1 1 1 1 1 1 1 1 1 1 1 1 1 1 1 1 1 1 1 1 1 1 1 1 1 1 1 1 1 1 1 1 }
                      2.4222983503e+00 stress_1
                     -2.5174504396e+02 stress_2
                     -4.9432910002e+02 stress_3
                     -4.9584877984e+02 stress_4
                     -1.6687219864e+02 stress_5
                      2.5318969651e+02 stress_6
                      4.0126199428e+02 stress_7
                      4.0213078013e+02 stress_8
                      1.5244299364e+02 stress_9
                     -2.3142249114e+02 stress_10
                     -4.3990260228e+02 stress_11
                     -4.8924041025e+02 stress_12
                     -5.0317945590e+02 stress_13
                     -5.0417428705e+02 stress_14
                     -1.7339321499e+02 stress_15
                     -3.4137668675e+02 stress_16
                     -5.0985995383e+02 stress_17
                     -3.1504000285e+02 stress_18
                      2.1420772324e+01 stress_19
                      2.9849805132e+02 stress_20
                      4.1853393058e+02 stress_21
                      4.6351585250e+02 stress_22
                      4.8209798060e+02 stress_23
                      4.8822773203e+02 stress_24
                      1.5750431874e+02 stress_25
                      2.8563179137e+02 stress_26
                      4.2951989023e+02 stress_27
                      4.6529287234e+02 stress_28
                      3.4240817668e+02 stress_29
                      1.2875918093e+02 stress_30
                     -1.2496673153e+02 stress_31
                     -3.2057906949e+02 stress_32
                     -4.2442617417e+02 stress_33
                     -4.7426334185e+02 stress_34
                     -5.0124152457e+02 stress_35
                     -5.1874086015e+02 stress_36
                     -5.3174791201e+02 stress_37
                     -5.4206783728e+02 stress_38
                     -5.5030905545e+02 stress_39
                     -5.5661727875e+02 stress_40
                     -5.6097866113e+02 stress_41
                     -5.6333416968e+02 stress_42
                     -5.4786555538e+02 stress_43
                     -1.6078293379e+02 stress_44
                      1.0631747891e+02 stress_45
                     -9.9912144918e+01 stress_46
                     -4.5323810765e+02 stress_47
                     -1.5679580925e+02 stress_48
                     -2.5974395805e+02 stress_49
                     -4.1956606610e+02 stress_50
                     -5.6865800514e+02 stress_51
                     -3.9866700792e+02 stress_52
                     -6.1062678300e+01 stress_53
                      2.2647408047e+02 stress_54
                      3.5826262812e+02 stress_55
                      4.0783913051e+02 stress_56
                      4.2290019978e+02 stress_57
                      3.3652109842e+02 stress_58
                      2.1676686237e+01 stress_59
                     -3.1584389874e+02 stress_60
                     -4.7134356747e+02 stress_61
                     -5.2128879811e+02 stress_62
                     -5.3231191656e+02 stress_63
                     -2.6381788870e+02 stress_64
                      1.1342439791e+02 stress_65
                      2.0043603890e+02 stress_66
                     -7.1914675783e+01 stress_67
                     -4.4058294424e+02 stress_68
                     -5.3479456930e+02 stress_69
                     -5.3587477915e+02 stress_70
                     -4.4046571740e+02 stress_71
                     -2.6820743567e+02 stress_72
                     -4.4729574586e+01 stress_73
                      1.6691292458e+02 stress_74
                      3.1136671444e+02 stress_75
                      3.9202025364e+02 stress_76
                      4.3626679599e+02 stress_77
                      4.6310814930e+02 stress_78
                      4.8173986156e+02 stress_79
                      4.9621245294e+02 stress_80
                      5.0827261522e+02 stress_81
                      5.1864908699e+02 stress_82
                      5.2761066790e+02 stress_83
                      5.3521768058e+02 stress_84
                      5.4143595248e+02 stress_85
                      5.4619981015e+02 stress_86
                      5.4944151341e+02 stress_87
                      5.5110529573e+02 stress_88
                      4.7736863019e+02 stress_89
                      4.3741460748e+01 stress_90
                     -1.5943269631e+02 stress_91
                      1.3082774306e+02 stress_92
                      4.7803727779e+02 stress_93
                      4.8437538310e+02 stress_94
                      4.2416359318e+02 stress_95
                      3.1597591000e+02 stress_96
                      1.6528126864e+02 stress_97
                     -1.0256904390e+01 stress_98
                     -1.7745014789e+02 stress_99
                     -3.0618844089e+02 stress_100
                     -3.9077629766e+02 stress_101
                     -4.4296333462e+02 stress_102
                     -4.7592776662e+02 stress_103
                     -4.9841646193e+02 stress_104
                     -5.1530524263e+02 stress_105
                     -5.2917109258e+02 stress_106
                     -5.4135820734e+02 stress_107
                     -5.5256554318e+02 stress_108
                     -5.6315016446e+02 stress_109
                     -5.7328392144e+02 stress_110
                     -5.8303504361e+02 stress_111
                     -5.9241205935e+02 stress_112
                     -6.0139082605e+02 stress_113
                     -6.0992801896e+02 stress_114
                     -6.1796962908e+02 stress_115
                     -6.2545741438e+02 stress_116
                     -6.3233155350e+02 stress_117
                     -6.3853562313e+02 stress_118
                     -6.4401612461e+02 stress_119
                     -6.4872336960e+02 stress_120
                     -6.5261611481e+02 stress_121
                     -6.5565840152e+02 stress_122
                     -6.5782184759e+02 stress_123
                     -6.5908726069e+02 stress_124
                     -6.5942717612e+02 stress_125
                     -5.5683915844e+02 stress_126
                     -3.0591583151e+02 stress_127
                      8.7214569206e-01 stress_128
                      2.1964118849e+02 stress_129
                      3.2867902235e+02 stress_130
                      3.7953884705e+02 stress_131
                      4.0437977369e+02 stress_132
                      4.1566484645e+02 stress_133
                      4.1629432512e+02 stress_134
                      1.1339507211e+01 stress_135
                     -1.0551314698e+01 stress_136
                      1.7458140587e+02 stress_137
                      1.3843708109e+02 stress_138
                     -3.3944232173e+01 stress_139
                     -3.2098749472e+02 stress_140
                     -5.2996855620e+02 stress_141
                     -6.1371301602e+02 stress_142
                     -6.4623862793e+02 stress_143
                     -6.6104806858e+02 stress_144
                     -6.6716684257e+02 stress_145
                     -6.4676365433e+02 stress_146
                     -4.0869662826e+02 stress_147
                     -5.7873605078e+01 stress_148
                      1.9428568346e+02 stress_149
                      3.0666671071e+02 stress_150
                      3.4825571050e+02 stress_151
                      3.5339157703e+02 stress_152
                      1.3691706987e+02 stress_153
                     -2.3145491042e+02 stress_154
                     -4.9329068593e+02 stress_155
                     -5.9013918453e+02 stress_156
                     -6.1718736570e+02 stress_157
                     -4.9444647304e+02 stress_158
                     -8.9378856876e+01 stress_159
                      9.3928285071e+01 stress_160
                     -7.2908358463e+01 stress_161
                     -4.6821056452e+02 stress_162
                     -6.2375407931e+02 stress_163
                     -6.3472850393e+02 stress_164
                     -5.9296042973e+02 stress_165
                     -5.1066135238e+02 stress_166
                     -3.8986406950e+02 stress_167
                     -2.3764709709e+02 stress_168
                     -7.1261723250e+01 stress_169
                      8.3598654611e+01 stress_170
                      2.0614702213e+02 stress_171
                      2.9192424578e+02 stress_172
                      3.4857640828e+02 stress_173
                      3.8610717114e+02 stress_174
                      4.1215775224e+02 stress_175
                      4.3154033636e+02 stress_176
                      4.4707193905e+02 stress_177
                      4.6036455343e+02 stress_178
                      4.7233502320e+02 stress_179
                      4.8350520194e+02 stress_180
                      4.9416944760e+02 stress_181
                      5.0448727131e+02 stress_182
                      5.1453858041e+02 stress_183
                      5.2435360209e+02 stress_184
                      5.3393254556e+02 stress_185
                      5.4325621544e+02 stress_186
                      5.5229355809e+02 stress_187
                      5.6100660970e+02 stress_188
                      5.6935282880e+02 stress_189
                      5.7728824840e+02 stress_190
                      5.8476864429e+02 stress_191
                      5.9174964099e+02 stress_192
                      5.9819042845e+02 stress_193
                      6.0405140248e+02 stress_194
                      6.0929539786e+02 stress_195
                      6.1389050232e+02 stress_196
                      6.1780665402e+02 stress_197
                      6.2101966696e+02 stress_198
                      6.2350902592e+02 stress_199
                      6.2525796515e+02 stress_200
                      6.2625585910e+02 stress_201
                      6.2630473766e+02 stress_202
                      2.6427914579e+02 stress_203
                     -7.9829919270e+01 stress_204
                      2.9110114080e+01 stress_205
                      4.6814757746e+02 stress_206
                      4.8731146118e+02 stress_207
                      4.2247654807e+02 stress_208
                      3.0535428621e+02 stress_209
                      1.4340977706e+02 stress_210
                     -3.9955121555e+01 stress_211
                     -2.0574439326e+02 stress_212
                     -3.2613287652e+02 stress_213
                     -4.0201850529e+02 stress_214
                     -4.4823557952e+02 stress_215
                     -4.7778794027e+02 stress_216
                     -4.9850479056e+02 stress_217
                     -5.1455406252e+02 stress_218
                     -5.2807764631e+02 stress_219
                     -5.4016870374e+02 stress_220
                     -5.5138032963e+02 stress_221
                     -5.6198046298e+02 stress_222
                     -5.7208332103e+02 stress_223
                     -5.8171756528e+02 stress_224
                     -5.9086474751e+02 stress_225
                     -5.9947976593e+02 stress_226
                     -6.0750365165e+02 stress_227
                     -6.1487274205e+02 stress_228
                     -6.2152039297e+02 stress_229
                     -6.2738495229e+02 stress_230
                     -6.3240910071e+02 stress_231
                     -6.3654089060e+02 stress_232
                     -6.3973950109e+02 stress_233
                     -6.4197142759e+02 stress_234
                     -6.4321236201e+02 stress_235
                     -6.3671887480e+02 stress_236
                     -2.7205872312e+02 stress_237
                      2.3006584336e+01 stress_238
                     -1.9709423933e+02 stress_239
                     -4.4706703080e+02 stress_240
                     -1.1606982109e+02 stress_241
                      6.0592102206e+01 stress_242
                     -2.7190809684e+02 stress_243
                     -3.9570305127e+02 stress_244
                     -5.0419494737e+02 stress_245
                     -3.1915807746e+02 stress_246
                      1.5409764549e+01 stress_247
                      2.7659337822e+02 stress_248
                      3.9090586655e+02 stress_249
                      4.3386579051e+02 stress_250
                      4.4626423333e+02 stress_251
                      3.4082921855e+02 stress_252
                      1.9244849986e+01 stress_253
                     -3.1453805813e+02 stress_254
                     -4.8431986940e+02 stress_255
                     -5.4576459340e+02 stress_256
                     -5.5810102726e+02 stress_257
                     -2.8078476675e+02 stress_258
                      9.8414926629e+01 stress_259
                      2.1654624728e+02 stress_260
                      1.8806198444e+00 stress_261
                     -3.6358472381e+02 stress_262
                     -5.2123887029e+02 stress_263
                     -5.4307664271e+02 stress_264
                     -5.0102619449e+02 stress_265
                     -4.0679719610e+02 stress_266
                     -2.6408339384e+02 stress_267
                     -8.6703480387e+01 stress_268
                      9.4475162052e+01 stress_269
                      2.4354231956e+02 stress_270
                      3.4581320531e+02 stress_271
                      4.0976575012e+02 stress_272
                      4.4972458856e+02 stress_273
                      4.7630211172e+02 stress_274
                      4.9566357584e+02 stress_275
                      5.1110845880e+02 stress_276
                      5.2436708264e+02 stress_277
                      5.3634091709e+02 stress_278
                      5.4749352089e+02 stress_279
                      5.5805193013e+02 stress_280
                      5.6811224633e+02 stress_281
                      5.7769677148e+02 stress_282
                      5.8678553402e+02 stress_283
                      5.9533570649e+02 stress_284
                      6.0329121654e+02 stress_285
                      6.1059170951e+02 stress_286
                      6.1717587209e+02 stress_287
                      6.2298400992e+02 stress_288
                      6.2796273904e+02 stress_289
                      6.3206433184e+02 stress_290
                      6.3524823886e+02 stress_291
                      6.3748376081e+02 stress_292
                      6.3874805525e+02 stress_293
                      6.3876672326e+02 stress_294
                      2.6486593595e+02 stress_295
                     -7.1483561925e+01 stress_296
                      5.9155916510e+01 stress_297
                      4.8358472341e+02 stress_298
                      4.9845746219e+02 stress_299
                      4.5493258080e+02 stress_300
                      3.7657183093e+02 stress_301
                      2.6518276163e+02 stress_302
                      1.2711393648e+02 stress_303
                     -2.3120600373e+01 stress_304
                     -1.6386197718e+02 stress_305
                     -2.7716054029e+02 stress_306
                     -3.5818598277e+02 stress_307
                     -4.1268787188e+02 stress_308
                     -4.4920366743e+02 stress_309
                     -4.7462228401e+02 stress_310
                     -4.9346668636e+02 stress_311
                     -5.0846781845e+02 stress_312
                     -5.2122463989e+02 stress_313
                     -5.3267046877e+02 stress_314
                     -5.4335012335e+02 stress_315
                     -5.5358093760e+02 stress_316
                     -5.6354571189e+02 stress_317
                     -5.7334505968e+02 stress_318
                     -5.8302891385e+02 stress_319
                     -5.9261549250e+02 stress_320
                     -6.0210197503e+02 stress_321
                     -6.1147262965e+02 stress_322
                     -6.2070246355e+02 stress_323
                     -6.2976116128e+02 stress_324
                     -6.3861523925e+02 stress_325
                     -6.4722814342e+02 stress_326
                     -6.5556355484e+02 stress_327
                     -6.6358328684e+02 stress_328
                     -6.7125136687e+02 stress_329
                     -6.7853193842e+02 stress_330
                     -6.8538990838e+02 stress_331
                     -6.9179291038e+02 stress_332
                     -6.9770940654e+02 stress_333
                     -7.0311085876e+02 stress_334
                     -7.0797135142e+02 stress_335
                     -7.1226551219e+02 stress_336
                     -7.1597349017e+02 stress_337
                     -7.1907633828e+02 stress_338
                     -7.2155853487e+02 stress_339
                     -7.2340825765e+02 stress_340
                     -7.2461606991e+02 stress_341
                     -7.2517574451e+02 stress_342

>>>>> Total response returned to iterator:

Active set vector = { 2 2 2 2 2 2 2 2 2 2 2 2 2 2 2 2 2 2 2 2 2 2 2 2 2 2 2 2 2 2 2 2 2 2 2 2 2 2 2 2 2 2 2 2 2 2 2 2 2 2 2 2 2 2 2 2 2 2 2 2 2 2 2 2 2 2 2 2 2 2 2 2 2 2 2 2 2 2 2 2 2 2 2 2 2 2 2 2 2 2 2 2 2 2 2 2 2 2 2 2 2 2 2 2 2 2 2 2 2 2 2 2 2 2 2 2 2 2 2 2 2 2 2 2 2 2 2 2 2 2 2 2 2 2 2 2 2 2 2 2 2 2 2 2 2 2 2 2 2 2 2 2 2 2 2 2 2 2 2 2 2 2 2 2 2 2 2 2 2 2 2 2 2 2 2 2 2 2 2 2 2 2 2 2 2 2 2 2 2 2 2 2 2 2 2 2 2 2 2 2 2 2 2 2 2 2 2 2 2 2 2 2 2 2 2 2 2 2 2 2 2 2 2 2 2 2 2 2 2 2 2 2 2 2 2 2 2 2 2 2 2 2 2 2 2 2 2 2 2 2 2 2 2 2 2 2 2 2 2 2 2 2 2 2 2 2 2 2 2 2 2 2 2 2 2 2 2 2 2 2 2 2 2 2 2 2 2 2 2 2 2 2 2 2 2 2 2 2 2 2 2 2 2 2 2 2 2 2 2 2 2 2 2 2 2 2 2 2 2 2 2 2 2 2 2 2 2 2 2 2 2 2 2 2 2 2 2 2 2 2 2 2 } Deriv vars vector = { 1 2 3 4 5 6 7 }
 [  0.0000000000e+00  1.1653236758e-05  0.0000000000e+00  0.0000000000e+00 
    0.0000000000e+00  0.0000000000e+00  0.0000000000e+00 ] stress_1 gradient
 [ -2.0015821574e-05 -1.2110525715e-03 -5.4384413020e-04  2.4822612014e-03 
   -2.8722626866e-02  6.9453222993e-02  0.0000000000e+00 ] stress_2 gradient
 [ -9.9808696765e-01 -7.0265559881e-05 -2.2761816631e+02  2.2213939276e-01 
   -2.5819263325e+00 -4.6323151376e+02  0.0000000000e+00 ] stress_3 gradient
 [ -1.0006088779e+00 -7.1833405534e-05 -3.0615844175e+02  5.6057731969e-02 
   -6.5129013978e-01 -4.6969566016e+02  0.0000000000e+00 ] stress_4 gradient
 [ -9.8321427590e-01  1.4703181483e-03 -3.0518169847e+02 -2.3659603600e+01 
    3.0237791268e+01 -4.6505328680e+02  5.8520250504e+00 ] stress_5 gradient
 [ -2.9375654640e-01  1.8933085211e-03 -2.2904086143e+02 -5.2420968749e+02 
    6.8745668393e+02 -2.9131579893e+02  2.2488227892e+02 ] stress_6 gradient
 [  4.5957476999e-01  8.6571722347e-04 -2.6587430748e+01 -6.2921718491e+02 
    8.2548006621e+02 -1.1188764372e+02  4.5108876787e+02 ] stress_7 gradient
 [  4.6473658406e-01  8.5798724889e-04 -2.4142853321e+01 -6.2807341411e+02 
    8.2397057325e+02 -1.1070144262e+02  4.5258444971e+02 ] stress_8 gradient
 [  4.5761631964e-01 -3.2662641279e-04 -2.4472422601e+01 -6.1645775331e+02 
    8.0848304008e+02 -1.1259966417e+02  4.5079978392e+02 ] stress_9 gradient
 [  8.5491901814e-03 -1.1326529764e-03 -6.8412274245e+01 -7.8737543358e+01 
    8.6289357466e+01 -2.4214591482e+02  3.2901962627e+02 ] stress_10 gradient
 [ -8.3908889599e-01 -1.7759063239e-04 -3.6655119682e+02  4.0127633401e+02 
   -5.5095486908e+02 -5.1532542853e+02  7.2214812500e+01 ] stress_11 gradient
 [ -9.9600261736e-01 -5.1783983910e-05 -7.7938893084e+02  2.4469148269e+02 
   -3.3289799066e+02 -5.7942475766e+02  1.1957860350e+01 ] stress_12 gradient
 [ -1.0098889577e+00 -8.6334462415e-05 -1.0692451139e+03  1.6058983036e+02 
   -2.1778209253e+02 -5.8896932939e+02  2.9857678532e+00 ] stress_13 gradient
 [ -1.0102207168e+00 -9.0323785303e-05 -1.0961131680e+03  1.5454157112e+02 
   -2.0952881947e+02 -5.8942002585e+02  2.5620845972e+00 ] stress_14 gradient
 [ -9.7822742342e-01  1.4267445473e-03 -1.0919310099e+03  3.9961072526e+01 
   -1.6431848990e+02 -5.8079333592e+02  1.5233011863e+01 ] stress_15 gradient
 [ -9.7822773552e-01  6.1860738153e-04 -1.0919304661e+03  3.9963807610e+01 
   -1.6433586983e+02 -5.8077984500e+02  1.5233811267e+01 ] stress_16 gradient
 [ -9.9060702182e-01 -1.6299489861e-04 -1.1173910527e+03  3.1803753176e+01 
   -1.6788155922e+02 -6.7619758120e+02  1.0178790378e+01 ] stress_17 gradient
 [ -9.8655352666e-01  7.6483705978e-04 -1.1169010495e+03  1.3122197985e+01 
   -1.6075029808e+02 -6.7496541107e+02  1.1758809161e+01 ] stress_18 gradient
 [ -7.9888483167e-01  1.9482312272e-03 -1.0873201943e+03 -4.5646296923e+02 
    2.6938604227e+01 -6.1483565843e+02  8.8865124794e+01 ] stress_19 gradient
 [ -6.1455937812e-02  1.5743879807e-03 -8.8643694913e+02 -1.1690861137e+03 
    3.4846071491e+02 -3.6974297825e+02  4.0315820057e+02 ] stress_20 gradient
 [  5.2106849235e-01  8.0630034729e-04 -4.9573909209e+02 -1.0029335935e+03 
    3.3216345979e+02 -1.7043920926e+02  6.5873593170e+02 ] stress_21 gradient
 [  7.5479969122e-01  4.8332053470e-04 -8.4851581570e+01 -7.0652550893e+02 
    2.4069854107e+02 -8.8655790359e+01  7.6361152713e+02 ] stress_22 gradient
 [  8.3935394958e-01  3.7764133931e-04  2.2016152536e+02 -5.4310121210e+02 
    1.8695448120e+02 -5.8623017422e+01  8.0212433511e+02 ] stress_23 gradient
 [  8.6385783023e-01  3.5060064423e-04  3.5048822933e+02 -4.8712738290e+02 
    1.6822348654e+02 -4.9851425084e+01  8.1337312556e+02 ] stress_24 gradient
 [  8.3067394914e-01 -1.1634468794e-03  3.4553816398e+02 -3.4546333466e+02 
    1.2829409551e+02 -6.4614482173e+01  8.0065023714e+02 ] stress_25 gradient
 [  8.3067334575e-01 -5.4704747101e-04  3.4553870783e+02 -3.4546547216e+02 
    1.2829702265e+02 -6.4614482174e+01  8.0064943774e+02 ] stress_26 gradient
 [  8.2806417313e-01  1.5123057188e-04  3.4629900132e+02 -3.5801615249e+02 
    1.5167285028e+02 -6.6554675452e+01  7.9485496966e+02 ] stress_27 gradient
 [  8.3055984647e-01  3.1761854057e-04  3.4996124479e+02 -3.6901302925e+02 
    2.0003297264e+02 -6.7665927025e+01  7.9153585102e+02 ] stress_28 gradient
 [  8.2970834180e-01 -2.7158059793e-04  3.4985356373e+02 -3.6376757465e+02 
    1.9854836042e+02 -6.8018189775e+01  7.9123487603e+02 ] stress_29 gradient
 [  7.9264453309e-01 -1.2134092470e-03  3.4426720126e+02 -2.1327236508e+02 
    1.5487716118e+02 -8.4582533697e+01  7.7707546155e+02 ] stress_30 gradient
 [  5.2153990448e-01 -1.8056453588e-03  2.9090090679e+02  4.3962366095e+02 
   -4.1690618612e+01 -2.1287612801e+02  6.6741184562e+02 ] stress_31 gradient
 [ -4.7856851550e-02 -1.4290751963e-03  1.0261297293e+02  1.0359385887e+03 
   -2.3886450071e+02 -4.9472580237e+02  4.2648915844e+02 ] stress_32 gradient
 [ -5.1560255015e-01 -8.4790329285e-04 -2.3861087899e+02  9.7584011478e+02 
   -2.4666461487e+02 -7.3511140276e+02  2.2100877474e+02 ] stress_33 gradient
 [ -7.5570019513e-01 -5.3334159427e-04 -6.7571546270e+02  6.9883776214e+02 
   -1.8183764583e+02 -8.6248811460e+02  1.1212817343e+02 ] stress_34 gradient
 [ -8.6555902942e-01 -4.0956342729e-04 -1.1566293756e+03  4.7517382429e+02 
   -1.2523120238e+02 -9.2234130350e+02  6.0966022048e+01 ] stress_35 gradient
 [ -9.1736072476e-01 -3.7419044319e-04 -1.6465324809e+03  3.3061637885e+02 
   -8.7723110507e+01 -9.5119736895e+02  3.6300461923e+01 ] stress_36 gradient
 [ -9.4347381921e-01 -3.7649290078e-04 -2.1191527774e+03  2.4099628066e+02 
   -6.4196900720e+01 -9.6601438969e+02  2.3634331070e+01 ] stress_37 gradient
 [ -9.5752981549e-01 -3.9369508776e-04 -2.5524123861e+03  1.8520240391e+02 
   -4.9455424064e+01 -9.7411243566e+02  1.6712705648e+01 ] stress_38 gradient
 [ -9.6548460651e-01 -4.1497891723e-04 -2.9272533924e+03  1.5013661477e+02 
   -4.0154415437e+01 -9.7875081172e+02  1.2747669896e+01 ] stress_39 gradient
 [ -9.7008936903e-01 -4.3469634429e-04 -3.2274012736e+03  1.2825983781e+02 
   -3.4337626112e+01 -9.8146198574e+02  1.0430202422e+01 ] stress_40 gradient
 [ -9.7268148035e-01 -4.4969378139e-04 -3.4402323298e+03  1.1530135414e+02 
   -3.0886886047e+01 -9.8299845093e+02  9.1167843317e+00 ] stress_41 gradient
 [ -9.7391255741e-01 -4.5818352850e-04 -3.5567062471e+03  1.0895692438e+02 
   -2.9196092939e+01 -9.8373145726e+02  8.4904525732e+00 ] stress_42 gradient
 [ -9.7391212047e-01 -3.8376782007e-04 -3.5567057032e+03  1.0895085663e+02 
   -2.9195544099e+01 -9.8373095759e+02  8.4908522702e+00 ] stress_43 gradient
 [ -9.0778637913e-01  1.3250218650e-03 -3.5442380864e+03 -1.9342877839e+02 
    3.5023310220e+00 -9.5251947851e+02  6.3190758846e+01 ] stress_44 gradient
 [ -5.5228085662e-01  1.7861712630e-03 -3.4570164340e+03 -1.0214123847e+03 
    9.5177089570e+01 -7.8003514664e+02  3.6548596418e+02 ] stress_45 gradient
 [ -5.5258019719e-01  7.9474158201e-04 -3.4570248092e+03 -1.0206979980e+03 
    9.4492521431e+01 -7.8052646574e+02  3.6529742513e+02 ] stress_46 gradient
 [ -8.0230389395e-01 -3.2548812510e-04 -3.4808030697e+03 -4.4380864990e+02 
   -3.3468355014e+02 -1.2230143004e+03  1.9552022987e+02 ] stress_47 gradient
 [ -7.7266947136e-01  1.0318853859e-03 -3.4755147336e+03 -5.8701317105e+02 
   -3.1326269062e+02 -1.2041220243e+03  2.1926367937e+02 ] stress_48 gradient
 [ -7.7267812685e-01  5.3664090151e-04 -3.4755147336e+03 -5.8699163514e+02 
   -3.1327915582e+02 -1.2041355152e+03  2.1925768385e+02 ] stress_49 gradient
 [ -7.8671672893e-01 -1.9956264941e-04 -3.4763952165e+03 -5.5240663471e+02 
   -3.3289268521e+02 -1.2283062362e+03  2.0922918112e+02 ] stress_50 gradient
 [ -1.0151337896e+00 -3.8846904784e-04 -3.5669647707e+03  3.0807895268e+01 
   -2.4110267026e+02 -1.7156195309e+03  7.0527274107e+00 ] stress_51 gradient
 [ -1.0123107473e+00  4.2277542543e-04 -3.5664878198e+03  1.0348558401e+01 
   -2.3864624534e+02 -1.7134200123e+03  9.2710689865e+00 ] stress_52 gradient
 [ -8.6079940644e-01  1.6955405138e-03 -3.5363924341e+03 -5.3671635135e+02 
   -1.6335825772e+02 -1.5898318988e+03  1.3388794592e+02 ] stress_53 gradient
 [ -2.3218552802e-01  1.6232072017e-03 -3.3433830124e+03 -1.4404687879e+03 
    6.1717058628e+00 -1.0634562626e+03  6.6465031013e+02 ] stress_54 gradient
 [  3.2075087797e-01  9.7904687062e-04 -2.9944762805e+03 -1.4090918342e+03 
    6.7962674945e+01 -5.9227460329e+02  1.1397627180e+03 ] stress_55 gradient
 [  5.6577152038e-01  6.5171182430e-04 -2.6788429938e+03 -1.1581452832e+03 
    7.0315186157e+01 -3.8112331360e+02  1.3526759450e+03 ] stress_56 gradient
 [  6.4008606309e-01  5.5261070119e-04 -2.5313504074e+03 -1.0454662886e+03 
    6.7185517498e+01 -3.1671519245e+02  1.4176217917e+03 ] stress_57 gradient
 [  6.3992127587e-01  1.3743920690e-04 -2.5313683542e+03 -1.0444237159e+03 
    6.6806634948e+01 -3.1682162076e+02  1.4175154712e+03 ] stress_58 gradient
 [  5.8025445290e-01 -1.2387928173e-03 -2.5404072540e+03 -8.0855102691e+02 
   -1.5350103634e+01 -3.6078176363e+02  1.3736379539e+03 ] stress_59 gradient
 [  5.1841560534e-02 -1.6385558766e-03 -2.6726921216e+03  3.4522178536e+02 
   -3.6915564205e+02 -7.8682107632e+02  9.4839498377e+02 ] stress_60 gradient
 [ -5.1115947469e-01 -1.0847869229e-03 -2.9986997707e+03  7.5138003762e+02 
   -4.1148529338e+02 -1.2735222832e+03  4.6259936260e+02 ] stress_61 gradient
 [ -7.2440350224e-01 -8.3237974467e-04 -3.2999179363e+03  6.6108622385e+02 
   -3.2779798638e+02 -1.4676830161e+03  2.6879944663e+02 ] stress_62 gradient
 [ -7.6991117879e-01 -7.8028469325e-04 -3.4058929509e+03  6.1491434995e+02 
   -2.9897912947e+02 -1.5102018796e+03  2.2635957450e+02 ] stress_63 gradient
 [ -7.5492733890e-01  4.7663114009e-04 -3.4030317892e+03  5.1717071874e+02 
   -2.8641215692e+02 -1.4983878364e+03  2.3817674004e+02 ] stress_64 gradient
 [ -4.0233130956e-01  1.4743551945e-03 -3.3129707289e+03 -5.6252969807e+02 
   -1.2195554228e+02 -1.2075427205e+03  5.2909964726e+02 ] stress_65 gradient
 [ -1.9055126667e-01  1.4026925250e-03 -3.2378599318e+03 -9.0356996505e+02 
   -5.6739079778e+01 -1.0296270466e+03  7.0706460138e+02 ] stress_66 gradient
 [ -2.0343000182e-01  1.2238142771e-04 -3.2390002089e+03 -8.6614249286e+02 
   -8.8524929166e+01 -1.0377155490e+03  6.9897908608e+02 ] stress_67 gradient
 [ -6.6104751783e-01 -5.9165097200e-04 -3.3483602699e+03  6.4187585509e+01 
   -6.6059316101e+02 -1.3797477404e+03  3.5708824228e+02 ] stress_68 gradient
 [ -9.2207216204e-01 -4.4134590532e-04 -3.5824180894e+03  2.9756368056e+02 
   -5.5706730022e+02 -1.6172617748e+03  1.1967093449e+02 ] stress_69 gradient
 [ -9.2475704939e-01 -4.4033188106e-04 -3.5881039753e+03  2.9723557389e+02 
   -5.5202400941e+02 -1.6200993637e+03  1.1683465489e+02 ] stress_70 gradient
 [ -9.2439027299e-01  1.7812679808e-05 -3.5880430648e+03  2.9388947431e+02 
   -5.5158694982e+02 -1.6198225502e+03  1.1711124811e+02 ] stress_71 gradient
 [ -9.0871680273e-01  8.1015400511e-04 -3.5852493397e+03  2.0202247006e+02 
   -5.3797846188e+02 -1.6075073444e+03  1.2942684102e+02 ] stress_72 gradient
 [ -7.7737327474e-01  1.5807162128e-03 -3.5585137116e+03 -2.7196494830e+02 
   -4.5373755826e+02 -1.5013849179e+03  2.3555094307e+02 ] stress_73 gradient
 [ -3.8414616580e-01  1.6881477150e-03 -3.4503173673e+03 -1.0283372843e+03 
   -2.6918736218e+02 -1.1771581844e+03  5.5978430753e+02 ] stress_74 gradient
 [  1.2510826874e-01  1.2053380892e-03 -3.2129372066e+03 -1.3343910911e+03 
   -9.9686176109e+01 -7.5069740560e+02  9.8625707822e+02 ] stress_75 gradient
 [  5.0111280144e-01  7.2479589824e-04 -2.8601398169e+03 -1.1558370561e+03 
   -1.6383788900e+01 -4.3186813698e+02  1.3050971147e+03 ] stress_76 gradient
 [  7.1568763145e-01  4.4234814308e-04 -2.4313832340e+03 -8.6361791371e+02 
    1.1554545691e+01 -2.4804544149e+02  1.4889268843e+03 ] stress_77 gradient
 [  8.3025359608e-01  3.0711445578e-04 -1.9587265000e+03 -6.2301826621e+02 
    1.7813334169e+01 -1.4905860908e+02  1.5879176792e+03 ] stress_78 gradient
 [  8.9237663085e-01  2.5342279002e-04 -1.4648865101e+03 -4.5398173771e+02 
    1.7278032216e+01 -9.4998518536e+01  1.6419796627e+03 ] stress_79 gradient
 [  9.2750722744e-01  2.4200368760e-04 -9.6768665389e+02 -3.3990616092e+02 
    1.5099320341e+01 -6.4243232209e+01  1.6727362692e+03 ] stress_80 gradient
 [  9.4831558819e-01  2.5202111003e-04 -4.8257481151e+02 -2.6303500217e+02 
    1.2867553932e+01 -4.5933064100e+01  1.6910469802e+03 ] stress_81 gradient
 [  9.6117128018e-01  2.7228466117e-04 -2.3582150464e+01 -2.1067525334e+02 
    1.0997290140e+01 -3.4572215627e+01  1.7024080866e+03 ] stress_82 gradient
 [  9.6938979318e-01  2.9643852856e-04  3.9645117953e+02 -1.7459096715e+02 
    9.5382904572e+00 -2.7284124155e+01  1.7096970375e+03 ] stress_83 gradient
 [  9.7476853548e-01  3.2062679330e-04  7.6605007644e+02 -1.4956508562e+02 
    8.4417081255e+00 -2.2499346699e+01  1.7144814606e+03 ] stress_84 gradient
 [  9.7831587171e-01  3.4235865427e-04  1.0751093805e+03 -1.3231370360e+02 
    7.6435118119e+00 -1.9336976551e+01  1.7176442961e+03 ] stress_85 gradient
 [  9.8061432055e-01  3.5997461972e-04  1.3153033885e+03 -1.2076482252e+02 
    7.0890004586e+00 -1.7283859326e+01  1.7196971614e+03 ] stress_86 gradient
 [  9.8200148773e-01  3.7236993337e-04  1.4801951664e+03 -1.1363590628e+02 
    6.7384746423e+00 -1.6043194911e+01  1.7209382336e+03 ] stress_87 gradient
 [  9.8266361194e-01  3.7884664170e-04  1.5652316549e+03 -1.1018752835e+02 
    6.5665047726e+00 -1.5450594029e+01  1.7215309904e+03 ] stress_88 gradient
 [  9.8253646362e-01  2.4407974809e-05  1.5652093573e+03 -1.0883516717e+02 
    6.4594809719e+00 -1.5571012929e+01  1.7214306654e+03 ] stress_89 gradient
 [  8.3920993970e-01 -1.7293113896e-03  1.5352367170e+03  4.6617836141e+02 
   -3.9751475399e+01 -1.5999489350e+02  1.6012645411e+03 ] stress_90 gradient
 [  4.9762640735e-01 -1.9154217357e-03  1.4412983774e+03  1.1674628183e+03 
   -9.6222080941e+01 -5.1038925304e+02  1.3097232562e+03 ] stress_91 gradient
 [  5.0297200494e-01 -5.3151406065e-04  1.4415327740e+03  1.1539534221e+03 
   -8.3399714837e+01 -5.0635946710e+02  1.3158406829e+03 ] stress_92 gradient
 [  9.3503852363e-01  1.3789950599e-04  1.5166354135e+03  1.1321171542e+02 
    5.8223454163e+02 -1.3872506872e+02  1.8739166675e+03 ] stress_93 gradient
 [  9.5223798181e-01  1.2863646797e-04  1.5242856628e+03  7.3315629873e+01 
    5.9158951952e+02 -1.2210026552e+02  1.8991545998e+03 ] stress_94 gradient
 [  9.5216270401e-01 -1.6085677857e-04  1.5242731544e+03  7.4106276030e+01 
    5.9150554700e+02 -1.2216871942e+02  1.8990882494e+03 ] stress_95 gradient
 [  9.4902598341e-01 -6.7404936728e-04  1.5237287668e+03  9.6681005078e+01 
    5.8878897192e+02 -1.2512023157e+02  1.8962323844e+03 ] stress_96 gradient
 [  9.1920280454e-01 -1.3298245049e-03  1.5182479100e+03  2.4348149528e+02 
    5.6815862495e+02 -1.5379192120e+02  1.8684847284e+03 ] stress_97 gradient
 [  7.8942353881e-01 -1.8733770271e-03  1.4913727860e+03  6.5831629927e+02 
    4.9574809572e+02 -2.8058562569e+02  1.7457793824e+03 ] stress_98 gradient
 [  4.8526880138e-01 -1.9731185038e-03  1.4113037659e+03  1.2148993009e+03 
    3.5862468298e+02 -5.8145838801e+02  1.4546065421e+03 ] stress_99 gradient
 [  7.1591163388e-02 -1.6353110760e-03  1.2498795354e+03  1.5109606733e+03 
    2.0858463171e+02 -9.9473904365e+02  1.0546471501e+03 ] stress_100 gradient
 [ -2.9986399361e-01 -1.1837617139e-03  1.0041464793e+03  1.4309424900e+03 
    1.0130232698e+02 -1.3688800598e+03  6.9256424179e+02 ] stress_101 gradient
 [ -5.5980948958e-01 -8.3453797393e-04  6.8937029029e+02  1.1692355320e+03 
    4.2501804140e+01 -1.6325289924e+03  4.3741099332e+02 ] stress_102 gradient
 [ -7.2216185506e-01 -6.1839450283e-04  3.2262330974e+02  8.9516940709e+02 
    1.4482424175e+01 -1.7981849232e+03  2.7709284652e+02 ] stress_103 gradient
 [ -8.2024439528e-01 -5.0026221587e-04 -8.3282592500e+01  6.7133974383e+02 
    2.1154123279e+00 -1.8987896659e+03  1.7972963486e+02 ] stress_104 gradient
 [ -8.7983730120e-01 -4.4402533863e-04 -5.1910533660e+02  5.0412435613e+02 
   -2.9651996035e+00 -1.9601988069e+03  1.2029966446e+02 ] stress_105 gradient
 [ -9.1686715374e-01 -4.2530827311e-04 -9.7776951606e+02  3.8293945687e+02 
   -4.7798476089e+00 -1.9985145013e+03  8.3218586123e+01 ] stress_106 gradient
 [ -9.4053392779e-01 -4.2934469390e-04 -1.4532439042e+03  2.9557376898e+02 
   -5.1719023207e+00 -2.0230929477e+03  5.9431569197e+01 ] stress_107 gradient
 [ -9.5610498861e-01 -4.4734355238e-04 -1.9399970669e+03  2.3220750164e+02 
   -4.9750517052e+00 -2.0393180201e+03  4.3729308147e+01 ] stress_108 gradient
 [ -9.6663763852e-01 -4.7396897762e-04 -2.4327433871e+03  1.8573900902e+02 
   -4.5637875946e+00 -2.0503256065e+03  3.3076072459e+01 ] stress_109 gradient
 [ -9.7394726260e-01 -5.0585984339e-04 -2.9263555065e+03  1.5121881170e+02 
   -4.1033108286e+00 -2.0579854476e+03  2.5663214286e+01 ] stress_110 gradient
 [ -9.7913932927e-01 -5.4079456194e-04 -3.4158017831e+03  1.2523408783e+02 
   -3.6640558784e+00 -2.0634402738e+03  2.0384360733e+01 ] stress_111 gradient
 [ -9.8290423873e-01 -5.7722125955e-04 -3.8961093103e+03  1.0542762013e+02 
   -3.2712693794e+00 -2.0674036045e+03  1.6548428462e+01 ] stress_112 gradient
 [ -9.8568479422e-01 -6.1400265878e-04 -4.3624890003e+03  9.0154680726e+01 
   -2.9317203636e+00 -2.0703371288e+03  1.3709750648e+01 ] stress_113 gradient
 [ -9.8777118355e-01 -6.5026097775e-04 -4.8103089364e+03  7.8257731463e+01 
   -2.6435793609e+00 -2.0725421437e+03  1.1575746019e+01 ] stress_114 gradient
 [ -9.8935757265e-01 -6.8528840077e-04 -5.2351085126e+03  6.8913121302e+01 
   -2.4015409178e+00 -2.0742215126e+03  9.9505610016e+00 ] stress_115 gradient
 [ -9.9057660277e-01 -7.1849887397e-04 -5.6326816416e+03  6.1527348488e+01 
   -2.1999336893e+00 -2.0755136424e+03  8.6998959922e+00 ] stress_116 gradient
 [ -9.9152025929e-01 -7.4939231280e-04 -5.9990528262e+03  5.5669258043e+01 
   -2.0332692751e+00 -2.0765154677e+03  7.7306206176e+00 ] stress_117 gradient
 [ -9.9225358323e-01 -7.7754743391e-04 -6.3306430308e+03  5.1021189485e+01 
   -1.8962422198e+00 -2.0772944430e+03  6.9763844829e+00 ] stress_118 gradient
 [ -9.9282276495e-01 -8.0260015458e-04 -6.6241799480e+03  4.7349166713e+01 
   -1.7850106445e+00 -2.0779000352e+03  6.3908222458e+00 ] stress_119 gradient
 [ -9.9326090754e-01 -8.2423522188e-04 -6.8767012612e+03  4.4480695559e+01 
   -1.6962815106e+00 -2.0783667208e+03  5.9391599120e+00 ] stress_120 gradient
 [ -9.9359195924e-01 -8.4219886516e-04 -7.0857754450e+03  4.2287261545e+01 
   -1.6273106159e+00 -2.0787189836e+03  5.5978150973e+00 ] stress_121 gradient
 [ -9.9383285652e-01 -8.5627907167e-04 -7.2493130522e+03  4.0676101653e+01 
   -1.5759026029e+00 -2.0789758106e+03  5.3492009584e+00 ] stress_122 gradient
 [ -9.9399535503e-01 -8.6631212925e-04 -7.3656776568e+03  3.9581780717e+01 
   -1.5405938949e+00 -2.0791486942e+03  5.1817261653e+00 ] stress_123 gradient
 [ -9.9408719478e-01 -8.7218796639e-04 -7.4337658002e+03  3.8960571870e+01 
   -1.5204697620e+00 -2.0792471279e+03  5.0869969820e+00 ] stress_124 gradient
 [ -9.9411147593e-01 -8.7376721368e-04 -7.4520590707e+03  3.8796007147e+01 
   -1.5149813618e+00 -2.0792726107e+03  5.0618158056e+00 ] stress_125 gradient
 [ -9.9371554966e-01 -3.8115357335e-04 -7.4519829326e+03  3.4630129317e+01 
   -1.3263633466e+00 -2.0788843722e+03  5.6377852157e+00 ] stress_126 gradient
 [ -9.5905657326e-01  7.4559513399e-04 -7.4448966492e+03 -1.6545515423e+02 
    7.8412771594e+00 -2.0440153565e+03  5.7328341566e+01 ] stress_127 gradient
 [ -6.5925443767e-01  1.5266284248e-03 -7.3692667060e+03 -1.0465495412e+03 
    4.8487013986e+01 -1.7379675945e+03  5.1102921184e+02 ] stress_128 gradient
 [ -6.6048091611e-02  1.2061924424e-03 -7.1273327174e+03 -1.6569983853e+03 
    7.6647885088e+01 -1.1266786824e+03  1.4172588630e+03 ] stress_129 gradient
 [  3.9007270077e-01  6.7656148033e-04 -6.7550733371e+03 -1.4996500778e+03 
    6.9216408465e+01 -6.5353684320e+02  2.1187048649e+03 ] stress_130 gradient
 [  6.2684955033e-01  3.7442901167e-04 -6.3655490948e+03 -1.1883861197e+03 
    5.4737643225e+01 -4.0676504390e+02  2.4845557562e+03 ] stress_131 gradient
 [  7.3803517143e-01  2.3725824842e-04 -6.0467288840e+03 -9.7031646306e+02 
    4.4629473895e+01 -2.9051733669e+02  2.6569009117e+03 ] stress_132 gradient
 [  7.8491399418e-01  1.8334475583e-04 -5.8544703473e+03 -8.6036256606e+02 
    3.9541727043e+01 -2.4141041018e+02  2.7297048837e+03 ] stress_133 gradient
 [  7.8743153512e-01  1.8056256345e-04 -5.8426553430e+03 -8.5410439487e+02 
    3.9252488360e+01 -2.3877068804e+02  2.7336175586e+03 ] stress_134 gradient
 [  7.3582273653e-01 -1.6478845198e-03 -5.8516480705e+03 -6.1237461292e+02 
   -1.8031058998e+01 -3.1063943446e+02  2.6646573530e+03 ] stress_135 gradient
 [  7.2465087241e-01 -1.7272888013e-03 -5.8537622085e+03 -5.6915612535e+02 
   -2.8113762152e+01 -3.2661412552e+02  2.6493290524e+03 ] stress_136 gradient
 [  7.3578224715e-01 -8.6239256323e-04 -5.8472660499e+03 -7.0277239896e+02 
   -1.8535790562e+01 -3.1513575619e+02  2.6647318573e+03 ] stress_137 gradient
 [  7.3576830681e-01 -1.0362439391e-03 -5.8472671376e+03 -7.0266186938e+02 
   -1.8562317829e+01 -3.1515274475e+02  2.6647150699e+03 ] stress_138 gradient
 [  7.2537028515e-01 -1.8413948712e-03 -5.8486579634e+03 -6.5267879945e+02 
   -3.0294431557e+01 -3.2958272617e+02  2.6508465579e+03 ] stress_139 gradient
 [  4.6913482159e-01 -2.6280099422e-03 -5.8939387161e+03  2.1494336356e+01 
   -1.7671001660e+02 -7.1073082307e+02  2.2845181036e+03 ] stress_140 gradient
 [ -2.2832540816e-01 -2.0192236536e-03 -6.1265194562e+03  7.5956571910e+02 
   -2.8938760154e+02 -1.7987170648e+03  1.2388198633e+03 ] stress_141 gradient
 [ -6.6965115854e-01 -1.4026529800e-03 -6.5243297011e+03  6.6569787442e+02 
   -2.1321171885e+02 -2.5131798744e+03  5.5211803880e+02 ] stress_142 gradient
 [ -8.3659307701e-01 -1.1737945645e-03 -6.9361325006e+03  4.6831579630e+02 
   -1.4196917603e+02 -2.7910137534e+03  2.8507767709e+02 ] stress_143 gradient
 [ -8.9813047214e-01 -1.1030287758e-03 -7.2577214196e+03  3.5496487889e+02 
   -1.0512737592e+02 -2.8953309957e+03  1.8481263483e+02 ] stress_144 gradient
 [ -9.1902480521e-01 -1.0842485442e-03 -7.4271559239e+03  3.0859347026e+02 
   -9.0570126562e+01 -2.9311208912e+03  1.5041355144e+02 ] stress_145 gradient
 [ -9.1902372328e-01 -9.8609495983e-04 -7.4271553801e+03  3.0857509463e+02 
   -9.0569028883e+01 -2.9311188926e+03  1.5041515024e+02 ] stress_146 gradient
 [ -9.0844475817e-01  1.3466105561e-04 -7.4249609708e+03  2.2898728488e+02 
   -8.6521333841e+01 -2.9156682986e+03  1.6589757565e+02 ] stress_147 gradient
 [ -6.8392020056e-01  1.3019031462e-03 -7.3694113614e+03 -6.1609287700e+02 
   -3.8745707793e+01 -2.5812365882e+03  5.0101612239e+02 ] stress_148 gradient
 [ -1.0830072118e-01  1.1824108842e-03 -7.1464558934e+03 -1.4826955328e+03 
    2.4048522525e+01 -1.7140665768e+03  1.3699770108e+03 ] stress_149 gradient
 [  3.1952387898e-01  7.3394650744e-04 -6.8321871106e+03 -1.4921542351e+03 
    4.1317041514e+01 -1.0648608167e+03  2.0205306595e+03 ] stress_150 gradient
 [  5.0166897912e-01  5.1321149523e-04 -6.6020884731e+03 -1.3386199563e+03 
    4.1374486769e+01 -7.8728976066e+02  2.2986791168e+03 ] stress_151 gradient
 [  5.2460500922e-01  4.8494168421e-04 -6.5652338172e+03 -1.3116766659e+03 
    4.1030181138e+01 -7.5228083916e+02  2.3337612896e+03 ] stress_152 gradient
 [  5.1995871699e-01 -5.4569303326e-04 -6.5658026777e+03 -1.2880443327e+03 
    3.1492805414e+01 -7.5773766399e+02  2.3283085660e+03 ] stress_153 gradient
 [  3.1459971638e-01 -1.8417806652e-03 -6.6032528425e+03 -6.1179310187e+02 
   -2.1664910381e+02 -1.0289010356e+03  2.0573323467e+03 ] stress_154 gradient
 [ -2.9205328737e-01 -1.6973382059e-03 -6.8157042957e+03  4.8177323745e+02 
   -5.1386974990e+02 -1.9050099765e+03  1.1818176779e+03 ] stress_155 gradient
 [ -6.4903850342e-01 -1.3380306061e-03 -7.1174777258e+03  6.5707846376e+02 
   -4.5995957446e+02 -2.4600276723e+03  6.2717033002e+02 ] stress_156 gradient
 [ -7.5311155849e-01 -1.2276533581e-03 -7.2900768566e+03  6.1734139233e+02 
   -3.9976536390e+02 -2.6295430038e+03  4.5776697527e+02 ] stress_157 gradient
 [ -7.5234540194e-01 -6.3894641441e-04 -7.2899158789e+03  6.0899209995e+02 
   -3.9922750070e+02 -2.6284647300e+03  4.5884576877e+02 ] stress_158 gradient
 [ -6.0259881365e-01  9.6259882269e-04 -7.2531027182e+03 -9.7596227421e+01 
   -3.3538740086e+02 -2.4105379037e+03  6.7679327210e+02 ] stress_159 gradient
 [ -3.1360182364e-01  1.1750788076e-03 -7.1600407283e+03 -8.3450715076e+02 
   -2.4069250383e+02 -1.9851965709e+03  1.1021782161e+03 ] stress_160 gradient
 [ -3.1469976428e-01  3.7501304981e-04 -7.1601134946e+03 -8.3126401675e+02 
   -2.4367259529e+02 -1.9863608867e+03  1.1010141663e+03 ] stress_161 gradient
 [ -5.7508944712e-01 -9.2340480294e-04 -7.2047934631e+03 -2.3941509177e+02 
   -6.5255411850e+02 -2.3135303382e+03  7.7391782218e+02 ] stress_162 gradient
 [ -9.3995773429e-01 -8.2792988215e-04 -7.4255798649e+03  2.7213687937e+02 
   -6.5960030944e+02 -2.8698366662e+03  2.1772922652e+02 ] stress_163 gradient
 [ -9.6412477903e-01 -8.2482368116e-04 -7.4727077283e+03  2.7640171438e+02 
   -6.0646893797e+02 -2.9160045721e+03  1.7157093427e+02 ] stress_164 gradient
 [ -9.6410844596e-01 -6.2392299889e-04 -7.4727050091e+03  2.7617727659e+02 
   -6.0645448518e+02 -2.9159825869e+03  1.7159331753e+02 ] stress_165 gradient
 [ -9.6327928743e-01 -2.2992059606e-04 -7.4725456629e+03  2.6813927816e+02 
   -6.0585313948e+02 -2.9148178713e+03  1.7275764709e+02 ] stress_166 gradient
 [ -9.5418675715e-01  3.3012079871e-04 -7.4707520664e+03  2.0461997253e+02 
   -6.0031991749e+02 -2.9018685927e+03  1.8570716608e+02 ] stress_167 gradient
 [ -9.0688874651e-01  9.5271577123e-04 -7.4608709702e+03 -2.9866474727e+01 
   -5.7570773628e+02 -2.8337889443e+03  2.5378587072e+02 ] stress_168 gradient
 [ -7.6139619444e-01  1.4159117634e-03 -7.4265043448e+03 -5.1868892829e+02 
   -5.1020810892e+02 -2.6226512954e+03  4.6492214610e+02 ] stress_169 gradient
 [ -4.7884666676e-01  1.5065042473e-03 -7.3428182747e+03 -1.1017457439e+03 
   -3.9925294858e+02 -2.2099622913e+03  8.7761086169e+02 ] stress_170 gradient
 [ -1.1485617324e-01  1.2538685168e-03 -7.1902717487e+03 -1.4617787014e+03 
   -2.7381115628e+02 -1.6755440218e+03  1.4120331697e+03 ] stress_171 gradient
 [  2.2540388886e-01  8.7997942323e-04 -6.9661853034e+03 -1.4896748813e+03 
   -1.7040530851e+02 -1.1737889536e+03  1.9137952545e+03 ] stress_172 gradient
 [  4.8397657411e-01  5.5523596468e-04 -6.6804063165e+03 -1.3098328170e+03 
   -1.0083563003e+02 -7.9106022126e+02  2.2965315224e+03 ] stress_173 gradient
 [  6.6009632937e-01  3.2916359021e-04 -6.3454861569e+03 -1.0684695869e+03 
   -5.8754603226e+01 -5.2951587127e+02  2.5580823880e+03 ] stress_174 gradient
 [  7.7483769252e-01  1.8965563526e-04 -5.9716822605e+03 -8.4319429382e+02 
   -3.4360128550e+01 -3.5862146858e+02  2.7289810249e+03 ] stress_175 gradient
 [  8.4896922154e-01  1.1183348268e-04 -5.5665796154e+03 -6.5861023727e+02 
   -2.0325191928e+01 -2.4792102529e+02  2.8396846633e+03 ] stress_176 gradient
 [  8.9733422944e-01  7.4958176282e-05 -5.1359179480e+03 -5.1534077510e+02 
   -1.2174551951e+01 -1.7552728245e+02  2.9120805404e+03 ] stress_177 gradient
 [  9.2946455425e-01  6.4776223877e-05 -4.6843101406e+03 -4.0644351693e+02 
   -7.3623227808e+00 -1.2733074279e+02  2.9602781081e+03 ] stress_178 gradient
 [  9.5126436397e-01  7.2070386439e-05 -4.2158328454e+03 -3.2409037628e+02 
   -4.4681064859e+00 -9.4566809293e+01  2.9930432131e+03 ] stress_179 gradient
 [  9.6637899332e-01  9.0938800302e-05 -3.7342472856e+03 -2.6162415846e+02 
   -2.6960850538e+00 -7.1810135901e+01  3.0158009994e+03 ] stress_180 gradient
 [  9.7708111191e-01  1.1755330499e-04 -3.2431401103e+03 -2.1390680116e+02 
   -1.5934654824e+00 -5.5670505936e+01  3.0319409333e+03 ] stress_181 gradient
 [  9.8480961179e-01  1.4936137658e-04 -2.7460615312e+03 -1.7713134313e+02 
   -8.9808519590e-01 -4.3997867453e+01  3.0436138067e+03 ] stress_182 gradient
 [  9.9049385545e-01  1.8460341020e-04 -2.2464861656e+03 -1.4851361817e+02 
   -4.5498836368e-01 -3.5400657669e+01  3.0522109795e+03 ] stress_183 gradient
 [  9.9474511608e-01  2.2201454553e-04 -1.7478799296e+03 -1.2602769891e+02 
   -1.7032335041e-01 -2.8962993439e+01  3.0586493662e+03 ] stress_184 gradient
 [  9.9797361401e-01  2.6064931248e-04 -1.2536461968e+03 -1.0819306595e+02 
    1.2806266557e-02 -2.4068290017e+01  3.0635441069e+03 ] stress_185 gradient
 [  1.0004594667e+00  2.9976920233e-04 -7.6715299146e+02 -9.3922695756e+01 
    1.3044097623e-01 -2.0295331098e+01  3.0673168864e+03 ] stress_186 gradient
 [  1.0023973603e+00  3.3877574930e-04 -2.9170090087e+02 -8.2411795567e+01 
    2.0544910951e-01 -1.7351313898e+01  3.0702614850e+03 ] stress_187 gradient
 [  1.0039247630e+00  3.7716906128e-04  1.6950683556e+02 -7.3059278945e+01 
    2.5246640318e-01 -1.5028878055e+01  3.0725837489e+03 ] stress_188 gradient
 [  1.0051401936e+00  4.1451736733e-04  6.1334420426e+02 -6.5413110037e+01 
    2.8118903005e-01 -1.3179123868e+01  3.0744335660e+03 ] stress_189 gradient
 [  1.0061152471e+00  4.5044388417e-04  1.0368282225e+03 -5.9129691032e+01 
    2.9783717553e-01 -1.1694124013e+01  3.0759188556e+03 ] stress_190 gradient
 [  1.0069025846e+00  4.8461435614e-04  1.4371183947e+03 -5.3946189541e+01 
    3.0625272272e-01 -1.0494432007e+01  3.0771183588e+03 ] stress_191 gradient
 [  1.0075413432e+00  5.1672522063e-04  1.8114786432e+03 -4.9660611561e+01 
    3.0991165692e-01 -9.5195885632e+00  3.0780928303e+03 ] stress_192 gradient
 [  1.0080609639e+00  5.4651188262e-04  2.1574458999e+03 -4.6115413949e+01 
    3.1009460373e-01 -8.7271222851e+00  3.0788858375e+03 ] stress_193 gradient
 [  1.0084837513e+00  5.7373264662e-04  2.4726827245e+03 -4.3188517721e+01 
    3.0863102922e-01 -8.0815570722e+00  3.0795313549e+03 ] stress_194 gradient
 [  1.0088265587e+00  5.9816967877e-04  2.7550278822e+03 -4.0784895943e+01 
    3.0606977799e-01 -7.5584094116e+00  3.0800545637e+03 ] stress_195 gradient
 [  1.0091024316e+00  6.1963949447e-04  3.0026388306e+03 -3.8829598116e+01 
    3.0314262897e-01 -7.1366934434e+00  3.0804762485e+03 ] stress_196 gradient
 [  1.0093211700e+00  6.3797477346e-04  3.2137991989e+03 -3.7265130016e+01 
    3.0003253730e-01 -6.8024185736e+00  3.0808103987e+03 ] stress_197 gradient
 [  1.0094902642e+00  6.5304191932e-04  3.3871319749e+03 -3.6046650054e+01 
    2.9747128399e-01 -6.5440925556e+00  3.0810690054e+03 ] stress_198 gradient
 [  1.0096152694e+00  6.6472936917e-04  3.5214760522e+03 -3.5140613227e+01 
    2.9527592222e-01 -6.3527214455e+00  3.0812600625e+03 ] stress_199 gradient
 [  1.0097001182e+00  6.7294749748e-04  3.6158856868e+03 -3.4523024344e+01 
    2.9362940298e-01 -6.2233086046e+00  3.0813899654e+03 ] stress_200 gradient
 [  1.0097474737e+00  6.7763895928e-04  3.6697621067e+03 -3.4177438424e+01 
    2.9289761780e-01 -6.1503577359e+00  3.0814627110e+03 ] stress_201 gradient
 [  1.0097497832e+00  6.7786882018e-04  3.6724013802e+03 -3.4160637194e+01 
    2.9271466891e-01 -6.1468600945e+00  3.0814659086e+03 ] stress_202 gradient
 [  9.7486971733e-01 -9.8286545757e-04  3.6650480695e+03  1.7638923897e+02 
   -7.5068506503e+00 -6.6732555651e+01  3.0295691065e+03 ] stress_203 gradient
 [  6.2181232123e-01 -1.8201267780e-03  3.5707845113e+03  1.1901592781e+03 
   -4.5264481781e+01 -6.8805234702e+02  2.4973517500e+03 ] stress_204 gradient
 [  6.2181519252e-01 -1.2960428721e-03  3.5707845113e+03  1.1901506580e+03 
   -4.5256999263e+01 -6.8804879941e+02  2.4973574657e+03 ] stress_205 gradient
 [  7.8716567008e-01  4.3210899004e-04  3.5861842071e+03  7.1192678287e+02 
    2.8344622553e+02 -4.6323001477e+02  2.8587651988e+03 ] stress_206 gradient
 [  8.2255097944e-01  4.4234145604e-04  3.5913518099e+03  6.0964686529e+02 
    3.4230565720e+02 -4.1289991207e+02  2.9396783085e+03 ] stress_207 gradient
 [  8.2245013050e-01  1.3066648893e-04  3.5913327754e+03  6.1081176979e+02 
    3.4224345533e+02 -4.1306679968e+02  2.9395244235e+03 ] stress_208 gradient
 [  8.1832379189e-01 -4.2321436448e-04  3.5905229921e+03  6.4197318042e+02 
    3.4028757249e+02 -4.2001611931e+02  2.9331216102e+03 ] stress_209 gradient
 [  7.8026052372e-01 -1.1140127878e-03  3.5826437846e+03  8.2827951253e+02 
    3.2588125413e+02 -4.8485045341e+02  2.8733870675e+03 ] stress_210 gradient
 [  6.2476868929e-01 -1.6356899423e-03  3.5458076193e+03  1.2848159935e+03 
    2.7811312890e+02 -7.5187086527e+02  2.6273684301e+03 ] stress_211 gradient
 [  2.9528617547e-01 -1.6702261183e-03  3.4428759540e+03  1.7530514932e+03 
    1.9526318710e+02 -1.3211232240e+03  2.1028862908e+03 ] stress_212 gradient
 [ -1.0520588400e-01 -1.3229850127e-03  3.2485393905e+03  1.8355712901e+03 
    1.1259946671e+02 -2.0163190100e+03  1.4623619442e+03 ] stress_213 gradient
 [ -4.3374988673e-01 -9.2884208589e-04  2.9673651283e+03  1.5740903214e+03 
    5.6993741541e+01 -2.5888174325e+03  9.3488268551e+02 ] stress_214 gradient
 [ -6.5142987394e-01 -6.4850411505e-04  2.6185405168e+03  1.2177881587e+03 
    2.6905966541e+01 -2.9693736280e+03  5.8425081647e+02 ] stress_215 gradient
 [ -7.8389572566e-01 -4.8490377497e-04  2.2197926854e+03  9.0611458157e+02 
    1.2074297177e+01 -3.2016132148e+03  3.7027198617e+02 ] stress_216 gradient
 [ -8.6322240071e-01 -4.0150261273e-04  1.7840058349e+03  6.7042824833e+02 
    4.9809059980e+00 -3.3410348144e+03  2.4181322142e+02 ] stress_217 gradient
 [ -9.1145466336e-01 -3.6742022684e-04  1.3206096715e+03  5.0105905086e+02 
    1.6145043514e+00 -3.4259920957e+03  1.6353614105e+02 ] stress_218 gradient
 [ -9.4158927343e-01 -3.6295184268e-04  8.3723432201e+02  3.8085926454e+02 
    3.2015667432e-02 -3.4791747772e+03  1.1453517397e+02 ] stress_219 gradient
 [ -9.6099848247e-01 -3.7634020541e-04  3.4066423676e+02  2.9520067133e+02 
   -6.9007483204e-01 -3.5134881671e+03  8.2919609640e+01 ] stress_220 gradient
 [ -9.7388018255e-01 -4.0055848966e-04 -1.6275827911e+02  2.3346045745e+02 
   -9.9321746309e-01 -3.5362973052e+03  6.1904120731e+01 ] stress_221 gradient
 [ -9.8267156001e-01 -4.3127190768e-04 -6.6689812481e+02  1.8833219051e+02 
   -1.0925575039e+00 -3.5518853067e+03  4.7541658053e+01 ] stress_222 gradient
 [ -9.8882511434e-01 -4.6567878326e-04 -1.1657877034e+03  1.5486404673e+02 
   -1.0947528636e+00 -3.5628099489e+03  3.7475983109e+01 ] stress_223 gradient
 [ -9.9322998913e-01 -5.0186537293e-04 -1.6535899406e+03  1.2969850353e+02 
   -1.0528580765e+00 -3.5706381766e+03  3.0262975523e+01 ] stress_224 gradient
 [ -9.9644556624e-01 -5.3845265564e-04 -2.1246776855e+03  1.1053787193e+02 
   -9.9413219716e-01 -3.5763593234e+03  2.4992115996e+01 ] stress_225 gradient
 [ -9.9883219289e-01 -5.7439201736e-04 -2.5736266411e+03  9.5793309403e+01 
   -9.3174738154e-01 -3.5806089613e+03  2.1076643189e+01 ] stress_226 gradient
 [ -1.0006276246e+00 -6.0885152330e-04 -2.9952762746e+03  8.4352061923e+01 
   -8.7247266175e-01 -3.5838083065e+03  1.8128447246e+01 ] stress_227 gradient
 [ -1.0019920087e+00 -6.4115530159e-04 -3.3848489190e+03  7.5423862570e+01 
   -8.1886928902e-01 -3.5862416677e+03  1.5886922999e+01 ] stress_228 gradient
 [ -1.0030347248e+00 -6.7073043191e-04 -3.7378236017e+03  6.8444939261e+01 
   -7.7258378053e-01 -3.5881019148e+03  1.4172604619e+01 ] stress_229 gradient
 [ -1.0038321118e+00 -6.9710415515e-04 -4.0502210184e+03  6.3005741883e+01 
   -7.3325024679e-01 -3.5895254560e+03  1.2861185032e+01 ] stress_230 gradient
 [ -1.0044376633e+00 -7.1987746204e-04 -4.3184871505e+03  5.8809904540e+01 
   -7.0141752825e-01 -3.5906072275e+03  1.1864330276e+01 ] stress_231 gradient
 [ -1.0048888307e+00 -7.3871393207e-04 -4.5394889143e+03  5.5643975753e+01 
   -6.7598793987e-01 -3.5914131847e+03  1.1121685471e+01 ] stress_232 gradient
 [ -1.0052120800e+00 -7.5335613835e-04 -4.7107898903e+03  5.3353262383e+01 
   -6.5714443262e-01 -3.5919907956e+03  1.0589283498e+01 ] stress_233 gradient
 [ -1.0054252838e+00 -7.6360173788e-04 -4.8304219079e+03  5.1831785668e+01 
   -6.4433816606e-01 -3.5923720389e+03  1.0237946154e+01 ] stress_234 gradient
 [ -1.0055396570e+00 -7.6930775314e-04 -4.8969698859e+03  5.1011858022e+01 
   -6.3738619130e-01 -3.5925764012e+03  1.0050086598e+01 ] stress_235 gradient
 [ -1.0055396362e+00 -7.3806880135e-04 -4.8969698859e+03  5.1011524755e+01 
   -6.3720324657e-01 -3.5925764012e+03  1.0050086598e+01 ] stress_236 gradient
 [ -9.6902642903e-01  9.3155235654e-04 -4.8892940760e+03 -1.6647481197e+02 
    9.7924033797e+00 -3.5297981823e+03  7.2841543957e+01 ] stress_237 gradient
 [ -7.0322654244e-01  1.7349912725e-03 -4.8215655764e+03 -1.0015206617e+03 
    5.0015899478e+01 -3.0657563643e+03  5.3698399295e+02 ] stress_238 gradient
 [ -7.0997660987e-01  6.9177453831e-04 -4.8253826522e+03 -8.7926158342e+02 
    3.2529015345e+01 -3.0742190147e+03  5.2853287098e+02 ] stress_239 gradient
 [ -8.0023252690e-01 -3.0158528620e-04 -4.9090285323e+03  5.8679769699e+01 
   -8.8665102903e+01 -3.2101004986e+03  3.9284031418e+02 ] stress_240 gradient
 [ -7.5698270578e-01  1.1904677058e-03 -4.9005581667e+03 -1.6671788969e+02 
   -7.5844200373e+01 -3.1358345167e+03  4.6711638569e+02 ] stress_241 gradient
 [ -5.9711613889e-01  1.6697924375e-03 -4.8643363816e+03 -6.6166406438e+02 
   -4.4479347859e+01 -2.8581716226e+03  7.4481953595e+02 ] stress_242 gradient
 [ -6.2771770018e-01  1.4116075965e-04 -4.8806485927e+03 -3.0333840840e+02 
   -9.2885316653e+01 -2.9027769809e+03  7.0024410036e+02 ] stress_243 gradient
 [ -6.9090273866e-01 -3.0789068130e-04 -4.9263102535e+03  1.7296553426e+02 
   -1.4924770924e+02 -3.0036635338e+03  5.9942507225e+02 ] stress_244 gradient
 [ -7.9301815483e-01 -5.9311774236e-04 -5.0422011703e+03  6.0729978391e+02 
   -1.8408532860e+02 -3.1780390919e+03  4.2516494841e+02 ] stress_245 gradient
 [ -7.8875060273e-01  2.8716269377e-04 -5.0413598441e+03  5.7182796119e+02 
   -1.8206706095e+02 -3.1708634247e+03  4.3234118349e+02 ] stress_246 gradient
 [ -6.1372434593e-01  1.4910021650e-03 -5.0009213670e+03 -1.4777005338e+02 
   -1.3316569087e+02 -2.8698075857e+03  7.3341614108e+02 ] stress_247 gradient
 [ -2.2639891654e-02  1.3794491049e-03 -4.7836350345e+03 -1.1521830067e+03 
   -3.4921591876e+01 -1.8403380331e+03  1.7629652144e+03 ] stress_248 gradient
 [  4.3946059622e-01  8.6152122783e-04 -4.4289472441e+03 -1.1918703755e+03 
    6.5183897991e+00 -1.0289704888e+03  2.5744069838e+03 ] stress_249 gradient
 [  6.3783580203e-01  6.1015366746e-04 -4.1249886501e+03 -1.0101667302e+03 
    1.4887285151e+01 -6.7889376532e+02  2.9245184419e+03 ] stress_250 gradient
 [  6.9461814953e-01  5.3873206796e-04 -3.9955185000e+03 -9.3053722766e+02 
    1.5979110869e+01 -5.7843942128e+02  3.0249829351e+03 ] stress_251 gradient
 [  6.9425961249e-01  3.2335289155e-05 -3.9955875681e+03 -9.2668364357e+02 
    1.5540953598e+01 -5.7898855144e+02  3.0244337456e+03 ] stress_252 gradient
 [  6.3465496548e-01 -1.3764989909e-03 -4.0088692102e+03 -5.8329015965e+02 
   -2.2462667624e+01 -6.7723488258e+02  2.9261920307e+03 ] stress_253 gradient
 [  2.0655081587e-01 -1.9903601395e-03 -4.1442423486e+03  6.5714618583e+02 
   -1.4876857192e+02 -1.4120969533e+03  2.1913561511e+03 ] stress_254 gradient
 [ -2.9933478111e-01 -1.6366655618e-03 -4.4433101562e+03  1.1543850942e+03 
   -1.8047908387e+02 -2.3036105192e+03  1.2998622283e+03 ] stress_255 gradient
 [ -5.3642518414e-01 -1.3841963722e-03 -4.7122435845e+03  1.0988064042e+03 
   -1.6014364692e+02 -2.7283589513e+03  8.7511976403e+02 ] stress_256 gradient
 [ -5.8607628140e-01 -1.3288048038e-03 -4.7923191307e+03  1.0604477232e+03 
   -1.5263240556e+02 -2.8179526100e+03  7.8552674340e+02 ] stress_257 gradient
 [ -5.7269724434e-01 -2.5716324928e-05 -4.7891262243e+03  9.4643161724e+02 
   -1.4629385233e+02 -2.7954582600e+03  8.0802072699e+02 ] stress_258 gradient
 [ -2.8558767556e-01  1.1331796792e-03 -4.7013567581e+03 -2.4346722917e+02 
   -7.0296489007e+01 -2.3008135030e+03  1.3026577783e+03 ] stress_259 gradient
 [ -4.3614620919e-02  1.1412552967e-03 -4.5974854941e+03 -7.7927120703e+02 
   -2.8884351814e+01 -1.8795521224e+03  1.7239160074e+03 ] stress_260 gradient
 [ -5.0120668646e-02  1.2362066080e-04 -4.5992341365e+03 -7.1546979667e+02 
   -3.7279928108e+01 -1.8894161889e+03  1.7140522415e+03 ] stress_261 gradient
 [ -2.8475404572e-01 -1.0910507044e-03 -4.6916705212e+03  3.5747437600e+02 
   -1.6146250946e+02 -2.2810417193e+03  1.3224353527e+03 ] stress_262 gradient
 [ -6.0550097046e-01 -1.1073057375e-03 -4.9367520525e+03  8.7495465340e+02 
   -1.9057609345e+02 -2.8444952336e+03  7.5898818352e+02 ] stress_263 gradient
 [ -6.6355251247e-01 -1.0781133077e-03 -5.0115354557e+03  8.8335901519e+02 
   -1.8311918724e+02 -2.9490143400e+03  6.5446952125e+02 ] stress_264 gradient
 [ -6.6353640826e-01 -8.7585352121e-04 -5.0115316488e+03  8.8310743343e+02 
   -1.8310619803e+02 -2.9489883575e+03  6.5449590153e+02 ] stress_265 gradient
 [ -6.6241173548e-01 -4.2514364691e-04 -5.0112880068e+03  8.7098248387e+02 
   -1.8244667529e+02 -2.9471226141e+03  6.5636130696e+02 ] stress_266 gradient
 [ -6.4826340009e-01  2.2861364108e-04 -5.0080956443e+03  7.6378195466e+02 
   -1.7622667150e+02 -2.9232382002e+03  6.8024505157e+02 ] stress_267 gradient
 [ -5.7286123467e-01  9.0713846924e-04 -4.9895149524e+03  3.7171793548e+02 
   -1.5138342865e+02 -2.7942904965e+03  8.0918985296e+02 ] stress_268 gradient
 [ -3.6101093666e-01  1.2879119254e-03 -4.9262182895e+03 -3.3810860620e+02 
   -9.9925433762e+01 -2.4284126650e+03  1.1750613289e+03 ] stress_269 gradient
 [ -2.3318661039e-02  1.2233762040e-03 -4.7843501890e+03 -9.6927191376e+02 
   -4.1569324970e+01 -1.8406862985e+03  1.7627825509e+03 ] stress_270 gradient
 [  3.1685688518e-01  9.2872378787e-04 -4.5521947347e+03 -1.1908760230e+03 
   -2.5103941856e+00 -1.2449275418e+03  2.3585415639e+03 ] stress_271 gradient
 [  5.7140969852e-01  6.4817250535e-04 -4.2419743243e+03 -1.0969691517e+03 
    1.4339725774e+01 -7.9678086840e+02  2.8066913290e+03 ] stress_272 gradient
 [  7.3553939406e-01  4.6132383819e-04 -3.8724472148e+03 -8.9400316953e+02 
    1.8440475349e+01 -5.0652685436e+02  3.0969487337e+03 ] stress_273 gradient
 [  8.3593186828e-01  3.5737846168e-04 -3.4588769233e+03 -6.9477124371e+02 
    1.7399325857e+01 -3.2829639251e+02  3.2751818873e+03 ] stress_274 gradient
 [  8.9712874477e-01  3.0924382013e-04 -3.0123176169e+03 -5.3336635830e+02 
    1.4883809166e+01 -2.1927981513e+02  3.3841999859e+03 ] stress_275 gradient
 [  9.3512362208e-01  2.9584001467e-04 -2.5412412927e+03 -4.1126256272e+02 
    1.2295479699e+01 -1.5139103820e+02  3.4520900315e+03 ] stress_276 gradient
 [  9.5935223316e-01  3.0369935215e-04 -2.0526994281e+03 -3.2097503505e+02 
    1.0063713290e+01 -1.0798377297e+02  3.4954979799e+03 ] stress_277 gradient
 [  9.7525139117e-01  3.2460538807e-04 -1.5530865374e+03 -2.5442757762e+02 
    8.2587614596e+00 -7.9431003248e+01  3.5240514335e+03 ] stress_278 gradient
 [  9.8597935138e-01  3.5349718977e-04 -1.0484545131e+03 -2.0509778482e+02 
    6.8348875361e+00 -6.0123506843e+01  3.5433593989e+03 ] stress_279 gradient
 [  9.9340771797e-01  3.8714640959e-04 -5.4465620126e+02 -1.6817901069e+02 
    5.7205593801e+00 -4.6729028017e+01  3.5567541850e+03 ] stress_280 gradient
 [  9.9867327309e-01  4.2339145070e-04 -4.7395434505e+01 -1.4024537851e+02 
    4.8490014504e+00 -3.7216934411e+01  3.5662658741e+03 ] stress_281 gradient
 [  1.0024842689e+00  4.6070478210e-04  4.3777623067e+02 -1.1887861430e+02 
    4.1645979612e+00 -3.0322577759e+01  3.5731607196e+03 ] stress_282 gradient
 [  1.0052929339e+00  4.9794652852e-04  9.0547365396e+02 -1.0237047414e+02 
    3.6252711830e+00 -2.5234504571e+01  3.5782489157e+03 ] stress_283 gradient
 [  1.0073950945e+00  5.3422798753e-04  1.3505645824e+03 -8.9505465997e+01 
    3.1980907122e+00 -2.1421072913e+01  3.5820624647e+03 ] stress_284 gradient
 [  1.0089879753e+00  5.6882397637e-04  1.7681304935e+03 -7.9413580298e+01 
    2.8585416964e+00 -1.8528521051e+01  3.5849551022e+03 ] stress_285 gradient
 [  1.0102060899e+00  6.0113386441e-04  2.1536199595e+03 -7.1464449113e+01 
    2.5881465200e+00 -1.6314512184e+01  3.5871694467e+03 ] stress_286 gradient
 [  1.0111423393e+00  6.3064808977e-04  2.5028187354e+03 -6.5199060977e+01 
    2.3730012377e+00 -1.4611159387e+01  3.5888725735e+03 ] stress_287 gradient
 [  1.0118617853e+00  6.5692944529e-04  2.8118666187e+03 -6.0281609620e+01 
    2.2032267298e+00 -1.3301041751e+01  3.5901823943e+03 ] stress_288 gradient
 [  1.0124106183e+00  6.7961447367e-04  3.0774238653e+03 -5.6464179206e+01 
    2.0704074471e+00 -1.2301714800e+01  3.5911824466e+03 ] stress_289 gradient
 [  1.0128214836e+00  6.9839816903e-04  3.2965868936e+03 -5.3565771522e+01 
    1.9692379403e+00 -1.1552719250e+01  3.5919310869e+03 ] stress_290 gradient
 [  1.0131173100e+00  7.1303262990e-04  3.4669334239e+03 -5.1455975920e+01 
    1.8953274858e+00 -1.1013082693e+01  3.5924706835e+03 ] stress_291 gradient
 [  1.0133138895e+00  7.2333365005e-04  3.5866442988e+03 -5.0042868293e+01 
    1.8457489388e+00 -1.0654324322e+01  3.5928292155e+03 ] stress_292 gradient
 [  1.0134212093e+00  7.2916821037e-04  3.6543827507e+03 -4.9267437477e+01 
    1.8184898864e+00 -1.0458456231e+01  3.5930250691e+03 ] stress_293 gradient
 [  1.0134227489e+00  7.2925437212e-04  3.6553828793e+03 -4.9256117906e+01 
    1.8179410460e+00 -1.0455957917e+01  3.5930278670e+03 ] stress_294 gradient
 [  9.7573112588e-01 -9.8208980935e-04  3.6473432379e+03  1.7740241525e+02 
   -6.6100460810e+00 -7.5731994532e+01  3.5277534659e+03 ] stress_295 gradient
 [  6.3244051651e-01 -1.8046533008e-03  3.5550723230e+03  1.1773625471e+03 
   -4.4074797890e+01 -6.7794270586e+02  2.9255550669e+03 ] stress_296 gradient
 [  6.3246317060e-01 -1.1762237246e-03  3.5550729757e+03  1.1772926841e+03 
   -4.4009357867e+01 -6.7791547420e+02  2.9255822866e+03 ] stress_297 gradient
 [  8.2660214428e-01  4.1517284131e-04  3.5782897719e+03  5.9638783266e+02 
    3.6827164375e+02 -4.1612723847e+02  3.1873631403e+03 ] stress_298 gradient
 [  8.5475314898e-01  4.2155116841e-04  3.5838761344e+03  5.1234985722e+02 
    4.1548048273e+02 -3.7567798103e+02  3.2278121008e+03 ] stress_299 gradient
 [  8.5472990816e-01  2.1221481263e-04  3.5838717837e+03  5.1265353200e+02 
    4.1546420047e+02 -3.7571595545e+02  3.2277741292e+03 ] stress_300 gradient
 [  8.5378589793e-01 -1.6257433688e-04  3.5836895960e+03  5.2126813902e+02 
    4.1493274040e+02 -3.7728639776e+02  3.2262033035e+03 ] stress_301 gradient
 [  8.4461521856e-01 -6.7717202127e-04  3.5818758773e+03  5.8079808318e+02 
    4.1063020065e+02 -3.9271550626e+02  3.2107748378e+03 ] stress_302 gradient
 [  8.0027634532e-01 -1.2385586170e-03  3.5726114999e+03  7.8125168372e+02 
    3.9297072463e+02 -4.6793784405e+02  3.1355542724e+03 ] stress_303 gradient
 [  6.6907763243e-01 -1.6571644293e-03  3.5417817076e+03  1.1704529892e+03 
    3.4812112931e+02 -6.9196261346e+02  2.9115344287e+03 ] stress_304 gradient
 [  4.1682503231e-01 -1.7499388262e-03  3.4683256637e+03  1.5998446661e+03 
    2.7358046053e+02 -1.1248818925e+03  2.4786209930e+03 ] stress_305 gradient
 [  8.7159581786e-02 -1.5321191698e-03  3.3350328362e+03  1.8144392030e+03 
    1.8896232089e+02 -1.6929767808e+03  1.9105300955e+03 ] stress_306 gradient
 [ -2.2972231277e-01 -1.1893052678e-03  3.1382217839e+03  1.7384504192e+03 
    1.1807487755e+02 -2.2409067502e+03  1.3625981272e+03 ] stress_307 gradient
 [ -4.7778977104e-01 -8.7840897973e-04  2.8852202568e+03  1.4888970487e+03 
    6.9600962363e+01 -2.6711135061e+03  9.3238735101e+02 ] stress_308 gradient
 [ -6.5115624808e-01 -6.5376806422e-04  2.5862525164e+03  1.1987885983e+03 
    3.9976225381e+01 -2.9725559847e+03  6.3094071129e+02 ] stress_309 gradient
 [ -7.6633931173e-01 -5.1017837057e-04  2.2500630256e+03  9.3829404106e+02 
    2.2770822992e+01 -3.1732992842e+03  4.3019398873e+02 ] stress_310 gradient
 [ -8.4182469677e-01 -4.2663177730e-04  1.8830963322e+03  7.2801842028e+02 
    1.2934695358e+01 -3.3051339936e+03  2.9835654986e+02 ] stress_311 gradient
 [ -8.9157564427e-01 -3.8400095232e-04  1.4900637542e+03  5.6596823889e+02 
    7.3023162738e+00 -3.3921898615e+03  2.1129883385e+02 ] stress_312 gradient
 [ -9.2485365382e-01 -3.6859060269e-04  1.0746976908e+03  4.4333395192e+02 
    4.0495245091e+00 -3.4505220748e+03  1.5296524381e+02 ] stress_313 gradient
 [ -9.4753515841e-01 -3.7132516798e-04  6.4011110342e+02  3.5088161669e+02 
    2.1521846083e+00 -3.4903437549e+03  1.1314301474e+02 ] stress_314 gradient
 [ -9.6330487938e-01 -3.8632149859e-04  1.8911729550e+02  2.8093803521e+02 
    1.0367587715e+00 -3.5180710805e+03  8.5414944137e+01 ] stress_315 gradient
 [ -9.7448619172e-01 -4.0974489135e-04 -2.7560639044e+02  2.2763953197e+02 
    3.7888255159e-01 -3.5377568222e+03  6.5728461672e+01 ] stress_316 gradient
 [ -9.8256424025e-01 -4.3904792179e-04 -7.5147288994e+02  1.8665456118e+02 
   -7.6837620140e-03 -3.5519977309e+03  5.1487508146e+01 ] stress_317 gradient
 [ -9.8850361281e-01 -4.7248902562e-04 -1.2359092784e+03  1.5482852511e+02 
   -2.3142753625e-01 -3.5624796714e+03  4.1004944872e+01 ] stress_318 gradient
 [ -9.9294225649e-01 -5.0883677769e-04 -1.7263513329e+03  1.2986829709e+02 
   -3.5656305696e-01 -3.5703218896e+03  3.3162807622e+01 ] stress_319 gradient
 [ -9.9630967920e-01 -5.4718770636e-04 -2.2202549525e+03  1.1010110888e+02 
   -4.2187501744e-01 -3.5762773786e+03  2.7206860265e+01 ] stress_320 gradient
 [ -9.9889991794e-01 -5.8685001597e-04 -2.7150553704e+03  9.4300516595e+01 
   -4.5078059112e-01 -3.5808627903e+03  2.2621887970e+01 ] stress_321 gradient
 [ -1.0009178124e+00 -6.2727541756e-04 -3.2082220817e+03  8.1558679170e+01 
   -4.5791551061e-01 -3.5844378825e+03  1.9046161167e+01 ] stress_322 gradient
 [ -1.0025081131e+00 -6.6800981800e-04 -3.6972147928e+03  7.1199122973e+01 
   -4.5242711036e-01 -3.5872579832e+03  1.6226269310e+01 ] stress_323 gradient
 [ -1.0037747692e+00 -7.0866763021e-04 -4.1795367170e+03  6.2712248973e+01 
   -4.3962084381e-01 -3.5895059692e+03  1.3978349844e+01 ] stress_324 gradient
 [ -1.0047933290e+00 -7.4891320342e-04 -4.6527503469e+03  5.5710927853e+01 
   -4.2297269832e-01 -3.5913147509e+03  1.2169701983e+01 ] stress_325 gradient
 [ -1.0056194706e+00 -7.8844249390e-04 -5.1144165436e+03  4.9899322346e+01 
   -4.0486097833e-01 -3.5927827622e+03  1.0701599524e+01 ] stress_326 gradient
 [ -1.0062947237e+00 -8.2698489313e-04 -5.5622201643e+03  4.5048237000e+01 
   -3.8638336471e-01 -3.5939829539e+03  9.5008971662e+00 ] stress_327 gradient
 [ -1.0068502980e+00 -8.6428470614e-04 -5.9938308390e+03  4.0980144173e+01 
   -3.6845458945e-01 -3.5949712883e+03  8.5128358392e+00 ] stress_328 gradient
 [ -1.0073100585e+00 -9.0011380390e-04 -6.4070992972e+03  3.7555002962e+01 
   -3.5162349715e-01 -3.5957897370e+03  7.6942478127e+00 ] stress_329 gradient
 [ -1.0076922733e+00 -9.3425757584e-04 -6.7999252147e+03  3.4662674520e+01 
   -3.3607303047e-01 -3.5964707784e+03  7.0135566953e+00 ] stress_330 gradient
 [ -1.0080110908e+00 -9.6651454487e-04 -7.1702849489e+03  3.2215900469e+01 
   -3.2180318940e-01 -3.5970383961e+03  6.4455813107e+00 ] stress_331 gradient
 [ -1.0082775800e+00 -9.9670339127e-04 -7.5163288875e+03  3.0144671851e+01 
   -3.0881397603e-01 -3.5975130764e+03  5.9707363034e+00 ] stress_332 gradient
 [ -1.0085003965e+00 -1.0246526094e-03 -7.8362715917e+03  2.8393218233e+01 
   -2.9765422872e-01 -3.5979108085e+03  5.5734333239e+00 ] stress_333 gradient
 [ -1.0086863855e+00 -1.0502089265e-03 -8.1285043717e+03  2.6916560123e+01 
   -2.8740921755e-01 -3.5982420854e+03  5.2420810376e+00 ] stress_334 gradient
 [ -1.0088409776e+00 -1.0732352343e-03 -8.3915746210e+03  2.5678394450e+01 
   -2.7881072355e-01 -3.5985178996e+03  4.9658875223e+00 ] stress_335 gradient
 [ -1.0089683756e+00 -1.0935997645e-03 -8.6240667146e+03  2.4650106259e+01 
   -2.7130990835e-01 -3.5987452465e+03  4.7388572509e+00 ] stress_336 gradient
 [ -1.0090720126e+00 -1.1111990845e-03 -8.8248744742e+03  2.3808171529e+01 
   -2.6508972293e-01 -3.5989301220e+03  4.5537956008e+00 ] stress_337 gradient
 [ -1.0091545102e+00 -1.1259360639e-03 -8.9929455624e+03  2.3134398503e+01 
   -2.5996721630e-01 -3.5990775227e+03  4.4063058647e+00 ] stress_338 gradient
 [ -1.0092178867e+00 -1.1377312761e-03 -9.1274196184e+03  2.2614548654e+01 
   -2.5594239056e-01 -3.5991909463e+03  4.2931904260e+00 ] stress_339 gradient
 [ -1.0092636401e+00 -1.1465243934e-03 -9.2276407668e+03  2.2237796567e+01 
   -2.5301524154e-01 -3.5992723915e+03  4.2116513877e+00 ] stress_340 gradient
 [ -1.0092928940e+00 -1.1522675001e-03 -9.2930874613e+03  2.1996534569e+01 
   -2.5118577549e-01 -3.5993248561e+03  4.1592905318e+00 ] stress_341 gradient
 [ -1.0093062518e+00 -1.1549290853e-03 -9.3234149052e+03  2.1886004994e+01 
   -2.5008809669e-01 -3.5993483403e+03  4.1357081614e+00 ] stress_342 gradient



---------------------
Begin Evaluation  110
---------------------
Parameters for evaluation 110:
                      4.8055544827e+02 fy
                      2.0784547686e+05 E
                      1.8391115989e-02 b
                      8.7013706210e-01 cR1
                      5.4792271748e-02 cR2
                      2.0026049938e-02 a1
                      2.5035127758e-02 a3

blocking fork: workflow_driver1 paramsDakota.in results.out

Active response data for evaluation 110:
Active set vector = { 1 1 1 1 1 1 1 1 1 1 1 1 1 1 1 1 1 1 1 1 1 1 1 1 1 1 1 1 1 1 1 1 1 1 1 1 1 1 1 1 1 1 1 1 1 1 1 1 1 1 1 1 1 1 1 1 1 1 1 1 1 1 1 1 1 1 1 1 1 1 1 1 1 1 1 1 1 1 1 1 1 1 1 1 1 1 1 1 1 1 1 1 1 1 1 1 1 1 1 1 1 1 1 1 1 1 1 1 1 1 1 1 1 1 1 1 1 1 1 1 1 1 1 1 1 1 1 1 1 1 1 1 1 1 1 1 1 1 1 1 1 1 1 1 1 1 1 1 1 1 1 1 1 1 1 1 1 1 1 1 1 1 1 1 1 1 1 1 1 1 1 1 1 1 1 1 1 1 1 1 1 1 1 1 1 1 1 1 1 1 1 1 1 1 1 1 1 1 1 1 1 1 1 1 1 1 1 1 1 1 1 1 1 1 1 1 1 1 1 1 1 1 1 1 1 1 1 1 1 1 1 1 1 1 1 1 1 1 1 1 1 1 1 1 1 1 1 1 1 1 1 1 1 1 1 1 1 1 1 1 1 1 1 1 1 1 1 1 1 1 1 1 1 1 1 1 1 1 1 1 1 1 1 1 1 1 1 1 1 1 1 1 1 1 1 1 1 1 1 1 1 1 1 1 1 1 1 1 1 1 1 1 1 1 1 1 1 1 1 1 1 1 1 1 1 1 1 1 1 1 1 1 1 1 1 1 1 1 1 1 1 1 }
                      2.4220726013e+00 stress_1
                     -2.5172158489e+02 stress_2
                     -4.9427048252e+02 stress_3
                     -4.9579006657e+02 stress_4
                     -1.6683954681e+02 stress_5
                      2.5327522399e+02 stress_6
                      4.0134204957e+02 stress_7
                      4.0221042288e+02 stress_8
                      1.5254357979e+02 stress_9
                     -2.3139286839e+02 stress_10
                     -4.3994086735e+02 stress_11
                     -4.8923822639e+02 stress_12
                     -5.0315850200e+02 stress_13
                     -5.0415202074e+02 stress_14
                     -1.7339223620e+02 stress_15
                     -3.4136005476e+02 stress_16
                     -5.0982877325e+02 stress_17
                     -3.1502543447e+02 stress_18
                      2.1442535390e+01 stress_19
                      2.9854938739e+02 stress_20
                      4.1855598361e+02 stress_21
                      4.6350764969e+02 stress_22
                      4.8207437452e+02 stress_23
                      4.8819900745e+02 stress_24
                      1.5749652065e+02 stress_25
                      2.8561205275e+02 stress_26
                      4.2949034831e+02 stress_27
                      4.6526672975e+02 stress_28
                      3.4239311495e+02 stress_29
                      1.2875337643e+02 stress_30
                     -1.2499446218e+02 stress_31
                     -3.2062762789e+02 stress_32
                     -4.2445707986e+02 stress_33
                     -4.7426824815e+02 stress_34
                     -5.0122801135e+02 stress_35
                     -5.1871627772e+02 stress_36
                     -5.3171692629e+02 stress_37
                     -5.4203316985e+02 stress_38
                     -5.5027227904e+02 stress_39
                     -5.5657931345e+02 stress_40
                     -5.6094005722e+02 stress_41
                     -5.6329527584e+02 stress_42
                     -5.4782810287e+02 stress_43
                     -1.6076744945e+02 stress_44
                      1.0634375126e+02 stress_45
                     -9.9866766491e+01 stress_46
                     -4.5323673398e+02 stress_47
                     -1.5681451101e+02 stress_48
                     -2.5975306832e+02 stress_49
                     -4.1956406927e+02 stress_50
                     -5.6865201907e+02 stress_51
                     -3.9867583941e+02 stress_52
                     -6.1075246400e+01 stress_53
                      2.2648100159e+02 stress_54
                      3.5825641012e+02 stress_55
                      4.0781637828e+02 stress_56
                      4.2287075345e+02 stress_57
                      3.3649961755e+02 stress_58
                      2.1666038586e+01 stress_59
                     -3.1590420546e+02 stress_60
                     -4.7140206595e+02 stress_61
                     -5.2132589221e+02 stress_62
                     -5.3234211776e+02 stress_63
                     -2.6386811322e+02 stress_64
                      1.1339520725e+02 stress_65
                      2.0041682289e+02 stress_66
                     -7.1913837040e+01 stress_67
                     -4.4065021760e+02 stress_68
                     -5.3484477775e+02 stress_69
                     -5.3592418982e+02 stress_70
                     -4.4052384676e+02 stress_71
                     -2.6827670774e+02 stress_72
                     -4.4793135893e+01 stress_73
                      1.6687596977e+02 stress_74
                      3.1134250635e+02 stress_75
                      3.9198794262e+02 stress_76
                      4.3622118860e+02 stress_77
                      4.6305173679e+02 stress_78
                      4.8167610602e+02 stress_79
                      4.9614401467e+02 stress_80
                      5.0820127904e+02 stress_81
                      5.1857600061e+02 stress_82
                      5.2753655692e+02 stress_83
                      5.3514299654e+02 stress_84
                      5.4136096890e+02 stress_85
                      5.4612468470e+02 stress_86
                      5.4936632968e+02 stress_87
                      5.5103009311e+02 stress_88
                      4.7730023825e+02 stress_89
                      4.3688097518e+01 stress_90
                     -1.5949612977e+02 stress_91
                      1.3073932207e+02 stress_92
                      4.7803414268e+02 stress_93
                      4.8437405874e+02 stress_94
                      4.2416784183e+02 stress_95
                      3.1598910637e+02 stress_96
                      1.6530083899e+02 stress_97
                     -1.0243932518e+01 stress_98
                     -1.7745589171e+02 stress_99
                     -3.0620712312e+02 stress_100
                     -3.9079335692e+02 stress_101
                     -4.4297063022e+02 stress_102
                     -4.7592429068e+02 stress_103
                     -4.9840413903e+02 stress_104
                     -5.1528643954e+02 stress_105
                     -5.2914779543e+02 stress_106
                     -5.4133190092e+02 stress_107
                     -5.5253729149e+02 stress_108
                     -5.6312071876e+02 stress_109
                     -5.7325380986e+02 stress_110
                     -5.8300463653e+02 stress_111
                     -5.9238161492e+02 stress_112
                     -6.0136052147e+02 stress_113
                     -6.0989797201e+02 stress_114
                     -6.1793991313e+02 stress_115
                     -6.2542806899e+02 stress_116
                     -6.3230259199e+02 stress_117
                     -6.3850703831e+02 stress_118
                     -6.4398789310e+02 stress_119
                     -6.4869545504e+02 stress_120
                     -6.5258847081e+02 stress_121
                     -6.5563097384e+02 stress_122
                     -6.5779457616e+02 stress_123
                     -6.5906008156e+02 stress_124
                     -6.5940002188e+02 stress_125
                     -5.5682139640e+02 stress_126
                     -3.0591355068e+02 stress_127
                      8.7817973866e-01 stress_128
                      2.1964235288e+02 stress_129
                      3.2865543805e+02 stress_130
                      3.7949371307e+02 stress_131
                      4.0432181353e+02 stress_132
                      4.1560083295e+02 stress_133
                      4.1622997445e+02 stress_134
                      1.1297149176e+01 stress_135
                     -1.0594410686e+01 stress_136
                      1.7452706372e+02 stress_137
                      1.3838610018e+02 stress_138
                     -3.3982382800e+01 stress_139
                     -3.2103986168e+02 stress_140
                     -5.3003553604e+02 stress_141
                     -6.1375446623e+02 stress_142
                     -6.4625969701e+02 stress_143
                     -6.6105907238e+02 stress_144
                     -6.6717397936e+02 stress_145
                     -6.4677269186e+02 stress_146
                     -4.0872454316e+02 stress_147
                     -5.7899545468e+01 stress_148
                      1.9426964960e+02 stress_149
                      3.0663807300e+02 stress_150
                      3.4821580709e+02 stress_151
                      3.5334996353e+02 stress_152
                      1.3689358312e+02 stress_153
                     -2.3149884349e+02 stress_154
                     -4.9338229415e+02 stress_155
                     -5.9021744513e+02 stress_156
                     -6.1725293512e+02 stress_157
                     -4.9452311715e+02 stress_158
                     -8.9460700565e+01 stress_159
                      9.3865548915e+01 stress_160
                     -7.2956038264e+01 stress_161
                     -4.6829337205e+02 stress_162
                     -6.2383816335e+02 stress_163
                     -6.3480460781e+02 stress_164
                     -5.9304041645e+02 stress_165
                     -5.1074864852e+02 stress_166
                     -3.8995968803e+02 stress_167
                     -2.3774564289e+02 stress_168
                     -7.1350947590e+01 stress_169
                      8.3527656007e+01 stress_170
                      2.0609001928e+02 stress_171
                      2.9186997637e+02 stress_172
                      3.4851675048e+02 stress_173
                      3.8603932768e+02 stress_174
                      4.1208206149e+02 stress_175
                      4.3145824586e+02 stress_176
                      4.4698501453e+02 stress_177
                      4.6027413619e+02 stress_178
                      4.7224216795e+02 stress_179
                      4.8341070844e+02 stress_180
                      4.9407391325e+02 stress_181
                      5.0439113992e+02 stress_182
                      5.1444218088e+02 stress_183
                      5.2425717748e+02 stress_184
                      5.3383627438e+02 stress_185
                      5.4316022706e+02 stress_186
                      5.5219794394e+02 stress_187
                      5.6091143158e+02 stress_188
                      5.6925812483e+02 stress_189
                      5.7719403768e+02 stress_190
                      5.8467493031e+02 stress_191
                      5.9165641429e+02 stress_192
                      5.9809766885e+02 stress_193
                      6.0395908077e+02 stress_194
                      6.0920347718e+02 stress_195
                      6.1379893950e+02 stress_196
                      6.1771540056e+02 stress_197
                      6.2092867010e+02 stress_198
                      6.2341822950e+02 stress_199
                      6.2516731036e+02 stress_200
                      6.2616528541e+02 stress_201
                      6.2621416795e+02 stress_202
                      2.6421389063e+02 stress_203
                     -7.9902310959e+01 stress_204
                      2.9027570812e+01 stress_205
                      4.6808138166e+02 stress_206
                      4.8725426800e+02 stress_207
                      4.2242534802e+02 stress_208
                      3.0531264989e+02 stress_209
                      1.4337489252e+02 stress_210
                     -3.9994426323e+01 stress_211
                     -2.0579306846e+02 stress_212
                     -3.2618027874e+02 stress_213
                     -4.0205357052e+02 stress_214
                     -4.4825574965e+02 stress_215
                     -4.7779561356e+02 stress_216
                     -4.9850335325e+02 stress_217
                     -5.1454637931e+02 stress_218
                     -5.2806581829e+02 stress_219
                     -5.4015419778e+02 stress_220
                     -5.5136415429e+02 stress_221
                     -5.6196331009e+02 stress_222
                     -5.7206566529e+02 stress_223
                     -5.8169973127e+02 stress_224
                     -5.9084695437e+02 stress_225
                     -5.9946215725e+02 stress_226
                     -6.0748631577e+02 stress_227
                     -6.1485572613e+02 stress_228
                     -6.2150371284e+02 stress_229
                     -6.2736859981e+02 stress_230
                     -6.3239304920e+02 stress_231
                     -6.3652509904e+02 stress_232
                     -6.3972391775e+02 stress_233
                     -6.4195599290e+02 stress_234
                     -6.4319701111e+02 stress_235
                     -6.3670412905e+02 stress_236
                     -2.7206903288e+02 stress_237
                      2.3001886872e+01 stress_238
                     -1.9708512448e+02 stress_239
                     -4.4708438405e+02 stress_240
                     -1.1610856376e+02 stress_241
                      6.0557457462e+01 stress_242
                     -2.7193096257e+02 stress_243
                     -3.9573878190e+02 stress_244
                     -5.0424038630e+02 stress_245
                     -3.1921925160e+02 stress_246
                      1.5348354416e+01 stress_247
                      2.7655119604e+02 stress_248
                      3.9085536456e+02 stress_249
                      4.3380418864e+02 stress_250
                      4.4619839868e+02 stress_251
                      3.4077301722e+02 stress_252
                      1.9201714188e+01 stress_253
                     -3.1460772742e+02 stress_254
                     -4.8439103916e+02 stress_255
                     -5.4582324420e+02 stress_256
                     -5.5815576915e+02 stress_257
                     -2.8086050290e+02 stress_258
                      9.8354567535e+01 stress_259
                      2.1649756042e+02 stress_260
                      1.8485807203e+00 stress_261
                     -3.6363607719e+02 stress_262
                     -5.2129542352e+02 stress_263
                     -5.4313002520e+02 stress_264
                     -5.0108348536e+02 stress_265
                     -4.0686275423e+02 stress_266
                     -2.6415767168e+02 stress_267
                     -8.6777445044e+01 stress_268
                      9.4414948133e+01 stress_269
                      2.4349559684e+02 stress_270
                      3.4576684521e+02 stress_271
                      4.0971001016e+02 stress_272
                      4.4965733520e+02 stress_273
                      4.7622502941e+02 stress_274
                      4.9557916729e+02 stress_275
                      5.1101891975e+02 stress_276
                      5.2427407863e+02 stress_277
                      5.3624564648e+02 stress_278
                      5.4739682934e+02 stress_279
                      5.5795441050e+02 stress_280
                      5.6801431265e+02 stress_281
                      5.7759871079e+02 stress_282
                      5.8668754212e+02 stress_283
                      5.9523791242e+02 stress_284
                      6.0319369971e+02 stress_285
                      6.1049451179e+02 stress_286
                      6.1707900653e+02 stress_287
                      6.2288746718e+02 stress_288
                      6.2786649239e+02 stress_289
                      6.3196834112e+02 stress_290
                      6.3515245360e+02 stress_291
                      6.3738812312e+02 stress_292
                      6.3865250216e+02 stress_293
                      6.3867117142e+02 stress_294
                      2.6479623754e+02 stress_295
                     -7.1559912929e+01 stress_296
                      5.9067401095e+01 stress_297
                      4.8352951431e+02 stress_298
                      4.9840982130e+02 stress_299
                      4.5488898345e+02 stress_300
                      3.7653516432e+02 stress_301
                      2.6515383838e+02 stress_302
                      1.2708870328e+02 stress_303
                     -2.3150570956e+01 stress_304
                     -1.6390160838e+02 stress_305
                     -2.7720495492e+02 stress_306
                     -3.5822594979e+02 stress_307
                     -4.1271754854e+02 stress_308
                     -4.4922188502e+02 stress_309
                     -4.7463043921e+02 stress_310
                     -4.9346691419e+02 stress_311
                     -5.0846213818e+02 stress_312
                     -5.2121469828e+02 stress_313
                     -5.3265752931e+02 stress_314
                     -5.4333513174e+02 stress_315
                     -5.5356459602e+02 stress_316
                     -5.6352854155e+02 stress_317
                     -5.7332744879e+02 stress_318
                     -5.8301115272e+02 stress_319
                     -5.9259779877e+02 stress_320
                     -6.0208451188e+02 stress_321
                     -6.1145551877e+02 stress_322
                     -6.2068579462e+02 stress_323
                     -6.2974499877e+02 stress_324
                     -6.3859962757e+02 stress_325
                     -6.4721311062e+02 stress_326
                     -6.5554911554e+02 stress_327
                     -6.6356944432e+02 stress_328
                     -6.7123811490e+02 stress_329
                     -6.7851926258e+02 stress_330
                     -6.8537778712e+02 stress_331
                     -6.9178131604e+02 stress_332
                     -6.9769830603e+02 stress_333
                     -7.0310021432e+02 stress_334
                     -7.0796112124e+02 stress_335
                     -7.1225565081e+02 stress_336
                     -7.1596394920e+02 stress_337
                     -7.1906706675e+02 stress_338
                     -7.2154947970e+02 stress_339
                     -7.2339936416e+02 stress_340
                     -7.2460728220e+02 stress_341
                     -7.2516700586e+02 stress_342



------------------------------------------
Begin Dakota derivative estimation routine
------------------------------------------

>>>>> map at X performed previously and results retrieved

>>>>> Dakota finite difference gradient evaluation for x[1] + h:

---------------------
Begin Evaluation  111
---------------------
Parameters for evaluation 111:
                      4.8103600371e+02 fy
                      2.0784547686e+05 E
                      1.8391115989e-02 b
                      8.7013706210e-01 cR1
                      5.4792271748e-02 cR2
                      2.0026049938e-02 a1
                      2.5035127758e-02 a3

(Asynchronous job 111 added to queue)


>>>>> Dakota finite difference gradient evaluation for x[2] + h:

---------------------
Begin Evaluation  112
---------------------
Parameters for evaluation 112:
                      4.8055544827e+02 fy
                      2.0805332234e+05 E
                      1.8391115989e-02 b
                      8.7013706210e-01 cR1
                      5.4792271748e-02 cR2
                      2.0026049938e-02 a1
                      2.5035127758e-02 a3

(Asynchronous job 112 added to queue)


>>>>> Dakota finite difference gradient evaluation for x[3] + h:

---------------------
Begin Evaluation  113
---------------------
Parameters for evaluation 113:
                      4.8055544827e+02 fy
                      2.0784547686e+05 E
                      1.8409507105e-02 b
                      8.7013706210e-01 cR1
                      5.4792271748e-02 cR2
                      2.0026049938e-02 a1
                      2.5035127758e-02 a3

(Asynchronous job 113 added to queue)


>>>>> Dakota finite difference gradient evaluation for x[4] + h:

---------------------
Begin Evaluation  114
---------------------
Parameters for evaluation 114:
                      4.8055544827e+02 fy
                      2.0784547686e+05 E
                      1.8391115989e-02 b
                      8.7100719916e-01 cR1
                      5.4792271748e-02 cR2
                      2.0026049938e-02 a1
                      2.5035127758e-02 a3

(Asynchronous job 114 added to queue)


>>>>> Dakota finite difference gradient evaluation for x[5] + h:

---------------------
Begin Evaluation  115
---------------------
Parameters for evaluation 115:
                      4.8055544827e+02 fy
                      2.0784547686e+05 E
                      1.8391115989e-02 b
                      8.7013706210e-01 cR1
                      5.4847064020e-02 cR2
                      2.0026049938e-02 a1
                      2.5035127758e-02 a3

(Asynchronous job 115 added to queue)


>>>>> Dakota finite difference gradient evaluation for x[6] + h:

---------------------
Begin Evaluation  116
---------------------
Parameters for evaluation 116:
                      4.8055544827e+02 fy
                      2.0784547686e+05 E
                      1.8391115989e-02 b
                      8.7013706210e-01 cR1
                      5.4792271748e-02 cR2
                      2.0046075988e-02 a1
                      2.5035127758e-02 a3

(Asynchronous job 116 added to queue)


>>>>> Dakota finite difference gradient evaluation for x[7] + h:

---------------------
Begin Evaluation  117
---------------------
Parameters for evaluation 117:
                      4.8055544827e+02 fy
                      2.0784547686e+05 E
                      1.8391115989e-02 b
                      8.7013706210e-01 cR1
                      5.4792271748e-02 cR2
                      2.0026049938e-02 a1
                      2.5060162886e-02 a3

(Asynchronous job 117 added to queue)



Blocking synchronize of 7 asynchronous evaluations
First pass: initiating 7 local asynchronous jobs
Initiating evaluation 111
nonblocking fork: workflow_driver1 paramsDakota.in results.out
Initiating evaluation 112
nonblocking fork: workflow_driver1 paramsDakota.in results.out
Initiating evaluation 113
nonblocking fork: workflow_driver1 paramsDakota.in results.out
Initiating evaluation 114
nonblocking fork: workflow_driver1 paramsDakota.in results.out
Initiating evaluation 115
nonblocking fork: workflow_driver1 paramsDakota.in results.out
Initiating evaluation 116
nonblocking fork: workflow_driver1 paramsDakota.in results.out
Initiating evaluation 117
nonblocking fork: workflow_driver1 paramsDakota.in results.out
Waiting on completed jobs
Evaluation 111 has completed
Evaluation 112 has completed
Evaluation 113 has completed
Evaluation 114 has completed
Evaluation 115 has completed
Waiting on completed jobs
Evaluation 116 has completed
Waiting on completed jobs
Evaluation 117 has completed

Active response data for evaluation 111:
Active set vector = { 1 1 1 1 1 1 1 1 1 1 1 1 1 1 1 1 1 1 1 1 1 1 1 1 1 1 1 1 1 1 1 1 1 1 1 1 1 1 1 1 1 1 1 1 1 1 1 1 1 1 1 1 1 1 1 1 1 1 1 1 1 1 1 1 1 1 1 1 1 1 1 1 1 1 1 1 1 1 1 1 1 1 1 1 1 1 1 1 1 1 1 1 1 1 1 1 1 1 1 1 1 1 1 1 1 1 1 1 1 1 1 1 1 1 1 1 1 1 1 1 1 1 1 1 1 1 1 1 1 1 1 1 1 1 1 1 1 1 1 1 1 1 1 1 1 1 1 1 1 1 1 1 1 1 1 1 1 1 1 1 1 1 1 1 1 1 1 1 1 1 1 1 1 1 1 1 1 1 1 1 1 1 1 1 1 1 1 1 1 1 1 1 1 1 1 1 1 1 1 1 1 1 1 1 1 1 1 1 1 1 1 1 1 1 1 1 1 1 1 1 1 1 1 1 1 1 1 1 1 1 1 1 1 1 1 1 1 1 1 1 1 1 1 1 1 1 1 1 1 1 1 1 1 1 1 1 1 1 1 1 1 1 1 1 1 1 1 1 1 1 1 1 1 1 1 1 1 1 1 1 1 1 1 1 1 1 1 1 1 1 1 1 1 1 1 1 1 1 1 1 1 1 1 1 1 1 1 1 1 1 1 1 1 1 1 1 1 1 1 1 1 1 1 1 1 1 1 1 1 1 1 1 1 1 1 1 1 1 1 1 1 1 }
                      2.4220726013e+00 stress_1
                     -2.5172159448e+02 stress_2
                     -4.9475012717e+02 stress_3
                     -4.9627091992e+02 stress_4
                     -1.6731207066e+02 stress_5
                      2.5313400505e+02 stress_6
                      4.0156313618e+02 stress_7
                      4.0243399110e+02 stress_8
                      1.5276374356e+02 stress_9
                     -2.3138841863e+02 stress_10
                     -4.4034425155e+02 stress_11
                     -4.8971694811e+02 stress_12
                     -5.0364384965e+02 stress_13
                     -5.0463752473e+02 stress_14
                     -1.7386238736e+02 stress_15
                     -3.4183020608e+02 stress_16
                     -5.1030485067e+02 stress_17
                     -3.1549956833e+02 stress_18
                      2.1058545857e+01 stress_19
                      2.9851994211e+02 stress_20
                      4.1880657897e+02 stress_21
                      4.6387053857e+02 stress_22
                      4.8247786619e+02 stress_23
                      4.8861426278e+02 stress_24
                      1.5789584689e+02 stress_25
                      2.8601137869e+02 stress_26
                      4.2988843059e+02 stress_27
                      4.6566601898e+02 stress_28
                      3.4279199597e+02 stress_29
                      1.2913446366e+02 stress_30
                     -1.2474366454e+02 stress_31
                     -3.2065062675e+02 stress_32
                     -4.2470497014e+02 stress_33
                     -4.7463151980e+02 stress_34
                     -5.0164404905e+02 stress_35
                     -5.1915718520e+02 stress_36
                     -5.3217036614e+02 stress_37
                     -5.4249335366e+02 stress_38
                     -5.5073627868e+02 stress_39
                     -5.5704552158e+02 stress_40
                     -5.6140750841e+02 stress_41
                     -5.6376331737e+02 stress_42
                     -5.4829614419e+02 stress_43
                     -1.6120373555e+02 stress_44
                      1.0607831822e+02 stress_45
                     -1.0013234153e+02 stress_46
                     -4.5362210059e+02 stress_47
                     -1.5718565420e+02 stress_48
                     -2.6012421562e+02 stress_49
                     -4.1994194343e+02 stress_50
                     -5.6913980786e+02 stress_51
                     -3.9916227401e+02 stress_52
                     -6.1488911389e+01 stress_53
                      2.2636947037e+02 stress_54
                      3.5841066918e+02 stress_55
                      4.0808838993e+02 stress_56
                      4.2317847303e+02 stress_57
                      3.3680725823e+02 stress_58
                      2.1945035345e+01 stress_59
                     -3.1587923055e+02 stress_60
                     -4.7164782081e+02 stress_61
                     -5.2167414130e+02 stress_62
                     -5.3271223185e+02 stress_63
                     -2.6423103546e+02 stress_64
                      1.1320172107e+02 stress_65
                      2.0032515020e+02 stress_66
                     -7.2011676952e+01 stress_67
                     -4.4096796929e+02 stress_68
                     -5.3528799869e+02 stress_69
                     -5.3636869998e+02 stress_70
                     -4.4096818107e+02 stress_71
                     -2.6871351985e+02 stress_72
                     -4.5166860740e+01 stress_73
                      1.6669124163e+02 stress_74
                      3.1140261395e+02 stress_75
                      3.9222881151e+02 stress_76
                      4.3656518756e+02 stress_77
                      4.6345078400e+02 stress_78
                      4.8210499564e+02 stress_79
                      4.9658977666e+02 stress_80
                      5.0865703303e+02 stress_81
                      5.1903792689e+02 stress_82
                      5.2800242864e+02 stress_83
                      5.3561145014e+02 stress_84
                      5.4183112517e+02 stress_85
                      5.4659594411e+02 stress_86
                      5.4983825484e+02 stress_87
                      5.5150233603e+02 stress_88
                      4.7777242022e+02 stress_89
                      4.4091433982e+01 stress_90
                     -1.5925696699e+02 stress_91
                      1.3098103377e+02 stress_92
                      4.7848341849e+02 stress_93
                      4.8483161124e+02 stress_94
                      4.2462535825e+02 stress_95
                      3.1644511822e+02 stress_96
                      1.6574253599e+02 stress_97
                     -9.8645661139e+00 stress_98
                     -1.7722267845e+02 stress_99
                     -3.0617274912e+02 stress_100
                     -3.9093753492e+02 stress_101
                     -4.4323974319e+02 stress_102
                     -4.7627141769e+02 stress_103
                     -4.9879838694e+02 stress_104
                     -5.1570931144e+02 stress_105
                     -5.2958845055e+02 stress_106
                     -5.4178391999e+02 stress_107
                     -5.5299678615e+02 stress_108
                     -5.6358526948e+02 stress_109
                     -5.7372186908e+02 stress_110
                     -5.8347518759e+02 stress_111
                     -5.9285397274e+02 stress_112
                     -6.0183421354e+02 stress_113
                     -6.1037266517e+02 stress_114
                     -6.1841536742e+02 stress_115
                     -6.2590410812e+02 stress_116
                     -6.3277908383e+02 stress_117
                     -6.3898388194e+02 stress_118
                     -6.4446500976e+02 stress_119
                     -6.4917278187e+02 stress_120
                     -6.5306595643e+02 stress_121
                     -6.5610857501e+02 stress_122
                     -6.5827225528e+02 stress_123
                     -6.5953780472e+02 stress_124
                     -6.5987775669e+02 stress_125
                     -5.5729894133e+02 stress_126
                     -3.0637445511e+02 stress_127
                      5.6132828903e-01 stress_128
                      2.1961064892e+02 stress_129
                      3.2884298314e+02 stress_130
                      3.7979504934e+02 stress_131
                      4.0467657359e+02 stress_132
                      4.1597811510e+02 stress_133
                      4.1660846604e+02 stress_134
                      1.1650865916e+01 stress_135
                     -1.0246059477e+01 stress_136
                      1.7488075812e+02 stress_137
                      1.3873978791e+02 stress_138
                     -3.3633683411e+01 stress_139
                     -3.2081426701e+02 stress_140
                     -5.3014528186e+02 stress_141
                     -6.1407637489e+02 stress_142
                     -6.4666181990e+02 stress_143
                     -6.6149075126e+02 stress_144
                     -6.6761569129e+02 stress_145
                     -6.4721440328e+02 stress_146
                     -4.0916117721e+02 stress_147
                     -5.8228314388e+01 stress_148
                      1.9421757218e+02 stress_149
                      3.0679166461e+02 stress_150
                      3.4845695190e+02 stress_151
                      3.5360213241e+02 stress_152
                      1.3714352483e+02 stress_153
                     -2.3134754255e+02 stress_154
                     -4.9352269288e+02 stress_155
                     -5.9052948470e+02 stress_156
                     -6.1761499095e+02 stress_157
                     -4.9488480553e+02 stress_158
                     -8.9750463508e+01 stress_159
                      9.3714681727e+01 stress_160
                     -7.3107429927e+01 stress_161
                     -4.6856979734e+02 stress_162
                     -6.2428997839e+02 stress_163
                     -6.3526802604e+02 stress_164
                     -5.9350382686e+02 stress_165
                     -5.1121166130e+02 stress_166
                     -3.9041833759e+02 stress_167
                     -2.3818158326e+02 stress_168
                     -7.1716997400e+01 stress_169
                      8.3297393508e+01 stress_170
                      2.0603473176e+02 stress_171
                      2.9197827210e+02 stress_172
                      3.4874935177e+02 stress_173
                      3.8635658591e+02 stress_174
                      4.1245446508e+02 stress_175
                      4.3186627202e+02 stress_176
                      4.4741627825e+02 stress_177
                      4.6072083527e+02 stress_178
                      4.7269933835e+02 stress_179
                      4.8387513820e+02 stress_180
                      4.9454348258e+02 stress_181
                      5.0486442044e+02 stress_182
                      5.1491819072e+02 stress_183
                      5.2473522843e+02 stress_184
                      5.3431587528e+02 stress_185
                      5.4364102130e+02 stress_186
                      5.5267966842e+02 stress_187
                      5.6139388921e+02 stress_188
                      5.6974116585e+02 stress_189
                      5.7767754667e+02 stress_190
                      5.8515881718e+02 stress_191
                      5.9214060770e+02 stress_192
                      5.9858211164e+02 stress_193
                      6.0444372645e+02 stress_194
                      6.0968828738e+02 stress_195
                      6.1428388208e+02 stress_196
                      6.1820044810e+02 stress_197
                      6.2141379878e+02 stress_198
                      6.2390341816e+02 stress_199
                      6.2565253973e+02 stress_200
                      6.2665053750e+02 stress_201
                      6.2669942115e+02 stress_202
                      2.6468239814e+02 stress_203
                     -7.9603445418e+01 stress_204
                      2.9326437706e+01 stress_205
                      4.6845950280e+02 stress_206
                      4.8764939178e+02 stress_207
                      4.2282042347e+02 stress_208
                      3.0570574583e+02 stress_209
                      1.4374971682e+02 stress_210
                     -3.9694285017e+01 stress_211
                     -2.0565124606e+02 stress_212
                     -3.2623093519e+02 stress_213
                     -4.0226212412e+02 stress_214
                     -4.4856890397e+02 stress_215
                     -4.7817240896e+02 stress_216
                     -4.9891825272e+02 stress_217
                     -5.1498444292e+02 stress_218
                     -5.2851835225e+02 stress_219
                     -5.4061605060e+02 stress_220
                     -5.5183219123e+02 stress_221
                     -5.6243556708e+02 stress_222
                     -5.7254087584e+02 stress_223
                     -5.8217705588e+02 stress_224
                     -5.9132582214e+02 stress_225
                     -5.9994217031e+02 stress_226
                     -6.0796719035e+02 stress_227
                     -6.1533725537e+02 stress_228
                     -6.2198574238e+02 stress_229
                     -6.2785101193e+02 stress_230
                     -6.3287575184e+02 stress_231
                     -6.3700801813e+02 stress_232
                     -6.4020699192e+02 stress_233
                     -6.4243916935e+02 stress_234
                     -6.4368024243e+02 stress_235
                     -6.3718736037e+02 stress_236
                     -2.7253473481e+02 stress_237
                      2.2663889508e+01 stress_238
                     -1.9742636197e+02 stress_239
                     -4.4746898726e+02 stress_240
                     -1.1647240233e+02 stress_241
                      6.0270421774e+01 stress_242
                     -2.7223269281e+02 stress_243
                     -3.9607087045e+02 stress_244
                     -5.0462154851e+02 stress_245
                     -3.1959836631e+02 stress_246
                      1.5053308196e+01 stress_247
                      2.7654025827e+02 stress_248
                      3.9106657727e+02 stress_249
                      4.3411075632e+02 stress_250
                      4.4653225738e+02 stress_251
                      3.4110670402e+02 stress_252
                      1.9506782349e+01 stress_253
                     -3.1450840004e+02 stress_254
                     -4.8453492024e+02 stress_255
                     -5.4608109802e+02 stress_256
                     -5.5843748811e+02 stress_257
                     -2.8113580061e+02 stress_258
                      9.8217213522e+01 stress_259
                      2.1647651853e+02 stress_260
                      1.8244170873e+00 stress_261
                     -3.6377296954e+02 stress_262
                     -5.2158648438e+02 stress_263
                     -5.4344898678e+02 stress_264
                     -5.0140243924e+02 stress_265
                     -4.0718116865e+02 stress_266
                     -2.6446929513e+02 stress_267
                     -8.7052855287e+01 stress_268
                      9.4241335737e+01 stress_269
                      2.4348431077e+02 stress_270
                      3.4591910127e+02 stress_271
                      4.0998463766e+02 stress_272
                      4.5001085284e+02 stress_273
                      4.7662679263e+02 stress_274
                      4.9601033469e+02 stress_275
                      5.1146834016e+02 stress_276
                      5.2473513696e+02 stress_277
                      5.3671434081e+02 stress_278
                      5.4787067547e+02 stress_279
                      5.5843182354e+02 stress_280
                      5.6849425384e+02 stress_281
                      5.7808048161e+02 stress_282
                      5.8717066126e+02 stress_283
                      5.9572204065e+02 stress_284
                      6.0367859253e+02 stress_285
                      6.1097998927e+02 stress_286
                      6.1756493337e+02 stress_287
                      6.2337373931e+02 stress_288
                      6.2835302793e+02 stress_289
                      6.3245507383e+02 stress_290
                      6.3563932827e+02 stress_291
                      6.3787509212e+02 stress_292
                      6.3913952267e+02 stress_293
                      6.3915819268e+02 stress_294
                      2.6526516331e+02 stress_295
                     -7.1255933463e+01 stress_296
                      5.9371391283e+01 stress_297
                      4.8392662465e+02 stress_298
                      4.9882046478e+02 stress_299
                      4.5529961579e+02 stress_300
                      3.7694534396e+02 stress_301
                      2.6555961759e+02 stress_302
                      1.2747319619e+02 stress_303
                     -2.2829093360e+01 stress_304
                     -1.6370133539e+02 stress_305
                     -2.7716312077e+02 stress_306
                     -3.5833642188e+02 stress_307
                     -4.1294724511e+02 stress_308
                     -4.4953489318e+02 stress_309
                     -4.7499879033e+02 stress_310
                     -4.9387152881e+02 stress_311
                     -5.0889064987e+02 stress_312
                     -5.2165919238e+02 stress_313
                     -5.3311291531e+02 stress_314
                     -5.4379808969e+02 stress_315
                     -5.5403292221e+02 stress_316
                     -5.6400074571e+02 stress_317
                     -5.7380250400e+02 stress_318
                     -5.8348833840e+02 stress_319
                     -5.9307660065e+02 stress_320
                     -6.0256455686e+02 stress_321
                     -6.1193653212e+02 stress_322
                     -6.2116757109e+02 stress_323
                     -6.3022738301e+02 stress_324
                     -6.3908250054e+02 stress_325
                     -6.4769637996e+02 stress_326
                     -6.5603270885e+02 stress_327
                     -6.6405330417e+02 stress_328
                     -6.7172219530e+02 stress_329
                     -6.7900352634e+02 stress_330
                     -6.8586220382e+02 stress_331
                     -6.9226586057e+02 stress_332
                     -6.9818295744e+02 stress_333
                     -7.0358495495e+02 stress_334
                     -7.0844593601e+02 stress_335
                     -7.1274052669e+02 stress_336
                     -7.1644887479e+02 stress_337
                     -7.1955203190e+02 stress_338
                     -7.2203447524e+02 stress_339
                     -7.2388438166e+02 stress_340
                     -7.2509231372e+02 stress_341
                     -7.2565204381e+02 stress_342


Active response data for evaluation 112:
Active set vector = { 1 1 1 1 1 1 1 1 1 1 1 1 1 1 1 1 1 1 1 1 1 1 1 1 1 1 1 1 1 1 1 1 1 1 1 1 1 1 1 1 1 1 1 1 1 1 1 1 1 1 1 1 1 1 1 1 1 1 1 1 1 1 1 1 1 1 1 1 1 1 1 1 1 1 1 1 1 1 1 1 1 1 1 1 1 1 1 1 1 1 1 1 1 1 1 1 1 1 1 1 1 1 1 1 1 1 1 1 1 1 1 1 1 1 1 1 1 1 1 1 1 1 1 1 1 1 1 1 1 1 1 1 1 1 1 1 1 1 1 1 1 1 1 1 1 1 1 1 1 1 1 1 1 1 1 1 1 1 1 1 1 1 1 1 1 1 1 1 1 1 1 1 1 1 1 1 1 1 1 1 1 1 1 1 1 1 1 1 1 1 1 1 1 1 1 1 1 1 1 1 1 1 1 1 1 1 1 1 1 1 1 1 1 1 1 1 1 1 1 1 1 1 1 1 1 1 1 1 1 1 1 1 1 1 1 1 1 1 1 1 1 1 1 1 1 1 1 1 1 1 1 1 1 1 1 1 1 1 1 1 1 1 1 1 1 1 1 1 1 1 1 1 1 1 1 1 1 1 1 1 1 1 1 1 1 1 1 1 1 1 1 1 1 1 1 1 1 1 1 1 1 1 1 1 1 1 1 1 1 1 1 1 1 1 1 1 1 1 1 1 1 1 1 1 1 1 1 1 1 1 1 1 1 1 1 1 1 1 1 1 1 1 }
                      2.4244946739e+00 stress_1
                     -2.5197329673e+02 stress_2
                     -4.9428508542e+02 stress_3
                     -4.9580499858e+02 stress_4
                     -1.6653391485e+02 stress_5
                      2.5366889999e+02 stress_6
                      4.0152188674e+02 stress_7
                      4.0238865214e+02 stress_8
                      1.5247557267e+02 stress_9
                     -2.3162860927e+02 stress_10
                     -4.3997771715e+02 stress_11
                     -4.8924896456e+02 stress_12
                     -5.0317645152e+02 stress_13
                     -5.0417080128e+02 stress_14
                     -1.7309566872e+02 stress_15
                     -3.4123145494e+02 stress_16
                     -5.0986265016e+02 stress_17
                     -3.1486645967e+02 stress_18
                      2.1847558262e+01 stress_19
                      2.9887661707e+02 stress_20
                      4.1872346443e+02 stress_21
                      4.6360800909e+02 stress_22
                      4.8215278808e+02 stress_23
                      4.8827180876e+02 stress_24
                      1.5725460551e+02 stress_25
                      2.8549825343e+02 stress_26
                      4.2952167614e+02 stress_27
                      4.6533263956e+02 stress_28
                      3.4233656099e+02 stress_29
                      1.2850103847e+02 stress_30
                     -1.2536993836e+02 stress_31
                     -3.2092472197e+02 stress_32
                     -4.2463327299e+02 stress_33
                     -4.7437904615e+02 stress_34
                     -5.0131309737e+02 stress_35
                     -5.1879402761e+02 stress_36
                     -5.3179516677e+02 stress_37
                     -5.4211499416e+02 stress_38
                     -5.5035853290e+02 stress_39
                     -5.5666966937e+02 stress_40
                     -5.6103353273e+02 stress_41
                     -5.6339051714e+02 stress_42
                     -5.4790787720e+02 stress_43
                     -1.6049202089e+02 stress_44
                      1.0671506474e+02 stress_45
                     -9.9701519192e+01 stress_46
                     -4.5330462155e+02 stress_47
                     -1.5660024831e+02 stress_48
                     -2.5964173999e+02 stress_49
                     -4.1960578135e+02 stress_50
                     -5.6873286656e+02 stress_51
                     -3.9858806983e+02 stress_52
                     -6.0722864477e+01 stress_53
                      2.2681837110e+02 stress_54
                      3.5845984212e+02 stress_55
                      4.0795176689e+02 stress_56
                      4.2298554645e+02 stress_57
                      3.3652811867e+02 stress_58
                      2.1408445988e+01 stress_59
                     -3.1624489862e+02 stress_60
                     -4.7162752032e+02 stress_61
                     -5.2149885866e+02 stress_62
                     -5.3250425659e+02 stress_63
                     -2.6376899343e+02 stress_64
                      1.1370177556e+02 stress_65
                      2.0070848159e+02 stress_66
                     -7.1888312767e+01 stress_67
                     -4.4077322000e+02 stress_68
                     -5.3493651027e+02 stress_69
                     -5.3601571204e+02 stress_70
                     -4.4052014510e+02 stress_71
                     -2.6810830622e+02 stress_72
                     -4.4464514138e+01 stress_73
                      1.6722695328e+02 stress_74
                      3.1159307606e+02 stress_75
                      3.9213857843e+02 stress_76
                      4.3631310368e+02 stress_77
                      4.6311554762e+02 stress_78
                      4.8172876539e+02 stress_79
                      4.9619430858e+02 stress_80
                      5.0825366166e+02 stress_81
                      5.1863260023e+02 stress_82
                      5.2759818101e+02 stress_83
                      5.3520965128e+02 stress_84
                      5.4143214298e+02 stress_85
                      5.4619952195e+02 stress_86
                      5.4944374440e+02 stress_87
                      5.5110885457e+02 stress_88
                      4.7730533102e+02 stress_89
                      4.3328625584e+01 stress_90
                     -1.5989430289e+02 stress_91
                      1.3062881029e+02 stress_92
                      4.7806297255e+02 stress_93
                      4.8440095534e+02 stress_94
                      4.2413456842e+02 stress_95
                      3.1584916410e+02 stress_96
                      1.6502457101e+02 stress_97
                     -1.0633239565e+01 stress_98
                     -1.7786598700e+02 stress_99
                     -3.0654700533e+02 stress_100
                     -3.9103936196e+02 stress_101
                     -4.4314404050e+02 stress_102
                     -4.7605278129e+02 stress_103
                     -4.9850808713e+02 stress_104
                     -5.1537871046e+02 stress_105
                     -5.2923618619e+02 stress_106
                     -5.4142113907e+02 stress_107
                     -5.5263027753e+02 stress_108
                     -5.6321924450e+02 stress_109
                     -5.7335896876e+02 stress_110
                     -5.8311706050e+02 stress_111
                     -5.9250161353e+02 stress_112
                     -6.0148816797e+02 stress_113
                     -6.1003315732e+02 stress_114
                     -6.1808238110e+02 stress_115
                     -6.2557744169e+02 stress_116
                     -6.3245838760e+02 stress_117
                     -6.3866868744e+02 stress_118
                     -6.4415475070e+02 stress_119
                     -6.4886681054e+02 stress_120
                     -6.5276356091e+02 stress_121
                     -6.5580899117e+02 stress_122
                     -6.5797467934e+02 stress_123
                     -6.5924140630e+02 stress_124
                     -6.5958167494e+02 stress_125
                     -5.5690066136e+02 stress_126
                     -3.0575860104e+02 stress_127
                      1.1955316788e+00 stress_128
                      2.1989307435e+02 stress_129
                      3.2879603244e+02 stress_130
                      3.7957150084e+02 stress_131
                      4.0437109406e+02 stress_132
                      4.1563891134e+02 stress_133
                      4.1626747479e+02 stress_134
                      1.0954570511e+01 stress_135
                     -1.0953499723e+01 stress_136
                      1.7434775211e+02 stress_137
                      1.3817065432e+02 stress_138
                     -3.4365187934e+01 stress_139
                     -3.2158624687e+02 stress_140
                     -5.3045528928e+02 stress_141
                     -6.1404599512e+02 stress_142
                     -6.4650366203e+02 stress_143
                     -6.6128834019e+02 stress_144
                     -6.6739934958e+02 stress_145
                     -6.4697766131e+02 stress_146
                     -4.0869655820e+02 stress_147
                     -5.7628875700e+01 stress_148
                      1.9451547527e+02 stress_149
                      3.0679063437e+02 stress_150
                      3.4832247050e+02 stress_151
                      3.5345074927e+02 stress_152
                      1.3678014816e+02 stress_153
                     -2.3188177550e+02 stress_154
                     -4.9373514083e+02 stress_155
                     -5.9049553845e+02 stress_156
                     -6.1750807979e+02 stress_157
                     -4.9465590062e+02 stress_158
                     -8.9260533032e+01 stress_159
                      9.4109915129e+01 stress_160
                     -7.2877965801e+01 stress_161
                     -4.6848535288e+02 stress_162
                     -6.2401028651e+02 stress_163
                     -6.3497609044e+02 stress_164
                     -5.9317014273e+02 stress_165
                     -5.1079648197e+02 stress_166
                     -3.8989110971e+02 stress_167
                     -2.3754762697e+02 stress_168
                     -7.1056598857e+01 stress_169
                      8.3840875727e+01 stress_170
                      2.0635071816e+02 stress_171
                      2.9205292458e+02 stress_172
                      3.4863216977e+02 stress_173
                      3.8610774256e+02 stress_174
                      4.1212147564e+02 stress_175
                      4.3148148639e+02 stress_176
                      4.4700059456e+02 stress_177
                      4.6028760457e+02 stress_178
                      4.7225715701e+02 stress_179
                      4.8342962353e+02 stress_180
                      4.9409836398e+02 stress_181
                      5.0442220541e+02 stress_182
                      5.1448057454e+02 stress_183
                      5.2430334987e+02 stress_184
                      5.3389047958e+02 stress_185
                      5.4322256568e+02 stress_186
                      5.5226839225e+02 stress_187
                      5.6098986195e+02 stress_188
                      5.6934431990e+02 stress_189
                      5.7728770178e+02 stress_190
                      5.8477569832e+02 stress_191
                      5.9176385796e+02 stress_192
                      5.9821130499e+02 stress_193
                      6.0407837592e+02 stress_194
                      6.0932785260e+02 stress_195
                      6.1392777831e+02 stress_196
                      6.1784805112e+02 stress_197
                      6.2106445297e+02 stress_198
                      6.2355644209e+02 stress_199
                      6.2530723141e+02 stress_200
                      6.2630618177e+02 stress_201
                      6.2635511210e+02 stress_202
                      2.6400963212e+02 stress_203
                     -8.0280671508e+01 stress_204
                      2.8758138763e+01 stress_205
                      4.6817141355e+02 stress_206
                      4.8734644200e+02 stress_207
                      4.2245274160e+02 stress_208
                      3.0522491680e+02 stress_209
                      1.4314354960e+02 stress_210
                     -4.0334267719e+01 stress_211
                     -2.0614014811e+02 stress_212
                     -3.2645519944e+02 stress_213
                     -4.0224657122e+02 stress_214
                     -4.4839049242e+02 stress_215
                     -4.7789636703e+02 stress_216
                     -4.9858678650e+02 stress_217
                     -5.1462274095e+02 stress_218
                     -5.2814126113e+02 stress_219
                     -5.4023243126e+02 stress_220
                     -5.5144742781e+02 stress_221
                     -5.6205297249e+02 stress_222
                     -5.7216248336e+02 stress_223
                     -5.8180407426e+02 stress_224
                     -5.9095890504e+02 stress_225
                     -5.9958158051e+02 stress_226
                     -6.0761290368e+02 stress_227
                     -6.1498903032e+02 stress_228
                     -6.2164316589e+02 stress_229
                     -6.2751353606e+02 stress_230
                     -6.3254272006e+02 stress_231
                     -6.3667868601e+02 stress_232
                     -6.3988054883e+02 stress_233
                     -6.4211475401e+02 stress_234
                     -6.4335695850e+02 stress_235
                     -6.3685758356e+02 stress_236
                     -2.7187543569e+02 stress_237
                      2.3362552124e+01 stress_238
                     -1.9694129781e+02 stress_239
                     -4.4714708493e+02 stress_240
                     -1.1586111668e+02 stress_241
                      6.0904582517e+01 stress_242
                     -2.7190158884e+02 stress_243
                     -3.9580277527e+02 stress_244
                     -5.0436368744e+02 stress_245
                     -3.1915958532e+02 stress_246
                      1.5658316526e+01 stress_247
                      2.7683799344e+02 stress_248
                      3.9103445916e+02 stress_249
                      4.3393101857e+02 stress_250
                      4.4631038057e+02 stress_251
                      3.4077974620e+02 stress_252
                      1.8915578068e+01 stress_253
                     -3.1502152307e+02 stress_254
                     -4.8473126810e+02 stress_255
                     -5.4611096942e+02 stress_256
                     -5.5843197694e+02 stress_257
                     -2.8086585584e+02 stress_258
                      9.8590182945e+01 stress_259
                      2.1673486152e+02 stress_260
                      1.8743625375e+00 stress_261
                     -3.6386285273e+02 stress_262
                     -5.2152558597e+02 stress_263
                     -5.4335411901e+02 stress_264
                     -5.0126554037e+02 stress_265
                     -4.0695112963e+02 stress_266
                     -2.6411015303e+02 stress_267
                     -8.6588854771e+01 stress_268
                      9.4682732288e+01 stress_269
                      2.4374996966e+02 stress_270
                      3.4595993838e+02 stress_271
                      4.0984476015e+02 stress_272
                      4.4975323560e+02 stress_273
                      4.7629932289e+02 stress_274
                      4.9564345894e+02 stress_275
                      5.1108042985e+02 stress_276
                      5.2433722686e+02 stress_277
                      5.3631314423e+02 stress_278
                      5.4747033602e+02 stress_279
                      5.5803491448e+02 stress_280
                      5.6810235310e+02 stress_281
                      5.7769450943e+02 stress_282
                      5.8679108378e+02 stress_283
                      5.9534899726e+02 stress_284
                      6.0331197717e+02 stress_285
                      6.1061950650e+02 stress_286
                      6.1721013722e+02 stress_287
                      6.2302406167e+02 stress_288
                      6.2800780301e+02 stress_289
                      6.3211355677e+02 stress_290
                      6.3530071166e+02 stress_291
                      6.3753852270e+02 stress_292
                      6.3880411471e+02 stress_293
                      6.3882280189e+02 stress_294
                      2.6459214401e+02 stress_295
                     -7.1935056145e+01 stress_296
                      5.8822874303e+01 stress_297
                      4.8361600960e+02 stress_298
                      4.9849764769e+02 stress_299
                      4.5493330018e+02 stress_300
                      3.7650158143e+02 stress_301
                      2.6501328890e+02 stress_302
                      1.2683143915e+02 stress_303
                     -2.3494900303e+01 stress_304
                     -1.6426527573e+02 stress_305
                     -2.7752336903e+02 stress_306
                     -3.5847310763e+02 stress_307
                     -4.1290008409e+02 stress_308
                     -4.4935773347e+02 stress_309
                     -4.7473645165e+02 stress_310
                     -4.9355557187e+02 stress_311
                     -5.0854194486e+02 stress_312
                     -5.2129131053e+02 stress_313
                     -5.3273471723e+02 stress_314
                     -5.4341544279e+02 stress_315
                     -5.5364978081e+02 stress_316
                     -5.6361982142e+02 stress_317
                     -5.7342568327e+02 stress_318
                     -5.8311694546e+02 stress_319
                     -5.9271156579e+02 stress_320
                     -6.0220652546e+02 stress_321
                     -6.1158593729e+02 stress_322
                     -6.2082468209e+02 stress_323
                     -6.2989233912e+02 stress_324
                     -6.3875533499e+02 stress_325
                     -6.4737703609e+02 stress_326
                     -6.5572105381e+02 stress_327
                     -6.6374913702e+02 stress_328
                     -6.7142525623e+02 stress_329
                     -6.7871350213e+02 stress_330
                     -6.8557873262e+02 stress_331
                     -6.9198853753e+02 stress_332
                     -6.9791133789e+02 stress_333
                     -7.0331855908e+02 stress_334
                     -7.0818425293e+02 stress_335
                     -7.1248301607e+02 stress_336
                     -7.1619497317e+02 stress_337
                     -7.1930115436e+02 stress_338
                     -7.2178601941e+02 stress_339
                     -7.2363773186e+02 stress_340
                     -7.2484684382e+02 stress_341
                     -7.2540712080e+02 stress_342


Active response data for evaluation 113:
Active set vector = { 1 1 1 1 1 1 1 1 1 1 1 1 1 1 1 1 1 1 1 1 1 1 1 1 1 1 1 1 1 1 1 1 1 1 1 1 1 1 1 1 1 1 1 1 1 1 1 1 1 1 1 1 1 1 1 1 1 1 1 1 1 1 1 1 1 1 1 1 1 1 1 1 1 1 1 1 1 1 1 1 1 1 1 1 1 1 1 1 1 1 1 1 1 1 1 1 1 1 1 1 1 1 1 1 1 1 1 1 1 1 1 1 1 1 1 1 1 1 1 1 1 1 1 1 1 1 1 1 1 1 1 1 1 1 1 1 1 1 1 1 1 1 1 1 1 1 1 1 1 1 1 1 1 1 1 1 1 1 1 1 1 1 1 1 1 1 1 1 1 1 1 1 1 1 1 1 1 1 1 1 1 1 1 1 1 1 1 1 1 1 1 1 1 1 1 1 1 1 1 1 1 1 1 1 1 1 1 1 1 1 1 1 1 1 1 1 1 1 1 1 1 1 1 1 1 1 1 1 1 1 1 1 1 1 1 1 1 1 1 1 1 1 1 1 1 1 1 1 1 1 1 1 1 1 1 1 1 1 1 1 1 1 1 1 1 1 1 1 1 1 1 1 1 1 1 1 1 1 1 1 1 1 1 1 1 1 1 1 1 1 1 1 1 1 1 1 1 1 1 1 1 1 1 1 1 1 1 1 1 1 1 1 1 1 1 1 1 1 1 1 1 1 1 1 1 1 1 1 1 1 1 1 1 1 1 1 1 1 1 1 1 1 }
                      2.4220726013e+00 stress_1
                     -2.5172158490e+02 stress_2
                     -4.9427466854e+02 stress_3
                     -4.9579569689e+02 stress_4
                     -1.6684515926e+02 stress_5
                      2.5327100990e+02 stress_6
                      4.0134155823e+02 stress_7
                      4.0220997649e+02 stress_8
                      1.5254312739e+02 stress_9
                     -2.3139412676e+02 stress_10
                     -4.3994760658e+02 stress_11
                     -4.8925255812e+02 stress_12
                     -5.0317816436e+02 stress_13
                     -5.0417217722e+02 stress_14
                     -1.7341231595e+02 stress_15
                     -3.4138013451e+02 stress_16
                     -5.0984932117e+02 stress_17
                     -3.1504597342e+02 stress_18
                      2.1422539664e+01 stress_19
                      2.9853308462e+02 stress_20
                      4.1854686578e+02 stress_21
                      4.6350608831e+02 stress_22
                      4.8207842239e+02 stress_23
                      4.8820545205e+02 stress_24
                      1.5750287441e+02 stress_25
                      2.8561840651e+02 stress_26
                      4.2949671600e+02 stress_27
                      4.6527316466e+02 stress_28
                      3.4239954788e+02 stress_29
                      1.2875970684e+02 stress_30
                     -1.2498911224e+02 stress_31
                     -3.2062573963e+02 stress_32
                     -4.2446146658e+02 stress_33
                     -4.7428067333e+02 stress_34
                     -5.0124928055e+02 stress_35
                     -5.1874655614e+02 stress_36
                     -5.3175589604e+02 stress_37
                     -5.4208010707e+02 stress_38
                     -5.5032610941e+02 stress_39
                     -5.5663866338e+02 stress_40
                     -5.6100332101e+02 stress_41
                     -5.6336068152e+02 stress_42
                     -5.4789350854e+02 stress_43
                     -1.6083262614e+02 stress_44
                      1.0628017772e+02 stress_45
                     -9.9930340182e+01 stress_46
                     -4.5330074342e+02 stress_47
                     -1.5687842335e+02 stress_48
                     -2.5981698066e+02 stress_49
                     -4.1962799773e+02 stress_50
                     -5.6871761277e+02 stress_51
                     -3.9874142437e+02 stress_52
                     -6.1140278494e+01 stress_53
                      2.2641951772e+02 stress_54
                      3.5820134226e+02 stress_55
                      4.0776711487e+02 stress_56
                      4.2282420241e+02 stress_57
                      3.3645306619e+02 stress_58
                      2.1619321367e+01 stress_59
                     -3.1595335360e+02 stress_60
                     -4.7145720874e+02 stress_61
                     -5.2138657445e+02 stress_62
                     -5.3240474892e+02 stress_63
                     -2.6393069186e+02 stress_64
                      1.1333428358e+02 stress_65
                      2.0035728005e+02 stress_66
                     -7.1973400746e+01 stress_67
                     -4.4071179029e+02 stress_68
                     -5.3491065469e+02 stress_69
                     -5.3599017134e+02 stress_70
                     -4.4058982716e+02 stress_71
                     -2.6834263687e+02 stress_72
                     -4.4858573905e+01 stress_73
                      1.6681252041e+02 stress_74
                      3.1128342160e+02 stress_75
                      3.9193534548e+02 stress_76
                      4.3617647616e+02 stress_77
                      4.6301571636e+02 stress_78
                      4.8164916712e+02 stress_79
                      4.9612621907e+02 stress_80
                      5.0819240440e+02 stress_81
                      5.1857556661e+02 stress_82
                      5.2754384713e+02 stress_83
                      5.3515708345e+02 stress_84
                      5.4138073925e+02 stress_85
                      5.4614887209e+02 stress_86
                      5.4939354932e+02 stress_87
                      5.5105887652e+02 stress_88
                      4.7732902125e+02 stress_89
                      4.3716329876e+01 stress_90
                     -1.5946962421e+02 stress_91
                      1.3076583189e+02 stress_92
                      4.7806203114e+02 stress_93
                      4.8440208784e+02 stress_94
                      4.2419587070e+02 stress_95
                      3.1601712524e+02 stress_96
                      1.6532875723e+02 stress_97
                     -1.0216508010e+01 stress_98
                     -1.7742993884e+02 stress_99
                     -3.0618413811e+02 stress_100
                     -3.9077489053e+02 stress_101
                     -4.4295795235e+02 stress_102
                     -4.7591835718e+02 stress_103
                     -4.9840567000e+02 stress_104
                     -5.1529598511e+02 stress_105
                     -5.2916577563e+02 stress_106
                     -5.4135862488e+02 stress_107
                     -5.5257296658e+02 stress_108
                     -5.6316545519e+02 stress_109
                     -5.7330762355e+02 stress_110
                     -5.8306745086e+02 stress_111
                     -5.9245326184e+02 stress_112
                     -6.0144074484e+02 stress_113
                     -6.0998643053e+02 stress_114
                     -6.1803618348e+02 stress_115
                     -6.2553165047e+02 stress_116
                     -6.3241291082e+02 stress_117
                     -6.3862345490e+02 stress_118
                     -6.4410970765e+02 stress_119
                     -6.4882191331e+02 stress_120
                     -6.5271877382e+02 stress_121
                     -6.5576428421e+02 stress_122
                     -6.5793002642e+02 stress_123
                     -6.5919678391e+02 stress_124
                     -6.5953706063e+02 stress_125
                     -5.5695843376e+02 stress_126
                     -3.0605045790e+02 stress_127
                      7.4266249619e-01 stress_128
                      2.1951128396e+02 stress_129
                      3.2853121473e+02 stress_130
                      3.7937665303e+02 stress_131
                      4.0421061655e+02 stress_132
                      4.1549317156e+02 stress_133
                      4.1612253032e+02 stress_134
                      1.1189540011e+01 stress_135
                     -1.0702058671e+01 stress_136
                      1.7441953508e+02 stress_137
                      1.3827857152e+02 stress_138
                     -3.4089936972e+01 stress_139
                     -3.2114824760e+02 stress_140
                     -5.3014819786e+02 stress_141
                     -6.1387444359e+02 stress_142
                     -6.4638724740e+02 stress_143
                     -6.6119253673e+02 stress_144
                     -6.6731055956e+02 stress_145
                     -6.4690927206e+02 stress_146
                     -4.0886108307e+02 stress_147
                     -5.8035064665e+01 stress_148
                      1.9413822940e+02 stress_149
                      3.0651243177e+02 stress_150
                      3.4809439726e+02 stress_151
                      3.5322923144e+02 stress_152
                      1.3677284061e+02 stress_153
                     -2.3162027353e+02 stress_154
                     -4.9350762929e+02 stress_155
                     -5.9034832955e+02 stress_156
                     -6.1738699366e+02 stress_157
                     -4.9465717274e+02 stress_158
                     -8.9594079887e+01 stress_159
                      9.3733880075e+01 stress_160
                     -7.3087708431e+01 stress_161
                     -4.6842586236e+02 stress_162
                     -6.2397471324e+02 stress_163
                     -6.3494202447e+02 stress_164
                     -5.9317783305e+02 stress_165
                     -5.1088606221e+02 stress_166
                     -3.9009706880e+02 stress_167
                     -2.3788284219e+02 stress_168
                     -7.1487515470e+01 stress_169
                      8.3392626264e+01 stress_170
                      2.0595779405e+02 stress_171
                      2.9174187154e+02 stress_172
                      3.4839390080e+02 stress_173
                      3.8592263697e+02 stress_174
                      4.1197224486e+02 stress_175
                      4.3135587887e+02 stress_176
                      4.4689056721e+02 stress_177
                      4.6018799372e+02 stress_178
                      4.7216464054e+02 stress_179
                      4.8334203713e+02 stress_180
                      4.9401427313e+02 stress_181
                      5.0434064080e+02 stress_182
                      5.1440086867e+02 stress_183
                      5.2422503436e+02 stress_184
                      5.3381321994e+02 stress_185
                      5.4314611894e+02 stress_186
                      5.5219257910e+02 stress_187
                      5.6091454809e+02 stress_188
                      5.6926940325e+02 stress_189
                      5.7721310371e+02 stress_190
                      5.8470135744e+02 stress_191
                      5.9168972568e+02 stress_192
                      5.9813734238e+02 stress_193
                      6.0400455132e+02 stress_194
                      6.0925413989e+02 stress_195
                      6.1385415563e+02 stress_196
                      6.1777449981e+02 stress_197
                      6.2099095684e+02 stress_198
                      6.2348298673e+02 stress_199
                      6.2523380373e+02 stress_200
                      6.2623276954e+02 stress_201
                      6.2628170061e+02 stress_202
                      2.6428128825e+02 stress_203
                     -7.9836645810e+01 stress_204
                      2.9093235962e+01 stress_205
                      4.6814732875e+02 stress_206
                      4.8732030989e+02 stress_207
                      4.2249138956e+02 stress_208
                      3.0537867657e+02 stress_209
                      1.4344077449e+02 stress_210
                     -3.9929221236e+01 stress_211
                     -2.0572975553e+02 stress_212
                     -3.2612053905e+02 stress_213
                     -4.0199900133e+02 stress_214
                     -4.4820759520e+02 stress_215
                     -4.7775479195e+02 stress_216
                     -4.9847054560e+02 stress_217
                     -5.1452209333e+02 stress_218
                     -5.2805042136e+02 stress_219
                     -5.4014793252e+02 stress_220
                     -5.5136714670e+02 stress_221
                     -5.6197557336e+02 stress_222
                     -5.7208710285e+02 stress_223
                     -5.8173013924e+02 stress_224
                     -5.9088602537e+02 stress_225
                     -5.9950948416e+02 stress_226
                     -6.0754139657e+02 stress_227
                     -6.1491797095e+02 stress_228
                     -6.2157244865e+02 stress_229
                     -6.2744308044e+02 stress_230
                     -6.3247246308e+02 stress_231
                     -6.3660857701e+02 stress_232
                     -6.3981054585e+02 stress_233
                     -6.4204482095e+02 stress_234
                     -6.4328706295e+02 stress_235
                     -6.3679418089e+02 stress_236
                     -2.7215894376e+02 stress_237
                      2.2913220646e+01 stress_238
                     -1.9717386077e+02 stress_239
                     -4.4717465755e+02 stress_240
                     -1.1619868171e+02 stress_241
                      6.0468005102e+01 stress_242
                     -2.7202071453e+02 stress_243
                     -3.9582937305e+02 stress_244
                     -5.0433310817e+02 stress_245
                     -3.1931195801e+02 stress_246
                      1.5256390916e+01 stress_247
                      2.7646322702e+02 stress_248
                      3.9077391764e+02 stress_249
                      4.3372833132e+02 stress_250
                      4.4612492226e+02 stress_251
                      3.4069953954e+02 stress_252
                      1.9127992622e+01 stress_253
                     -3.1468393700e+02 stress_254
                     -4.8447274770e+02 stress_255
                     -5.4590989820e+02 stress_256
                     -5.5824389572e+02 stress_257
                     -2.8094857085e+02 stress_258
                      9.8268112438e+01 stress_259
                      2.1641301484e+02 stress_260
                      1.7640030486e+00 stress_261
                     -3.6372235354e+02 stress_262
                     -5.2138620614e+02 stress_263
                     -5.4322218302e+02 stress_264
                     -5.0117564312e+02 stress_265
                     -4.0695490752e+02 stress_266
                     -2.6424976636e+02 stress_267
                     -8.6869198408e+01 stress_268
                      9.4324358016e+01 stress_269
                      2.4340761482e+02 stress_270
                      3.4568313194e+02 stress_271
                      4.0963200152e+02 stress_272
                      4.4958612199e+02 stress_273
                      4.7616142158e+02 stress_274
                      4.9552377150e+02 stress_275
                      5.1097218684e+02 stress_276
                      5.2423632977e+02 stress_277
                      5.3621708524e+02 stress_278
                      5.4737754801e+02 stress_279
                      5.5794439375e+02 stress_280
                      5.6801344024e+02 stress_281
                      5.7760676042e+02 stress_282
                      5.8670419243e+02 stress_283
                      5.9526274769e+02 stress_284
                      6.0322621379e+02 stress_285
                      6.1053411479e+02 stress_286
                      6.1712503109e+02 stress_287
                      6.2293917495e+02 stress_288
                      6.2792308361e+02 stress_289
                      6.3202896261e+02 stress_290
                      6.3521620765e+02 stress_291
                      6.3745407858e+02 stress_292
                      6.3871970330e+02 stress_293
                      6.3873839096e+02 stress_294
                      2.6486330942e+02 stress_295
                     -7.1494536859e+01 stress_296
                      5.9132777177e+01 stress_297
                      4.8359531585e+02 stress_298
                      4.9847572538e+02 stress_299
                      4.5495488745e+02 stress_300
                      3.7660106498e+02 stress_301
                      2.6521970575e+02 stress_302
                      1.2715440048e+02 stress_303
                     -2.3085440240e+01 stress_304
                     -1.6383782785e+02 stress_305
                     -2.7714362502e+02 stress_306
                     -3.5816823883e+02 stress_307
                     -4.1266449003e+02 stress_308
                     -4.4917432438e+02 stress_309
                     -4.7458906097e+02 stress_310
                     -4.9343228433e+02 stress_311
                     -5.0843473602e+02 stress_312
                     -5.2119493451e+02 stress_313
                     -5.3264575737e+02 stress_314
                     -5.4333165335e+02 stress_315
                     -5.5356966364e+02 stress_316
                     -5.6354236010e+02 stress_317
                     -5.7335017585e+02 stress_318
                     -5.8304289873e+02 stress_319
                     -5.9263862739e+02 stress_320
                     -6.0213443959e+02 stress_321
                     -6.1151451553e+02 stress_322
                     -6.2075378366e+02 stress_323
                     -6.2982185743e+02 stress_324
                     -6.3868518836e+02 stress_325
                     -6.4730716117e+02 stress_326
                     -6.5565140094e+02 stress_327
                     -6.6367966679e+02 stress_328
                     -6.7135593712e+02 stress_329
                     -6.7864430863e+02 stress_330
                     -6.8550964388e+02 stress_331
                     -6.9191953634e+02 stress_332
                     -6.9784240988e+02 stress_333
                     -7.0324969216e+02 stress_334
                     -7.0811543678e+02 stress_335
                     -7.1241424175e+02 stress_336
                     -7.1612623287e+02 stress_337
                     -7.1923244114e+02 stress_338
                     -7.2171732699e+02 stress_339
                     -7.2356905446e+02 stress_340
                     -7.2477817602e+02 stress_341
                     -7.2533845740e+02 stress_342


Active response data for evaluation 114:
Active set vector = { 1 1 1 1 1 1 1 1 1 1 1 1 1 1 1 1 1 1 1 1 1 1 1 1 1 1 1 1 1 1 1 1 1 1 1 1 1 1 1 1 1 1 1 1 1 1 1 1 1 1 1 1 1 1 1 1 1 1 1 1 1 1 1 1 1 1 1 1 1 1 1 1 1 1 1 1 1 1 1 1 1 1 1 1 1 1 1 1 1 1 1 1 1 1 1 1 1 1 1 1 1 1 1 1 1 1 1 1 1 1 1 1 1 1 1 1 1 1 1 1 1 1 1 1 1 1 1 1 1 1 1 1 1 1 1 1 1 1 1 1 1 1 1 1 1 1 1 1 1 1 1 1 1 1 1 1 1 1 1 1 1 1 1 1 1 1 1 1 1 1 1 1 1 1 1 1 1 1 1 1 1 1 1 1 1 1 1 1 1 1 1 1 1 1 1 1 1 1 1 1 1 1 1 1 1 1 1 1 1 1 1 1 1 1 1 1 1 1 1 1 1 1 1 1 1 1 1 1 1 1 1 1 1 1 1 1 1 1 1 1 1 1 1 1 1 1 1 1 1 1 1 1 1 1 1 1 1 1 1 1 1 1 1 1 1 1 1 1 1 1 1 1 1 1 1 1 1 1 1 1 1 1 1 1 1 1 1 1 1 1 1 1 1 1 1 1 1 1 1 1 1 1 1 1 1 1 1 1 1 1 1 1 1 1 1 1 1 1 1 1 1 1 1 1 1 1 1 1 1 1 1 1 1 1 1 1 1 1 1 1 1 1 }
                      2.4220726013e+00 stress_1
                     -2.5172158274e+02 stress_2
                     -4.9427029013e+02 stress_3
                     -4.9579001805e+02 stress_4
                     -1.6686002263e+02 stress_5
                      2.5282008214e+02 stress_6
                      4.0079575989e+02 stress_7
                      4.0166512940e+02 stress_8
                      1.5200831573e+02 stress_9
                     -2.3146161650e+02 stress_10
                     -4.3959247082e+02 stress_11
                     -4.8902603908e+02 stress_12
                     -5.0301934990e+02 stress_13
                     -5.0401811810e+02 stress_14
                     -1.7335776525e+02 stress_15
                     -3.4132558149e+02 stress_16
                     -5.0980136547e+02 stress_17
                     -3.1501422446e+02 stress_18
                      2.1045827934e+01 stress_19
                      2.9753315403e+02 stress_20
                      4.1768451859e+02 stress_21
                      4.6289399551e+02 stress_22
                      4.8160278695e+02 stress_23
                      4.8777606612e+02 stress_24
                      1.5719655414e+02 stress_25
                      2.8531208441e+02 stress_26
                      4.2917953945e+02 stress_27
                      4.6494643273e+02 stress_28
                      3.4207736481e+02 stress_29
                      1.2856828274e+02 stress_30
                     -1.2461211879e+02 stress_31
                     -3.1972685210e+02 stress_32
                     -4.2360885557e+02 stress_33
                     -4.7366105055e+02 stress_34
                     -5.0081529662e+02 stress_35
                     -5.1842920326e+02 stress_36
                     -5.3150771803e+02 stress_37
                     -5.4187242579e+02 stress_38
                     -5.5014198837e+02 stress_39
                     -5.5646801934e+02 stress_40
                     -5.6084001443e+02 stress_41
                     -5.6320074133e+02 stress_42
                     -5.4773357361e+02 stress_43
                     -1.6093564786e+02 stress_44
                      1.0545559809e+02 stress_45
                     -1.0075430666e+02 stress_46
                     -4.5362363437e+02 stress_47
                     -1.5732579038e+02 stress_48
                     -2.6026432916e+02 stress_49
                     -4.2004534427e+02 stress_50
                     -5.6862543921e+02 stress_51
                     -3.9866701798e+02 stress_52
                     -6.1541877707e+01 stress_53
                      2.2522840644e+02 stress_54
                      3.5703126414e+02 stress_55
                      4.0680959468e+02 stress_56
                      4.2196199315e+02 stress_57
                      3.3559175971e+02 stress_58
                      2.0962928593e+01 stress_59
                     -3.1560429837e+02 stress_60
                     -4.7074903371e+02 stress_61
                     -5.2075149799e+02 stress_62
                     -5.3180789564e+02 stress_63
                     -2.6341876596e+02 stress_64
                      1.1290592341e+02 stress_65
                      1.9963093373e+02 stress_66
                     -7.2667319844e+01 stress_67
                     -4.4059506921e+02 stress_68
                     -5.3458656493e+02 stress_69
                     -5.3566626248e+02 stress_70
                     -4.4026882174e+02 stress_71
                     -2.6810145546e+02 stress_72
                     -4.5029816171e+01 stress_73
                      1.6598154960e+02 stress_74
                      3.1018196882e+02 stress_75
                      3.9098288668e+02 stress_76
                      4.3547040204e+02 stress_77
                      4.6251023120e+02 stress_78
                      4.8128159442e+02 stress_79
                      4.9584868190e+02 stress_80
                      5.0797276748e+02 stress_81
                      5.1839299698e+02 stress_82
                      5.2738491198e+02 stress_83
                      5.3501309806e+02 stress_84
                      5.4124606008e+02 stress_85
                      5.4601981011e+02 stress_86
                      5.4926764878e+02 stress_87
                      5.5093440813e+02 stress_88
                      4.7720572639e+02 stress_89
                      4.4093354090e+01 stress_90
                     -1.5848098659e+02 stress_91
                      1.3174281501e+02 stress_92
                      4.7813323219e+02 stress_93
                      4.8443841000e+02 stress_94
                      4.2423287870e+02 stress_95
                      3.1607373911e+02 stress_96
                      1.6551299432e+02 stress_97
                     -9.6711983058e+00 stress_98
                     -1.7639914964e+02 stress_99
                     -3.0489291828e+02 stress_100
                     -3.8954889097e+02 stress_101
                     -4.4195393517e+02 stress_102
                     -4.7514604606e+02 stress_103
                     -4.9782058814e+02 stress_104
                     -5.1484830667e+02 stress_105
                     -5.2881503113e+02 stress_106
                     -5.4107508782e+02 stress_107
                     -5.5233555807e+02 stress_108
                     -5.6295937209e+02 stress_109
                     -5.7312246220e+02 stress_110
                     -5.8289586812e+02 stress_111
                     -5.9229005575e+02 stress_112
                     -6.0128223146e+02 stress_113
                     -6.0983001739e+02 stress_114
                     -6.1788007609e+02 stress_115
                     -6.2537464754e+02 stress_116
                     -6.3225425890e+02 stress_117
                     -6.3846274239e+02 stress_118
                     -6.4394678646e+02 stress_119
                     -6.4865683970e+02 stress_120
                     -6.5255176043e+02 stress_121
                     -6.5559566270e+02 stress_122
                     -6.5776021542e+02 stress_123
                     -6.5902626030e+02 stress_124
                     -6.5936634353e+02 stress_125
                     -5.5679133356e+02 stress_126
                     -3.0605733785e+02 stress_127
                     -3.1758515120e-02 stress_128
                      2.1820144414e+02 stress_129
                      3.2735151883e+02 stress_130
                      3.7846060001e+02 stress_131
                      4.0347838041e+02 stress_132
                      4.1485302608e+02 stress_133
                      4.1548760999e+02 stress_134
                      1.0764668365e+01 stress_135
                     -1.1089345085e+01 stress_136
                      1.7391600283e+02 stress_137
                      1.3777513496e+02 stress_138
                     -3.4549976809e+01 stress_139
                     -3.2102154810e+02 stress_140
                     -5.2937526419e+02 stress_141
                     -6.1317592499e+02 stress_142
                     -6.4585282736e+02 stress_143
                     -6.6075074924e+02 stress_144
                     -6.6690596253e+02 stress_145
                     -6.4650469096e+02 stress_146
                     -4.0852566574e+02 stress_147
                     -5.8435337457e+01 stress_148
                      1.9298012347e+02 stress_149
                      3.0534044509e+02 stress_150
                      3.4705181007e+02 stress_151
                      3.5220941282e+02 stress_152
                      1.3577351250e+02 stress_153
                     -2.3203150265e+02 stress_154
                     -4.9296383960e+02 stress_155
                     -5.8964653968e+02 stress_156
                     -6.1671661959e+02 stress_157
                     -4.9399404765e+02 stress_158
                     -8.9545738516e+01 stress_159
                      9.3139640748e+01 stress_160
                     -7.3679144953e+01 stress_161
                     -4.6850239452e+02 stress_162
                     -6.2360207219e+02 stress_163
                     -6.3456480579e+02 stress_164
                     -5.9280080902e+02 stress_165
                     -5.1051601692e+02 stress_166
                     -3.8978221898e+02 stress_167
                     -2.3777192462e+02 stress_168
                     -7.1802192986e+01 stress_169
                      8.2569318408e+01 stress_170
                      2.0481850379e+02 stress_171
                      2.9057425886e+02 stress_172
                      3.4737757618e+02 stress_173
                      3.8511018757e+02 stress_174
                      4.1134891745e+02 stress_175
                      4.3088566772e+02 stress_176
                      4.4653704443e+02 stress_177
                      4.5992086604e+02 stress_178
                      4.7196050548e+02 stress_179
                      4.8318335559e+02 stress_180
                      4.9388804287e+02 stress_181
                      5.0423723693e+02 stress_182
                      5.1431315208e+02 stress_183
                      5.2414769172e+02 stress_184
                      5.3374228805e+02 stress_185
                      5.4307864182e+02 stress_186
                      5.5212636123e+02 stress_187
                      5.6084797542e+02 stress_188
                      5.6920131224e+02 stress_189
                      5.7714268434e+02 stress_190
                      5.8462808043e+02 stress_191
                      5.9161328760e+02 stress_192
                      5.9805762206e+02 stress_193
                      6.0392157664e+02 stress_194
                      6.0916806107e+02 stress_195
                      6.1376522194e+02 stress_196
                      6.1768304200e+02 stress_197
                      6.2089736998e+02 stress_198
                      6.2338771641e+02 stress_199
                      6.2513733372e+02 stress_200
                      6.2613560895e+02 stress_201
                      6.2618450609e+02 stress_202
                      2.6436716756e+02 stress_203
                     -7.8867477711e+01 stress_204
                      3.0062396715e+01 stress_205
                      4.6870152315e+02 stress_206
                      4.8778549422e+02 stress_207
                      4.2295758486e+02 stress_208
                      3.0587194513e+02 stress_209
                      1.4409606607e+02 stress_210
                     -3.8876378974e+01 stress_211
                     -2.0426788733e+02 stress_212
                     -3.2458351689e+02 stress_213
                     -4.0068449830e+02 stress_214
                     -4.4719676718e+02 stress_215
                     -4.7700780041e+02 stress_216
                     -4.9792054936e+02 stress_217
                     -5.1411087076e+02 stress_218
                     -5.2773482669e+02 stress_219
                     -5.3989767809e+02 stress_220
                     -5.5116130521e+02 stress_221
                     -5.6179968674e+02 stress_222
                     -5.7193112987e+02 stress_223
                     -5.8158706601e+02 stress_224
                     -5.9075093947e+02 stress_225
                     -5.9937895438e+02 stress_226
                     -6.0741305401e+02 stress_227
                     -6.1479022155e+02 stress_228
                     -6.2144427158e+02 stress_229
                     -6.2731388398e+02 stress_230
                     -6.3234197848e+02 stress_231
                     -6.3647677864e+02 stress_232
                     -6.3967758731e+02 stress_233
                     -6.4191098416e+02 stress_234
                     -6.4315271464e+02 stress_235
                     -6.3665983286e+02 stress_236
                     -2.7221369363e+02 stress_237
                      2.2131143129e+01 stress_238
                     -1.9784969939e+02 stress_239
                     -4.4703346627e+02 stress_240
                     -1.1625348459e+02 stress_241
                      5.9982201645e+01 stress_242
                     -2.7219487647e+02 stress_243
                     -3.9558852793e+02 stress_244
                     -5.0371236722e+02 stress_245
                     -3.1872203125e+02 stress_246
                      1.5220064840e+01 stress_247
                      2.7554920845e+02 stress_248
                      3.8981889034e+02 stress_249
                      4.3292582402e+02 stress_250
                      4.4538931359e+02 stress_251
                      3.3996727452e+02 stress_252
                      1.8694292631e+01 stress_253
                     -3.1403648179e+02 stress_254
                     -4.8338727779e+02 stress_255
                     -5.4486789707e+02 stress_256
                     -5.5723380536e+02 stress_257
                     -2.8003756522e+02 stress_258
                      9.8142958717e+01 stress_259
                      2.1581987029e+02 stress_260
                      1.2262822116e+00 stress_261
                     -3.6332553142e+02 stress_262
                     -5.2053474040e+02 stress_263
                     -5.4236204785e+02 stress_264
                     -5.0031572616e+02 stress_265
                     -4.0610551941e+02 stress_266
                     -2.6349355335e+02 stress_267
                     -8.6454088773e+01 stress_268
                      9.4121037290e+01 stress_269
                      2.4265264350e+02 stress_270
                      3.4473113733e+02 stress_271
                      4.0875606475e+02 stress_272
                      4.4888000135e+02 stress_273
                      4.7562101561e+02 stress_274
                      4.9511553856e+02 stress_275
                      5.1066147523e+02 stress_276
                      5.2399513869e+02 stress_277
                      5.3602456182e+02 stress_278
                      5.4721862640e+02 stress_279
                      5.5780829737e+02 stress_280
                      5.6789247730e+02 stress_281
                      5.7749544437e+02 stress_282
                      5.8659862121e+02 stress_283
                      5.9516017047e+02 stress_284
                      6.0312472657e+02 stress_285
                      6.1043244530e+02 stress_286
                      6.1702238354e+02 stress_287
                      6.2283511641e+02 stress_288
                      6.2781745807e+02 stress_289
                      6.3192182477e+02 stress_290
                      6.3510777008e+02 stress_291
                      6.3734466718e+02 stress_292
                      6.3860971985e+02 stress_293
                      6.3862839895e+02 stress_294
                      2.6495040104e+02 stress_295
                     -7.0536204631e+01 stress_296
                      6.0091049589e+01 stress_297
                      4.8404909241e+02 stress_298
                      4.9885630657e+02 stress_299
                      4.5533573207e+02 stress_300
                      3.7698939042e+02 stress_301
                      2.6565976829e+02 stress_302
                      1.2776882151e+02 stress_303
                     -2.2132103800e+01 stress_304
                     -1.6250974877e+02 stress_305
                     -2.7562652527e+02 stress_306
                     -3.5671377402e+02 stress_307
                     -4.1142261173e+02 stress_308
                     -4.4817941248e+02 stress_309
                     -4.7381460974e+02 stress_310
                     -4.9283400050e+02 stress_311
                     -5.0797016642e+02 stress_312
                     -5.2082937124e+02 stress_313
                     -5.3235258987e+02 stress_314
                     -5.4309100142e+02 stress_315
                     -5.5336679871e+02 stress_316
                     -5.6336636958e+02 stress_317
                     -5.7319293856e+02 stress_318
                     -5.8289833506e+02 stress_319
                     -5.9250215924e+02 stress_320
                     -6.0200260251e+02 stress_321
                     -6.1138468091e+02 stress_322
                     -6.2062395778e+02 stress_323
                     -6.2969053545e+02 stress_324
                     -6.3855124682e+02 stress_325
                     -6.4716977860e+02 stress_326
                     -6.5550999765e+02 stress_327
                     -6.6353386024e+02 stress_328
                     -6.7120550601e+02 stress_329
                     -6.7848916598e+02 stress_330
                     -6.8534981575e+02 stress_331
                     -6.9175514365e+02 stress_332
                     -6.9767365483e+02 stress_333
                     -7.0307684564e+02 stress_334
                     -7.0793882790e+02 stress_335
                     -7.1223425053e+02 stress_336
                     -7.1594328012e+02 stress_337
                     -7.1904698281e+02 stress_338
                     -7.2152984722e+02 stress_339
                     -7.2338005888e+02 stress_340
                     -7.2458818643e+02 stress_341
                     -7.2514800610e+02 stress_342


Active response data for evaluation 115:
Active set vector = { 1 1 1 1 1 1 1 1 1 1 1 1 1 1 1 1 1 1 1 1 1 1 1 1 1 1 1 1 1 1 1 1 1 1 1 1 1 1 1 1 1 1 1 1 1 1 1 1 1 1 1 1 1 1 1 1 1 1 1 1 1 1 1 1 1 1 1 1 1 1 1 1 1 1 1 1 1 1 1 1 1 1 1 1 1 1 1 1 1 1 1 1 1 1 1 1 1 1 1 1 1 1 1 1 1 1 1 1 1 1 1 1 1 1 1 1 1 1 1 1 1 1 1 1 1 1 1 1 1 1 1 1 1 1 1 1 1 1 1 1 1 1 1 1 1 1 1 1 1 1 1 1 1 1 1 1 1 1 1 1 1 1 1 1 1 1 1 1 1 1 1 1 1 1 1 1 1 1 1 1 1 1 1 1 1 1 1 1 1 1 1 1 1 1 1 1 1 1 1 1 1 1 1 1 1 1 1 1 1 1 1 1 1 1 1 1 1 1 1 1 1 1 1 1 1 1 1 1 1 1 1 1 1 1 1 1 1 1 1 1 1 1 1 1 1 1 1 1 1 1 1 1 1 1 1 1 1 1 1 1 1 1 1 1 1 1 1 1 1 1 1 1 1 1 1 1 1 1 1 1 1 1 1 1 1 1 1 1 1 1 1 1 1 1 1 1 1 1 1 1 1 1 1 1 1 1 1 1 1 1 1 1 1 1 1 1 1 1 1 1 1 1 1 1 1 1 1 1 1 1 1 1 1 1 1 1 1 1 1 1 1 1 }
                      2.4220726013e+00 stress_1
                     -2.5172158646e+02 stress_2
                     -4.9427062306e+02 stress_3
                     -4.9579010200e+02 stress_4
                     -1.6683789939e+02 stress_5
                      2.5331279857e+02 stress_6
                      4.0138716606e+02 stress_7
                      4.0225545661e+02 stress_8
                      1.5258777144e+02 stress_9
                     -2.3138813043e+02 stress_10
                     -4.3997099443e+02 stress_11
                     -4.8925640639e+02 stress_12
                     -5.0317038620e+02 stress_13
                     -5.0416345381e+02 stress_14
                     -1.7340119938e+02 stress_15
                     -3.4136901888e+02 stress_16
                     -5.0983791284e+02 stress_17
                     -3.1503418484e+02 stress_18
                      2.1444046737e+01 stress_19
                      2.9856848319e+02 stress_20
                      4.1857416769e+02 stress_21
                      4.6352081879e+02 stress_22
                      4.8208459978e+02 stress_23
                      4.8820820714e+02 stress_24
                      1.5750353789e+02 stress_25
                      2.8561907014e+02 stress_26
                      4.2949863623e+02 stress_27
                      4.6527765220e+02 stress_28
                      3.4240395636e+02 stress_29
                      1.2876183096e+02 stress_30
                     -1.2499676174e+02 stress_31
                     -3.2064071584e+02 stress_32
                     -4.2447058520e+02 stress_33
                     -4.7427819875e+02 stress_34
                     -5.0123486144e+02 stress_35
                     -5.1872107457e+02 stress_36
                     -5.3172043579e+02 stress_37
                     -5.4203587293e+02 stress_38
                     -5.5027447343e+02 stress_39
                     -5.5658118975e+02 stress_40
                     -5.6094174484e+02 stress_41
                     -5.6329687102e+02 stress_42
                     -5.4782969801e+02 stress_43
                     -1.6076725585e+02 stress_44
                      1.0634896360e+02 stress_45
                     -9.9861591080e+01 stress_46
                     -4.5325496970e+02 stress_47
                     -1.5683157654e+02 stress_48
                     -2.5977013474e+02 stress_49
                     -4.1958220582e+02 stress_50
                     -5.6866517203e+02 stress_51
                     -3.9868885817e+02 stress_52
                     -6.1084148647e+01 stress_53
                      2.2648136842e+02 stress_54
                      3.5826014740e+02 stress_55
                      4.0782023786e+02 stress_56
                      4.2287443962e+02 stress_57
                      3.3650328308e+02 stress_58
                      2.1665213500e+01 stress_59
                     -3.1592439956e+02 stress_60
                     -4.7142457858e+02 stress_61
                     -5.2134382169e+02 stress_62
                     -5.3235846940e+02 stress_63
                     -2.6388377789e+02 stress_64
                      1.1338854178e+02 stress_65
                      2.0041372709e+02 stress_66
                     -7.1918664923e+01 stress_67
                     -4.4068633073e+02 stress_68
                     -5.3487521887e+02 stress_69
                     -5.3595435485e+02 stress_70
                     -4.4055398793e+02 stress_71
                     -2.6830610531e+02 stress_72
                     -4.4817927570e+01 stress_73
                      1.6686127152e+02 stress_74
                      3.1133707620e+02 stress_75
                      3.9198706255e+02 stress_76
                      4.3622183095e+02 stress_77
                      4.6305271763e+02 stress_78
                      4.8167705524e+02 stress_79
                      4.9614484333e+02 stress_80
                      5.0820198477e+02 stress_81
                      5.1857660350e+02 stress_82
                      5.2753707969e+02 stress_83
                      5.3514345910e+02 stress_84
                      5.4136138766e+02 stress_85
                      5.4612507304e+02 stress_86
                      5.4936669878e+02 stress_87
                      5.5103045278e+02 stress_88
                      4.7730059208e+02 stress_89
                      4.3685922408e+01 stress_90
                     -1.5950139723e+02 stress_91
                      1.3073474991e+02 stress_92
                      4.7806593196e+02 stress_93
                      4.8440636043e+02 stress_94
                      4.2420013894e+02 stress_95
                      3.1602125514e+02 stress_96
                      1.6533186070e+02 stress_97
                     -1.0216867890e+01 stress_98
                     -1.7743632152e+02 stress_99
                     -3.0619575169e+02 stress_100
                     -3.9078784419e+02 stress_101
                     -4.4296832524e+02 stress_102
                     -4.7592351195e+02 stress_103
                     -4.9840403240e+02 stress_104
                     -5.1528660794e+02 stress_105
                     -5.2914806121e+02 stress_106
                     -5.4133218691e+02 stress_107
                     -5.5253756586e+02 stress_108
                     -5.6312097007e+02 stress_109
                     -5.7325403560e+02 stress_110
                     -5.8300483794e+02 stress_111
                     -5.9238179465e+02 stress_112
                     -6.0136068248e+02 stress_113
                     -6.0989811714e+02 stress_114
                     -6.1794004495e+02 stress_115
                     -6.2542818971e+02 stress_116
                     -6.3230270353e+02 stress_117
                     -6.3850714233e+02 stress_118
                     -6.4398799101e+02 stress_119
                     -6.4869554807e+02 stress_120
                     -6.5258856004e+02 stress_121
                     -6.5563106025e+02 stress_122
                     -6.5779466064e+02 stress_123
                     -6.5906016492e+02 stress_124
                     -6.5940010495e+02 stress_125
                     -5.5682146916e+02 stress_126
                     -3.0591312188e+02 stress_127
                      8.8083393768e-01 stress_128
                      2.1964654944e+02 stress_129
                      3.2865922731e+02 stress_130
                      3.7949670922e+02 stress_131
                      4.0432425610e+02 stress_132
                      4.1560299693e+02 stress_133
                      4.1623212258e+02 stress_134
                      1.1296165540e+01 stress_135
                     -1.0595945884e+01 stress_136
                      1.7452605250e+02 stress_137
                      1.3838508752e+02 stress_138
                     -3.3984036473e+01 stress_139
                     -3.2104952787e+02 stress_140
                     -5.3005137435e+02 stress_141
                     -6.1376613238e+02 stress_142
                     -6.4626746258e+02 stress_143
                     -6.6106482150e+02 stress_144
                     -6.6717893186e+02 stress_145
                     -6.4677764432e+02 stress_146
                     -4.0872927430e+02 stress_147
                     -5.7901662150e+01 stress_148
                      1.9427097011e+02 stress_149
                      3.0664033770e+02 stress_150
                      3.4821807412e+02 stress_151
                      3.5335221162e+02 stress_152
                      1.3689531080e+02 stress_153
                     -2.3151068689e+02 stress_154
                     -4.9341041311e+02 stress_155
                     -5.9024260984e+02 stress_156
                     -6.1727480287e+02 stress_157
                     -4.9454495553e+02 stress_158
                     -8.9479047269e+01 stress_159
                      9.3852383879e+01 stress_160
                     -7.2969365279e+01 stress_161
                     -4.6832904041e+02 stress_162
                     -6.2387420742e+02 stress_163
                     -6.3483774282e+02 stress_164
                     -5.9307355066e+02 stress_165
                     -5.1078174991e+02 stress_166
                     -3.8999248721e+02 stress_167
                     -2.3777709733e+02 stress_168
                     -7.1378822324e+01 stress_169
                      8.3505846395e+01 stress_170
                      2.0607506675e+02 stress_171
                      2.9186067524e+02 stress_172
                      3.4851125008e+02 stress_173
                      3.8603612512e+02 stress_174
                      4.1208019027e+02 stress_175
                      4.3145714012e+02 stress_176
                      4.4698435304e+02 stress_177
                      4.6027373682e+02 stress_178
                      4.7224192608e+02 stress_179
                      4.8341056292e+02 stress_180
                      4.9407382762e+02 stress_181
                      5.0439109201e+02 stress_182
                      5.1444215698e+02 stress_183
                      5.2425716897e+02 stress_184
                      5.3383627575e+02 stress_185
                      5.4316023476e+02 stress_186
                      5.5219795567e+02 stress_187
                      5.6091144581e+02 stress_188
                      5.6925814058e+02 stress_189
                      5.7719405429e+02 stress_190
                      5.8467494736e+02 stress_191
                      5.9165643150e+02 stress_192
                      5.9809768606e+02 stress_193
                      6.0395909788e+02 stress_194
                      6.0920349413e+02 stress_195
                      6.1379895628e+02 stress_196
                      6.1771541716e+02 stress_197
                      6.2092868655e+02 stress_198
                      6.2341824582e+02 stress_199
                      6.2516732659e+02 stress_200
                      6.2616530158e+02 stress_201
                      6.2621418413e+02 stress_202
                      2.6421348011e+02 stress_203
                     -7.9904788861e+01 stress_204
                      2.9025093312e+01 stress_205
                      4.6809681913e+02 stress_206
                      4.8727292235e+02 stress_207
                      4.2244399899e+02 stress_208
                      3.0533119411e+02 stress_209
                      1.4339265038e+02 stress_210
                     -3.9979275825e+01 stress_211
                     -2.0578243913e+02 stress_212
                     -3.2617415764e+02 stress_213
                     -4.0205047889e+02 stress_214
                     -4.4825429493e+02 stress_215
                     -4.7779496427e+02 stress_216
                     -4.9850308826e+02 stress_217
                     -5.1454629612e+02 stress_218
                     -5.2806582017e+02 stress_219
                     -5.4015423816e+02 stress_220
                     -5.5136421058e+02 stress_221
                     -5.6196337136e+02 stress_222
                     -5.7206572635e+02 stress_223
                     -5.8169978981e+02 stress_224
                     -5.9084700952e+02 stress_225
                     -5.9946220887e+02 stress_226
                     -6.0748636404e+02 stress_227
                     -6.1485577141e+02 stress_228
                     -6.2150375553e+02 stress_229
                     -6.2736864032e+02 stress_230
                     -6.3239308792e+02 stress_231
                     -6.3652513635e+02 stress_232
                     -6.3972395402e+02 stress_233
                     -6.4195602845e+02 stress_234
                     -6.4319704627e+02 stress_235
                     -6.3670416422e+02 stress_236
                     -2.7206849748e+02 stress_237
                      2.3004624509e+01 stress_238
                     -1.9708334300e+02 stress_239
                     -4.4708923740e+02 stress_240
                     -1.1611271576e+02 stress_241
                      6.0555022349e+01 stress_242
                     -2.7193604594e+02 stress_243
                     -3.9574695128e+02 stress_244
                     -5.0425046359e+02 stress_245
                     -3.1922921854e+02 stress_246
                      1.5341063582e+01 stress_247
                      2.7654928492e+02 stress_248
                      3.9085572253e+02 stress_249
                      4.3380500449e+02 stress_250
                      4.4619927417e+02 stress_251
                      3.4077386878e+02 stress_252
                      1.9200486871e+01 stress_253
                     -3.1461587085e+02 stress_254
                     -4.8440091967e+02 stress_255
                     -5.4583201061e+02 stress_256
                     -5.5816412410e+02 stress_257
                     -2.8086851124e+02 stress_258
                      9.8350719142e+01 stress_259
                      2.1649597983e+02 stress_260
                      1.8465411747e+00 stress_261
                     -3.6364491496e+02 stress_262
                     -5.2130585594e+02 stress_263
                     -5.4314004908e+02 stress_264
                     -5.0109350854e+02 stress_265
                     -4.0687274137e+02 stress_266
                     -2.6416731866e+02 stress_267
                     -8.6785732635e+01 stress_268
                      9.4409477608e+01 stress_269
                      2.4349332193e+02 stress_270
                      3.4576670912e+02 stress_271
                      4.0971079635e+02 stress_272
                      4.4965834548e+02 stress_273
                      4.7622598232e+02 stress_274
                      4.9557998224e+02 stress_275
                      5.1101959284e+02 stress_276
                      5.2427462947e+02 stress_277
                      5.3624609846e+02 stress_278
                      5.4739720335e+02 stress_279
                      5.5795472351e+02 stress_280
                      5.6801457794e+02 stress_281
                      5.7759893863e+02 stress_282
                      5.8668774043e+02 stress_283
                      5.9523808736e+02 stress_284
                      6.0319385606e+02 stress_285
                      6.1049465335e+02 stress_286
                      6.1707913633e+02 stress_287
                      6.2288758767e+02 stress_288
                      6.2786660563e+02 stress_289
                      6.3196844882e+02 stress_290
                      6.3515255725e+02 stress_291
                      6.3738822405e+02 stress_292
                      6.3865260161e+02 stress_293
                      6.3867127084e+02 stress_294
                      2.6479587588e+02 stress_295
                     -7.1562325887e+01 stress_296
                      5.9064991659e+01 stress_297
                      4.8354959471e+02 stress_298
                      4.9843248360e+02 stress_299
                      4.5491164486e+02 stress_300
                      3.7655779673e+02 stress_301
                      2.6517623594e+02 stress_302
                      1.2711013668e+02 stress_303
                     -2.3131586416e+01 stress_304
                     -1.6388669374e+02 stress_305
                     -2.7719465934e+02 stress_306
                     -3.5821952198e+02 stress_307
                     -4.1271376381e+02 stress_308
                     -4.4921971429e+02 stress_309
                     -4.7462920497e+02 stress_310
                     -4.9346621476e+02 stress_311
                     -5.0846174460e+02 stress_312
                     -5.2121448108e+02 stress_313
                     -5.3265741481e+02 stress_314
                     -5.4333507749e+02 stress_315
                     -5.5356457719e+02 stress_316
                     -5.6352854346e+02 stress_317
                     -5.7332746264e+02 stress_318
                     -5.8301117318e+02 stress_319
                     -5.9259782263e+02 stress_320
                     -6.0208453719e+02 stress_321
                     -6.1145554437e+02 stress_322
                     -6.2068581983e+02 stress_323
                     -6.2974502321e+02 stress_324
                     -6.3859965105e+02 stress_325
                     -6.4721313307e+02 stress_326
                     -6.5554913694e+02 stress_327
                     -6.6356946472e+02 stress_328
                     -6.7123813435e+02 stress_329
                     -6.7851928115e+02 stress_330
                     -6.8537780490e+02 stress_331
                     -6.9178133310e+02 stress_332
                     -6.9769832246e+02 stress_333
                     -7.0310023019e+02 stress_334
                     -7.0796113662e+02 stress_335
                     -7.1225566578e+02 stress_336
                     -7.1596396382e+02 stress_337
                     -7.1906708108e+02 stress_338
                     -7.2154949381e+02 stress_339
                     -7.2339937811e+02 stress_340
                     -7.2460729604e+02 stress_341
                     -7.2516701966e+02 stress_342


Active response data for evaluation 116:
Active set vector = { 1 1 1 1 1 1 1 1 1 1 1 1 1 1 1 1 1 1 1 1 1 1 1 1 1 1 1 1 1 1 1 1 1 1 1 1 1 1 1 1 1 1 1 1 1 1 1 1 1 1 1 1 1 1 1 1 1 1 1 1 1 1 1 1 1 1 1 1 1 1 1 1 1 1 1 1 1 1 1 1 1 1 1 1 1 1 1 1 1 1 1 1 1 1 1 1 1 1 1 1 1 1 1 1 1 1 1 1 1 1 1 1 1 1 1 1 1 1 1 1 1 1 1 1 1 1 1 1 1 1 1 1 1 1 1 1 1 1 1 1 1 1 1 1 1 1 1 1 1 1 1 1 1 1 1 1 1 1 1 1 1 1 1 1 1 1 1 1 1 1 1 1 1 1 1 1 1 1 1 1 1 1 1 1 1 1 1 1 1 1 1 1 1 1 1 1 1 1 1 1 1 1 1 1 1 1 1 1 1 1 1 1 1 1 1 1 1 1 1 1 1 1 1 1 1 1 1 1 1 1 1 1 1 1 1 1 1 1 1 1 1 1 1 1 1 1 1 1 1 1 1 1 1 1 1 1 1 1 1 1 1 1 1 1 1 1 1 1 1 1 1 1 1 1 1 1 1 1 1 1 1 1 1 1 1 1 1 1 1 1 1 1 1 1 1 1 1 1 1 1 1 1 1 1 1 1 1 1 1 1 1 1 1 1 1 1 1 1 1 1 1 1 1 1 1 1 1 1 1 1 1 1 1 1 1 1 1 1 1 1 1 1 }
                      2.4220726013e+00 stress_1
                     -2.5172158351e+02 stress_2
                     -4.9427975869e+02 stress_3
                     -4.9579947163e+02 stress_4
                     -1.6684885925e+02 stress_5
                      2.5326939025e+02 stress_6
                      4.0133981143e+02 stress_7
                      4.0220820849e+02 stress_8
                      1.5254132759e+02 stress_9
                     -2.3139771322e+02 stress_10
                     -4.3995118829e+02 stress_11
                     -4.8924983011e+02 stress_12
                     -5.0317029618e+02 stress_13
                     -5.0416382390e+02 stress_14
                     -1.7340386688e+02 stress_15
                     -3.4137168518e+02 stress_16
                     -5.0984232060e+02 stress_17
                     -3.1503895719e+02 stress_18
                      2.1430216655e+01 stress_19
                      2.9854198099e+02 stress_20
                      4.1855257160e+02 stress_21
                      4.6350587581e+02 stress_22
                      4.8207320191e+02 stress_23
                      4.8819801042e+02 stress_24
                      1.5749522840e+02 stress_25
                      2.8561076049e+02 stress_26
                      4.2948901747e+02 stress_27
                      4.6526537689e+02 stress_28
                      3.4239175505e+02 stress_29
                      1.2875168525e+02 stress_30
                     -1.2499872203e+02 stress_31
                     -3.2063753439e+02 stress_32
                     -4.2447180206e+02 stress_33
                     -4.7428552098e+02 stress_34
                     -5.0124648214e+02 stress_35
                     -5.1873532583e+02 stress_36
                     -5.3173627076e+02 stress_37
                     -5.4205267624e+02 stress_38
                     -5.5029187817e+02 stress_39
                     -5.5659896677e+02 stress_40
                     -5.6095974125e+02 stress_41
                     -5.6331497452e+02 stress_42
                     -5.4784780154e+02 stress_43
                     -1.6078652363e+02 stress_44
                      1.0632813098e+02 stress_45
                     -9.9882396490e+01 stress_46
                     -4.5326121004e+02 stress_47
                     -1.5683860943e+02 stress_48
                     -2.5977716701e+02 stress_49
                     -4.1958865058e+02 stress_50
                     -5.6868637093e+02 stress_51
                     -3.9871014730e+02 stress_52
                     -6.1107081162e+01 stress_53
                      2.2645970823e+02 stress_54
                      3.5824455424e+02 stress_55
                      4.0780875078e+02 stress_56
                      4.2286441554e+02 stress_57
                      3.3649327752e+02 stress_58
                      2.1658819376e+01 stress_59
                     -3.1591995774e+02 stress_60
                     -4.7142757012e+02 stress_61
                     -5.2135528523e+02 stress_62
                     -5.3237236214e+02 stress_63
                     -2.6389812136e+02 stress_64
                      1.1337102231e+02 stress_65
                      2.0039620181e+02 stress_66
                     -7.1934619481e+01 stress_67
                     -4.4067784816e+02 stress_68
                     -5.3487716594e+02 stress_69
                     -5.3595663480e+02 stress_70
                     -4.4055628622e+02 stress_71
                     -2.6830890095e+02 stress_72
                     -4.4823205303e+01 stress_73
                      1.6685239341e+02 stress_74
                      3.1132747322e+02 stress_75
                      3.9197929631e+02 stress_76
                      4.3621622383e+02 stress_77
                      4.6304875399e+02 stress_78
                      4.8167420539e+02 stress_79
                      4.9614272958e+02 stress_80
                      5.0820036034e+02 stress_81
                      5.1857530920e+02 stress_82
                      5.2753601134e+02 stress_83
                      5.3514254666e+02 stress_84
                      5.4136058229e+02 stress_85
                      5.4612433915e+02 stress_86
                      5.4936600894e+02 stress_87
                      5.5102978422e+02 stress_88
                      4.7729992696e+02 stress_89
                      4.3684895806e+01 stress_90
                     -1.5950634847e+02 stress_91
                      1.3072918344e+02 stress_92
                      4.7803136335e+02 stress_93
                      4.8437161275e+02 stress_94
                      4.2416539447e+02 stress_95
                      3.1598660003e+02 stress_96
                      1.6529775924e+02 stress_97
                     -1.0249549625e+01 stress_98
                     -1.7746753297e+02 stress_99
                     -3.0622704180e+02 stress_100
                     -3.9082076957e+02 stress_101
                     -4.4300332309e+02 stress_102
                     -4.7596030061e+02 stress_103
                     -4.9844216304e+02 stress_104
                     -5.1532569270e+02 stress_105
                     -5.2918781538e+02 stress_106
                     -5.4137241269e+02 stress_107
                     -5.5257812786e+02 stress_108
                     -5.6316177533e+02 stress_109
                     -5.7329501966e+02 stress_110
                     -5.8304595542e+02 stress_111
                     -5.9242301308e+02 stress_112
                     -6.0140197829e+02 stress_113
                     -6.0993947292e+02 stress_114
                     -6.1798144762e+02 stress_115
                     -6.2546962931e+02 stress_116
                     -6.3234417234e+02 stress_117
                     -6.3854863424e+02 stress_118
                     -6.4402950113e+02 stress_119
                     -6.4873707240e+02 stress_120
                     -6.5263009521e+02 stress_121
                     -6.5567260337e+02 stress_122
                     -6.5783620916e+02 stress_123
                     -6.5910171651e+02 stress_124
                     -6.5944165735e+02 stress_125
                     -5.5686302411e+02 stress_126
                     -3.0595448086e+02 stress_127
                      8.4337679245e-01 stress_128
                      2.1961979346e+02 stress_129
                      3.2864235522e+02 stress_130
                      3.7948557188e+02 stress_131
                      4.0431599980e+02 stress_132
                      4.1559600230e+02 stress_133
                      4.1622519662e+02 stress_134
                      1.1290934122e+01 stress_135
                     -1.0600945358e+01 stress_136
                      1.7452075856e+02 stress_137
                      1.3837979468e+02 stress_138
                     -3.3988976677e+01 stress_139
                     -3.2105408460e+02 stress_140
                     -5.3007155423e+02 stress_141
                     -6.1380479611e+02 stress_142
                     -6.4631558973e+02 stress_143
                     -6.6111705297e+02 stress_144
                     -6.6723267611e+02 stress_145
                     -6.4683138858e+02 stress_146
                     -4.0878293092e+02 stress_147
                     -5.7951238866e+01 stress_148
                      1.9423532457e+02 stress_149
                      3.0661675226e+02 stress_150
                      3.4820004581e+02 stress_151
                      3.5333490341e+02 stress_152
                      1.3687841404e+02 stress_153
                     -2.3151943874e+02 stress_154
                     -4.9342044104e+02 stress_155
                     -5.9026671168e+02 stress_156
                     -6.1730559665e+02 stress_157
                     -4.9457575713e+02 stress_158
                     -8.9508979324e+01 stress_159
                      9.3825787704e+01 stress_160
                     -7.2995822645e+01 stress_161
                     -4.6833970166e+02 stress_162
                     -6.2389563604e+02 stress_163
                     -6.3486300462e+02 stress_164
                     -5.9309881281e+02 stress_165
                     -5.1080702162e+02 stress_166
                     -3.9001780222e+02 stress_167
                     -2.3780239513e+02 stress_168
                     -7.1403473780e+01 stress_169
                      8.3483393708e+01 stress_170
                      2.0605646155e+02 stress_171
                      2.9184647003e+02 stress_172
                      3.4850091084e+02 stress_173
                      3.8602872662e+02 stress_174
                      4.1207488285e+02 stress_175
                      4.3145328382e+02 stress_176
                      4.4698150187e+02 stress_177
                      4.6027158834e+02 stress_178
                      4.7224027590e+02 stress_179
                      4.8340927183e+02 stress_180
                      4.9407279962e+02 stress_181
                      5.0439025986e+02 stress_182
                      5.1444147283e+02 stress_183
                      5.2425659824e+02 stress_184
                      5.3383579306e+02 stress_185
                      5.4315982121e+02 stress_186
                      5.5219759699e+02 stress_187
                      5.6091113108e+02 stress_188
                      5.6925786133e+02 stress_189
                      5.7719380387e+02 stress_190
                      5.8467472051e+02 stress_191
                      5.9165622396e+02 stress_192
                      5.9809749438e+02 stress_193
                      6.0395891921e+02 stress_194
                      6.0920332609e+02 stress_195
                      6.1379879684e+02 stress_196
                      6.1771526458e+02 stress_197
                      6.2092853929e+02 stress_198
                      6.2341810251e+02 stress_199
                      6.2516718596e+02 stress_200
                      6.2616516246e+02 stress_201
                      6.2621404508e+02 stress_202
                      2.6421255585e+02 stress_203
                     -7.9916084913e+01 stress_204
                      2.9013796928e+01 stress_205
                      4.6807209801e+02 stress_206
                      4.8724599200e+02 stress_207
                      4.2241706868e+02 stress_208
                      3.0530423165e+02 stress_209
                      1.4336517746e+02 stress_210
                     -4.0009485431e+01 stress_211
                     -2.0581952541e+02 stress_212
                     -3.2622065824e+02 stress_213
                     -4.0210541523e+02 stress_214
                     -4.4831521455e+02 stress_215
                     -4.7785972793e+02 stress_216
                     -4.9857025835e+02 stress_217
                     -5.1461498468e+02 stress_218
                     -5.2813548787e+02 stress_219
                     -5.4022455389e+02 stress_220
                     -5.5143496670e+02 stress_221
                     -5.6203443432e+02 stress_222
                     -5.7213700802e+02 stress_223
                     -5.8177123058e+02 stress_224
                     -5.9091856808e+02 stress_225
                     -5.9953385595e+02 stress_226
                     -6.0755807845e+02 stress_227
                     -6.1492753746e+02 stress_228
                     -6.2157556137e+02 stress_229
                     -6.2744047680e+02 stress_230
                     -6.3246494782e+02 stress_231
                     -6.3659701377e+02 stress_232
                     -6.3979584403e+02 stress_233
                     -6.4202792680e+02 stress_234
                     -6.4326894910e+02 stress_235
                     -6.3677606704e+02 stress_236
                     -2.7213971514e+02 stress_237
                      2.2940494101e+01 stress_238
                     -1.9714668640e+02 stress_239
                     -4.4714866544e+02 stress_240
                     -1.1617135956e+02 stress_241
                      6.0500219652e+01 stress_242
                     -2.7198909251e+02 stress_243
                     -3.9579893112e+02 stress_244
                     -5.0430402698e+02 stress_245
                     -3.1928274883e+02 stress_246
                      1.5290882084e+01 stress_247
                      2.7651434101e+02 stress_248
                      3.9083476202e+02 stress_249
                      4.3379059767e+02 stress_250
                      4.4618681945e+02 stress_251
                      3.4076142703e+02 stress_252
                      1.9188158721e+01 stress_253
                     -3.1463599745e+02 stress_254
                     -4.8443716776e+02 stress_255
                     -5.4587788074e+02 stress_256
                     -5.5821220013e+02 stress_257
                     -2.8091648407e+02 stress_258
                      9.8308488344e+01 stress_259
                      2.1645991832e+02 stress_260
                      1.8107414707e+00 stress_261
                     -3.6368175546e+02 stress_262
                     -5.2135238623e+02 stress_263
                     -5.4318908110e+02 stress_264
                     -5.0114254075e+02 stress_265
                     -4.0692177234e+02 stress_266
                     -2.6421621215e+02 stress_267
                     -8.6833405246e+01 stress_268
                      9.4366313176e+01 stress_269
                      2.4345873325e+02 stress_270
                      3.4574191562e+02 stress_271
                      4.0969405726e+02 stress_272
                      4.4964719546e+02 stress_273
                      4.7621845863e+02 stress_274
                      4.9557477912e+02 stress_275
                      5.1101589056e+02 stress_276
                      5.2427191825e+02 stress_277
                      5.3624405751e+02 stress_278
                      5.4739562673e+02 stress_279
                      5.5795347590e+02 stress_280
                      5.6801356834e+02 stress_281
                      5.7759810441e+02 stress_282
                      5.8668703752e+02 stress_283
                      5.9523748410e+02 stress_284
                      6.0319332925e+02 stress_285
                      6.1049418561e+02 stress_286
                      6.1707871442e+02 stress_287
                      6.2288720126e+02 stress_288
                      6.2786624647e+02 stress_289
                      6.3196811017e+02 stress_290
                      6.3515223344e+02 stress_291
                      6.3738791013e+02 stress_292
                      6.3865229308e+02 stress_293
                      6.3867096240e+02 stress_294
                      2.6479472277e+02 stress_295
                     -7.1573484054e+01 stress_296
                      5.9053830508e+01 stress_297
                      4.8352117593e+02 stress_298
                      4.9840229310e+02 stress_299
                      4.5488145449e+02 stress_300
                      3.7652760398e+02 stress_301
                      2.6514596956e+02 stress_302
                      1.2707932972e+02 stress_303
                     -2.3164428025e+01 stress_304
                     -1.6392413310e+02 stress_305
                     -2.7723885654e+02 stress_306
                     -3.5827082540e+02 stress_307
                     -4.1277103993e+02 stress_308
                     -4.4928141270e+02 stress_309
                     -4.7469398612e+02 stress_310
                     -4.9353310027e+02 stress_311
                     -5.0853006676e+02 stress_312
                     -5.2128379428e+02 stress_313
                     -5.3272742218e+02 stress_314
                     -5.4340557939e+02 stress_315
                     -5.5363543753e+02 stress_316
                     -5.6359966794e+02 stress_317
                     -5.7339878487e+02 stress_318
                     -5.8308264565e+02 stress_319
                     -5.9266941082e+02 stress_320
                     -6.0215621563e+02 stress_321
                     -6.1152729402e+02 stress_322
                     -6.2075762625e+02 stress_323
                     -6.2981687535e+02 stress_324
                     -6.3867154032e+02 stress_325
                     -6.4728505271e+02 stress_326
                     -6.5562108164e+02 stress_327
                     -6.6364143018e+02 stress_328
                     -6.7131011711e+02 stress_329
                     -6.7859127840e+02 stress_330
                     -6.8544981430e+02 stress_331
                     -6.9185335271e+02 stress_332
                     -6.9777035064e+02 stress_333
                     -7.0317226556e+02 stress_334
                     -7.0803317799e+02 stress_335
                     -7.1232771210e+02 stress_336
                     -7.1603601419e+02 stress_337
                     -7.1913913468e+02 stress_338
                     -7.2162154989e+02 stress_339
                     -7.2347143599e+02 stress_340
                     -7.2467935507e+02 stress_341
                     -7.2523907922e+02 stress_342


Active response data for evaluation 117:
Active set vector = { 1 1 1 1 1 1 1 1 1 1 1 1 1 1 1 1 1 1 1 1 1 1 1 1 1 1 1 1 1 1 1 1 1 1 1 1 1 1 1 1 1 1 1 1 1 1 1 1 1 1 1 1 1 1 1 1 1 1 1 1 1 1 1 1 1 1 1 1 1 1 1 1 1 1 1 1 1 1 1 1 1 1 1 1 1 1 1 1 1 1 1 1 1 1 1 1 1 1 1 1 1 1 1 1 1 1 1 1 1 1 1 1 1 1 1 1 1 1 1 1 1 1 1 1 1 1 1 1 1 1 1 1 1 1 1 1 1 1 1 1 1 1 1 1 1 1 1 1 1 1 1 1 1 1 1 1 1 1 1 1 1 1 1 1 1 1 1 1 1 1 1 1 1 1 1 1 1 1 1 1 1 1 1 1 1 1 1 1 1 1 1 1 1 1 1 1 1 1 1 1 1 1 1 1 1 1 1 1 1 1 1 1 1 1 1 1 1 1 1 1 1 1 1 1 1 1 1 1 1 1 1 1 1 1 1 1 1 1 1 1 1 1 1 1 1 1 1 1 1 1 1 1 1 1 1 1 1 1 1 1 1 1 1 1 1 1 1 1 1 1 1 1 1 1 1 1 1 1 1 1 1 1 1 1 1 1 1 1 1 1 1 1 1 1 1 1 1 1 1 1 1 1 1 1 1 1 1 1 1 1 1 1 1 1 1 1 1 1 1 1 1 1 1 1 1 1 1 1 1 1 1 1 1 1 1 1 1 1 1 1 1 1 }
                      2.4220726013e+00 stress_1
                     -2.5172158489e+02 stress_2
                     -4.9427048252e+02 stress_3
                     -4.9579006657e+02 stress_4
                     -1.6683940084e+02 stress_5
                      2.5328085249e+02 stress_6
                      4.0135334489e+02 stress_7
                      4.0222175564e+02 stress_8
                      1.5255486811e+02 stress_9
                     -2.3138462715e+02 stress_10
                     -4.3993906211e+02 stress_11
                     -4.8923792878e+02 stress_12
                     -5.0315842824e+02 stress_13
                     -5.0415195753e+02 stress_14
                     -1.7339185629e+02 stress_15
                     -3.4135967483e+02 stress_16
                     -5.0982851983e+02 stress_17
                     -3.1502514159e+02 stress_18
                      2.1444757436e+01 stress_19
                      2.9855948062e+02 stress_20
                      4.1857247722e+02 stress_21
                      4.6352676817e+02 stress_22
                      4.8209445644e+02 stress_23
                      4.8821937072e+02 stress_24
                      1.5751656585e+02 stress_25
                      2.8563209792e+02 stress_26
                      4.2951024929e+02 stress_27
                      4.6528654848e+02 stress_28
                      3.4241292616e+02 stress_29
                      1.2877283359e+02 stress_30
                     -1.2497775023e+02 stress_31
                     -3.2061695067e+02 stress_32
                     -4.2445154931e+02 stress_33
                     -4.7426544354e+02 stress_34
                     -5.0122648703e+02 stress_35
                     -5.1871537040e+02 stress_36
                     -5.3171633570e+02 stress_37
                     -5.4203275231e+02 stress_38
                     -5.5027196062e+02 stress_39
                     -5.5657905294e+02 stress_40
                     -5.6093982953e+02 stress_41
                     -5.6329506380e+02 stress_42
                     -5.4782789082e+02 stress_43
                     -1.6076586922e+02 stress_44
                      1.0635289877e+02 stress_45
                     -9.9857623640e+01 stress_46
                     -4.5323183372e+02 stress_47
                     -1.5680901718e+02 stress_48
                     -2.5974757463e+02 stress_49
                     -4.1955882585e+02 stress_50
                     -5.6865184173e+02 stress_51
                     -3.9867560665e+02 stress_52
                     -6.1071896079e+01 stress_53
                      2.2649764022e+02 stress_54
                      3.5828494557e+02 stress_55
                      4.0785024403e+02 stress_56
                      4.2290624485e+02 stress_57
                      3.3653510630e+02 stress_58
                      2.1700430326e+01 stress_59
                     -3.1588046116e+02 stress_60
                     -4.7139049000e+02 stress_61
                     -5.2131916878e+02 stress_62
                     -5.3233645666e+02 stress_63
                     -2.6386215670e+02 stress_64
                      1.1340844547e+02 stress_65
                      2.0043451761e+02 stress_66
                     -7.1896343955e+01 stress_67
                     -4.4064128199e+02 stress_68
                     -5.3484178736e+02 stress_69
                     -5.3592127040e+02 stress_70
                     -4.4052092044e+02 stress_71
                     -2.6827347357e+02 stress_72
                     -4.4787246657e+01 stress_73
                      1.6688997633e+02 stress_74
                      3.1136719334e+02 stress_75
                      3.9202061421e+02 stress_76
                      4.3625846276e+02 stress_77
                      4.6309148876e+02 stress_78
                      4.8171721089e+02 stress_79
                      4.9618588908e+02 stress_80
                      5.0824361150e+02 stress_81
                      5.1861861723e+02 stress_82
                      5.2757935585e+02 stress_83
                      5.3518591511e+02 stress_84
                      5.4140396657e+02 stress_85
                      5.4616773370e+02 stress_86
                      5.4940940970e+02 stress_87
                      5.5107318794e+02 stress_88
                      4.7734333058e+02 stress_89
                      4.3728183371e+01 stress_90
                     -1.5946334267e+02 stress_91
                      1.3077226112e+02 stress_92
                      4.7808104837e+02 stress_93
                      4.8442159707e+02 stress_94
                      4.2421537850e+02 stress_95
                      3.1603657169e+02 stress_96
                      1.6534761060e+02 stress_97
                     -1.0200230591e+01 stress_98
                     -1.7741947781e+02 stress_99
                     -3.0618072331e+02 stress_100
                     -3.9077602341e+02 stress_101
                     -4.4295968481e+02 stress_102
                     -4.7591735832e+02 stress_103
                     -4.9839964334e+02 stress_104
                     -5.1528343091e+02 stress_105
                     -5.2914571448e+02 stress_106
                     -5.4133041499e+02 stress_107
                     -5.5253619827e+02 stress_108
                     -5.6311989195e+02 stress_109
                     -5.7325316842e+02 stress_110
                     -5.8300412707e+02 stress_111
                     -5.9238120137e+02 stress_112
                     -6.0136017888e+02 stress_113
                     -6.0989768277e+02 stress_114
                     -6.1793966451e+02 stress_115
                     -6.2542785162e+02 stress_116
                     -6.3230239885e+02 stress_117
                     -6.3850686403e+02 stress_118
                     -6.4398773346e+02 stress_119
                     -6.4869530668e+02 stress_120
                     -6.5258833097e+02 stress_121
                     -6.5563084021e+02 stress_122
                     -6.5779444673e+02 stress_123
                     -6.5905995449e+02 stress_124
                     -6.5939989544e+02 stress_125
                     -5.5682125557e+02 stress_126
                     -3.0591211717e+02 stress_127
                      8.9096854193e-01 stress_128
                      2.1967783259e+02 stress_129
                      3.2870848117e+02 stress_130
                      3.7955591489e+02 stress_131
                      4.0438832904e+02 stress_132
                      4.1566917048e+02 stress_133
                      4.1629840989e+02 stress_134
                      1.1363860549e+01 stress_135
                     -1.0528082721e+01 stress_136
                      1.7459377672e+02 stress_137
                      1.3845281277e+02 stress_138
                     -3.3916016710e+01 stress_139
                     -3.2098266231e+02 stress_140
                     -5.3000452529e+02 stress_141
                     -6.1374065226e+02 stress_142
                     -6.4625256733e+02 stress_143
                     -6.6105445148e+02 stress_144
                     -6.6717021900e+02 stress_145
                     -6.4676893147e+02 stress_146
                     -4.0872039573e+02 stress_147
                     -5.7887012073e+01 stress_148
                      1.9430394042e+02 stress_149
                      3.0668865453e+02 stress_150
                      3.4827335310e+02 stress_151
                      3.5340838790e+02 stress_152
                      1.3695187137e+02 stress_153
                     -2.3144733397e+02 stress_154
                     -4.9335271159e+02 stress_155
                     -5.9020175431e+02 stress_156
                     -6.1724148566e+02 stress_157
                     -4.9451164075e+02 stress_158
                     -8.9443771551e+01 stress_159
                      9.3893127042e+01 stress_160
                     -7.2928489095e+01 stress_161
                     -4.6827400342e+02 stress_162
                     -6.2383272206e+02 stress_163
                     -6.3480032155e+02 stress_164
                     -5.9303612963e+02 stress_165
                     -5.1074433262e+02 stress_166
                     -3.8995504846e+02 stress_167
                     -2.3773930073e+02 stress_168
                     -7.1339322364e+01 stress_169
                      8.3549612149e+01 stress_170
                      2.0612535760e+02 stress_171
                      2.9191788039e+02 stress_172
                      3.4857423905e+02 stress_173
                      3.8610336530e+02 stress_174
                      4.1215037769e+02 stress_175
                      4.3152933318e+02 stress_176
                      4.4705791380e+02 stress_177
                      4.6034824163e+02 stress_178
                      4.7231709325e+02 stress_179
                      4.8348620312e+02 stress_180
                      4.9414981171e+02 stress_181
                      5.0446733038e+02 stress_182
                      5.1451858638e+02 stress_183
                      5.2433374401e+02 stress_184
                      5.3391296333e+02 stress_185
                      5.4323701036e+02 stress_186
                      5.5227480087e+02 stress_187
                      5.6098834658e+02 stress_188
                      5.6933508609e+02 stress_189
                      5.7727103606e+02 stress_190
                      5.8475195870e+02 stress_191
                      5.9173346703e+02 stress_192
                      5.9817474142e+02 stress_193
                      6.0403616948e+02 stress_194
                      6.0928057897e+02 stress_195
                      6.1387605183e+02 stress_196
                      6.1779252125e+02 stress_197
                      6.2100579725e+02 stress_198
                      6.2349536143e+02 stress_199
                      6.2524444553e+02 stress_200
                      6.2624242239e+02 stress_201
                      6.2629130502e+02 stress_202
                      2.6428972993e+02 stress_203
                     -7.9839792141e+01 stress_204
                      2.9090089772e+01 stress_205
                      4.6815292547e+02 stress_206
                      4.8732783719e+02 stress_207
                      4.2249891337e+02 stress_208
                      3.0538605527e+02 stress_209
                      1.4344680441e+02 stress_210
                     -3.9928668971e+01 stress_211
                     -2.0574043765e+02 stress_212
                     -3.2614368218e+02 stress_213
                     -4.0203017824e+02 stress_214
                     -4.4824113344e+02 stress_215
                     -4.7778635210e+02 stress_216
                     -4.9849730585e+02 stress_217
                     -5.1454229010e+02 stress_218
                     -5.2806295471e+02 stress_219
                     -5.4015212488e+02 stress_220
                     -5.5136260691e+02 stress_221
                     -5.6196212183e+02 stress_222
                     -5.7206472868e+02 stress_223
                     -5.8169897498e+02 stress_224
                     -5.9084632984e+02 stress_225
                     -5.9946163060e+02 stress_226
                     -6.0748586280e+02 stress_227
                     -6.1485532919e+02 stress_228
                     -6.2150335875e+02 stress_229
                     -6.2736827850e+02 stress_230
                     -6.3239275279e+02 stress_231
                     -6.3652482119e+02 stress_232
                     -6.3972365321e+02 stress_233
                     -6.4195573713e+02 stress_234
                     -6.4319676005e+02 stress_235
                     -6.3670387799e+02 stress_236
                     -2.7206721166e+02 stress_237
                      2.3015323657e+01 stress_238
                     -1.9707189886e+02 stress_239
                     -4.4707455340e+02 stress_240
                     -1.1609687567e+02 stress_241
                      6.0576094754e+01 stress_242
                     -2.7191343981e+02 stress_243
                     -3.9572378181e+02 stress_244
                     -5.0422974808e+02 stress_245
                     -3.1920843404e+02 stress_246
                      1.5366704347e+01 stress_247
                      2.7659532223e+02 stress_248
                      3.9091981030e+02 stress_249
                      4.3387740061e+02 stress_250
                      4.4627412584e+02 stress_251
                      3.4084873068e+02 stress_252
                      1.9274970910e+01 stress_253
                     -3.1455286513e+02 stress_254
                     -4.8435850187e+02 stress_255
                     -5.4580134279e+02 stress_256
                     -5.5813611099e+02 stress_257
                     -2.8084028244e+02 stress_258
                      9.8387166546e+01 stress_259
                      2.1654070680e+02 stress_260
                      1.8914806424e+00 stress_261
                     -3.6360297683e+02 stress_262
                     -5.2127643000e+02 stress_263
                     -5.4311364843e+02 stress_264
                     -5.0106710794e+02 stress_265
                     -4.0684633021e+02 stress_266
                     -2.6414065056e+02 stress_267
                     -8.6757198335e+01 stress_268
                      9.4444352178e+01 stress_269
                      2.4353971647e+02 stress_270
                      3.4582588387e+02 stress_271
                      4.0978027092e+02 stress_272
                      4.4973486324e+02 stress_273
                      4.7630701917e+02 stress_274
                      4.9566388564e+02 stress_275
                      5.1110533703e+02 stress_276
                      5.2436158204e+02 stress_277
                      5.3633386425e+02 stress_278
                      5.4748553011e+02 stress_279
                      5.5804344632e+02 stress_280
                      5.6810358636e+02 stress_281
                      5.7768815694e+02 stress_282
                      5.8677711551e+02 stress_283
                      5.9532758117e+02 stress_284
                      6.0328344079e+02 stress_285
                      6.1058430824e+02 stress_286
                      6.1716884557e+02 stress_287
                      6.2297733896e+02 stress_288
                      6.2795638917e+02 stress_289
                      6.3205825662e+02 stress_290
                      6.3524238258e+02 stress_291
                      6.3747806107e+02 stress_292
                      6.3874244500e+02 stress_293
                      6.3876111433e+02 stress_294
                      2.6488454815e+02 stress_295
                     -7.1486674008e+01 stress_296
                      5.9140640688e+01 stress_297
                      4.8360929465e+02 stress_298
                      4.9849061445e+02 stress_299
                      4.5496977565e+02 stress_300
                      3.7661591729e+02 stress_301
                      2.6523420573e+02 stress_302
                      1.2716718955e+02 stress_303
                     -2.3077689519e+01 stress_304
                     -1.6383956247e+02 stress_305
                     -2.7715713151e+02 stress_306
                     -3.5819184530e+02 stress_307
                     -4.1269421499e+02 stress_308
                     -4.4920609771e+02 stress_309
                     -4.7461967654e+02 stress_310
                     -4.9345945088e+02 stress_311
                     -5.0845685326e+02 stress_312
                     -5.2121087283e+02 stress_313
                     -5.3265470006e+02 stress_314
                     -5.4333299606e+02 stress_315
                     -5.5356295272e+02 stress_316
                     -5.6352725439e+02 stress_317
                     -5.7332642378e+02 stress_318
                     -5.8301032380e+02 stress_319
                     -5.9259711876e+02 stress_320
                     -6.0208394652e+02 stress_321
                     -6.1145504279e+02 stress_322
                     -6.2068538913e+02 stress_323
                     -6.2974464947e+02 stress_324
                     -6.3859932348e+02 stress_325
                     -6.4721284323e+02 stress_326
                     -6.5554887815e+02 stress_327
                     -6.6356923164e+02 stress_328
                     -6.7123792267e+02 stress_329
                     -6.7851908736e+02 stress_330
                     -6.8537762609e+02 stress_331
                     -6.9178116688e+02 stress_332
                     -6.9769816680e+02 stress_333
                     -7.0310008338e+02 stress_334
                     -7.0796099718e+02 stress_335
                     -7.1225553244e+02 stress_336
                     -7.1596383545e+02 stress_337
                     -7.1906695667e+02 stress_338
                     -7.2154937245e+02 stress_339
                     -7.2339925896e+02 stress_340
                     -7.2460717830e+02 stress_341
                     -7.2516690256e+02 stress_342

>>>>> Total response returned to iterator:

Active set vector = { 2 2 2 2 2 2 2 2 2 2 2 2 2 2 2 2 2 2 2 2 2 2 2 2 2 2 2 2 2 2 2 2 2 2 2 2 2 2 2 2 2 2 2 2 2 2 2 2 2 2 2 2 2 2 2 2 2 2 2 2 2 2 2 2 2 2 2 2 2 2 2 2 2 2 2 2 2 2 2 2 2 2 2 2 2 2 2 2 2 2 2 2 2 2 2 2 2 2 2 2 2 2 2 2 2 2 2 2 2 2 2 2 2 2 2 2 2 2 2 2 2 2 2 2 2 2 2 2 2 2 2 2 2 2 2 2 2 2 2 2 2 2 2 2 2 2 2 2 2 2 2 2 2 2 2 2 2 2 2 2 2 2 2 2 2 2 2 2 2 2 2 2 2 2 2 2 2 2 2 2 2 2 2 2 2 2 2 2 2 2 2 2 2 2 2 2 2 2 2 2 2 2 2 2 2 2 2 2 2 2 2 2 2 2 2 2 2 2 2 2 2 2 2 2 2 2 2 2 2 2 2 2 2 2 2 2 2 2 2 2 2 2 2 2 2 2 2 2 2 2 2 2 2 2 2 2 2 2 2 2 2 2 2 2 2 2 2 2 2 2 2 2 2 2 2 2 2 2 2 2 2 2 2 2 2 2 2 2 2 2 2 2 2 2 2 2 2 2 2 2 2 2 2 2 2 2 2 2 2 2 2 2 2 2 2 2 2 2 2 2 2 2 2 2 2 2 2 2 2 2 2 2 2 2 2 2 2 2 2 2 2 2 } Deriv vars vector = { 1 2 3 4 5 6 7 }
 [  0.0000000000e+00  1.1653236994e-05  0.0000000000e+00  0.0000000000e+00 
    0.0000000000e+00  0.0000000000e+00  0.0000000000e+00 ] stress_1 gradient
 [ -1.9956073800e-05 -1.2110527677e-03 -5.4374122477e-04  2.4708750999e-03 
   -2.8653675871e-02  6.8910245353e-02  0.0000000000e+00 ] stress_2 gradient
 [ -9.9810469683e-01 -7.0258444978e-05 -2.2761098361e+02  2.2110309786e-01 
   -2.5649602678e+00 -4.6320517668e+02  0.0000000000e+00 ] stress_3 gradient
 [ -1.0006199113e+00 -7.1841880927e-05 -3.0614346640e+02  5.5761330163e-02 
   -6.4662403726e-01 -4.6964129366e+02  0.0000000000e+00 ] stress_4 gradient
 [ -9.8328684381e-01  1.4704768399e-03 -3.0517180161e+02 -2.3531718038e+01 
    3.0066648953e+01 -4.6501631768e+02  5.8306073536e+00 ] stress_5 gradient
 [ -2.9386606792e-01  1.8940801885e-03 -2.2913726402e+02 -5.2306914603e+02 
    6.8576422917e+02 -2.9130757278e+02  2.2482409734e+02 ] stress_6 gradient
 [  4.6006472468e-01  8.6524456878e-04 -2.6716160144e+01 -6.2782026395e+02 
    8.2340973572e+02 -1.1176143108e+02  4.5117884394e+02 ] stress_7 gradient
 [  4.6522876976e-01  8.5750848510e-04 -2.4272045280e+01 -6.2667538685e+02 
    8.2189930373e+02 -1.1057547578e+02  4.5267434260e+02 ] stress_8 gradient
 [  4.5814436356e-01 -3.2720038476e-04 -2.4598833495e+01 -6.1514913376e+02 
    8.0653071300e+02 -1.1246351662e+02  4.5089923682e+02 ] stress_9 gradient
 [  9.2596182523e-03 -1.1342122213e-03 -6.8422710223e+01 -7.9008368905e+01 
    8.6471318834e+01 -2.4192639162e+02  3.2918705586e+02 ] stress_10 gradient
 [ -8.3941239550e-01 -1.7729421182e-04 -3.6643942673e+02  4.0039270268e+02 
   -5.4984177583e+02 -5.1537572470e+02  7.2108279911e+01 ] stress_11 gradient
 [ -9.9618414842e-01 -5.1664198625e-05 -7.7927462414e+02  2.4385504220e+02 
   -3.3179861721e+02 -5.7943129252e+02  1.1887696476e+01 ] stress_12 gradient
 [ -1.0099722139e+00 -8.6359925994e-05 -1.0691227227e+03  1.5991974835e+02 
   -2.1689555152e+02 -5.8894190498e+02  2.9462601802e+00 ] stress_13 gradient
 [ -1.0102975458e+00 -9.0358184760e-05 -1.0959900428e+03  1.5388683672e+02 
   -2.0866209112e+02 -5.8939032092e+02  2.5248523042e+00 ] stress_14 gradient
 [ -9.7834945311e-01  1.4268652100e-03 -1.0918179197e+03  3.9615540472e+01 
   -1.6358474861e+02 -5.8077753904e+02  1.5175077343e+01 ] stress_15 gradient
 [ -9.7834978606e-01  6.1872801824e-04 -1.0918179197e+03  3.9618206719e+01 
   -1.6360190432e+02 -5.8076455595e+02  1.5175876220e+01 ] stress_16 gradient
 [ -9.9068155760e-01 -1.6299084547e-04 -1.1172742324e+03  3.1498233087e+01 
   -1.6680436325e+02 -6.7648637857e+02  1.0122576662e+01 ] stress_17 gradient
 [ -9.8663715438e-01  7.6487014488e-04 -1.1167864969e+03  1.2883039337e+01 
   -1.5970080672e+02 -6.7525648051e+02  1.1698761949e+01 ] stress_18 gradient
 [ -7.9905354187e-01  1.9486730147e-03 -1.0872491920e+03 -4.5591375575e+02 
    2.7583214782e+01 -6.1513553785e+02  8.8757126444e+01 ] stress_19 gradient
 [ -6.1273428709e-02  1.5743892287e-03 -8.8644810948e+02 -1.1679003277e+03 
    3.4851265317e+02 -3.6983828677e+02  4.0316271191e+02 ] stress_20 gradient
 [  5.2147022972e-01  8.0579487477e-04 -4.9577361185e+02 -1.0015261480e+03 
    3.3187308027e+02 -1.7037858242e+02  6.5881868705e+02 ] stress_21 gradient
 [  7.5514465877e-01  4.8285582883e-04 -8.4898600004e+01 -7.0523852704e+02 
    2.4034593894e+02 -8.8578626610e+01  7.6366616478e+02 ] stress_22 gradient
 [  8.3963603255e-01  3.7726854192e-04  2.2009920455e+02 -5.4196929489e+02 
    1.8661865394e+02 -5.8554233290e+01  8.0214969118e+02 ] stress_23 gradient
 [  8.6411533050e-01  3.5026651096e-04  3.5041919173e+02 -4.8606288414e+02 
    1.6790123327e+02 -4.9786653038e+01  8.1338790025e+02 ] stress_24 gradient
 [  8.3096808379e-01 -1.1639182322e-03  3.4547985036e+02 -3.4473478153e+02 
    1.2806988606e+02 -6.4528451890e+01  8.0068295211e+02 ] stress_25 gradient
 [  8.3096745951e-01 -5.4751886699e-04  3.4547985037e+02 -3.4473688464e+02 
    1.2807262368e+02 -6.4528951237e+01  8.0068175379e+02 ] stress_26 gradient
 [  8.2837949593e-01  1.5072654201e-04  3.4623728129e+02 -3.5719528973e+02 
    1.5126074783e+02 -6.6455441990e+01  7.9492224653e+02 ] stress_27 gradient
 [  8.3089106874e-01  3.1710966721e-04  3.4989230690e+02 -3.6809950288e+02 
    1.9934289365e+02 -6.7555009807e+01  7.9163686286e+02 ] stress_28 gradient
 [  8.3004161422e-01 -2.7209617863e-04  3.4978464623e+02 -3.6287402727e+02 
    1.9786385295e+02 -6.7906551926e+01  7.9133648493e+02 ] stress_29 gradient
 [  7.9301406607e-01 -1.2140651979e-03  3.4421021561e+02 -2.1271785568e+02 
    1.5430150513e+02 -8.4449005430e+01  7.7719435618e+02 ] stress_30 gradient
 [  5.2189115929e-01 -1.8065160025e-03  2.9089806204e+02  4.3940593575e+02 
   -4.1968692420e+01 -2.1271543880e+02  6.6754003260e+02 ] stress_31 gradient
 [ -4.7858910107e-02 -1.4293988230e-03  1.0267239906e+02  1.0352113813e+03 
   -2.3886489066e+02 -4.9468067994e+02  4.2648953515e+02 ] stress_32 gradient
 [ -5.1584116025e-01 -8.4771212085e-04 -2.3852386133e+02  9.7481687305e+02 
   -2.4648257079e+02 -7.3515246617e+02  2.2091159483e+02 ] stress_33 gradient
 [ -7.5594117455e-01 -5.3307871633e-04 -6.7560772317e+02  6.9781833972e+02 
   -1.8160590321e+02 -8.6251807287e+02  1.1202698972e+02 ] stress_34 gradient
 [ -8.6574338404e-01 -4.0937152583e-04 -1.1564931684e+03  4.7431002307e+02 
   -1.2501927337e+02 -9.2233815739e+02  6.0887246700e+01 ] stress_35 gradient
 [ -9.1749553895e-01 -3.7407544861e-04 -1.6463612115e+03  3.2991866742e+02 
   -8.7546105445e+01 -9.5116660842e+02  3.6241876166e+01 ] stress_36 gradient
 [ -9.4357446500e-01 -3.7643580789e-04 -2.1189442785e+03  2.4043138617e+02 
   -6.4051003692e+01 -9.6596533313e+02  2.3590452811e+01 ] stress_37 gradient
 [ -9.5760814212e-01 -3.9367856946e-04 -2.5521681244e+03  1.8473418384e+02 
   -4.9333234664e+01 -9.7405080183e+02  1.6678165340e+01 ] stress_38 gradient
 [ -9.6554859939e-01 -4.1499031541e-04 -2.9269768094e+03  1.4973580103e+02 
   -4.0049261145e+01 -9.7868177001e+02  1.2718928502e+01 ] stress_39 gradient
 [ -9.7014430215e-01 -4.3472641966e-04 -3.2270978028e+03  1.2790411402e+02 
   -3.4243880390e+01 -9.8138774548e+02  1.0405778732e+01 ] stress_40 gradient
 [ -9.7273101717e-01 -4.4973559883e-04 -3.4399103370e+03  1.1497359940e+02 
   -3.0800329063e+01 -9.8292124810e+02  9.0948207723e+00 ] stress_41 gradient
 [ -9.7395947063e-01 -4.5823128527e-04 -3.5563736338e+03  1.0864324038e+02 
   -2.9113229824e+01 -9.8365279526e+02  8.4696991408e+00 ] stress_42 gradient
 [ -9.7395903363e-01 -3.8381556916e-04 -3.5563730900e+03  1.0863720685e+02 
   -2.9112499795e+01 -9.8365229591e+02  8.4700985753e+00 ] stress_43 gradient
 [ -9.0787879229e-01  1.3251602304e-03 -3.5439225133e+03 -1.9330105259e+02 
    3.5333450104e+00 -9.5246841282e+02  6.3120508720e+01 ] stress_44 gradient
 [ -5.5234633372e-01  1.7864881430e-03 -3.4567527080e+03 -1.0207049081e+03 
    9.5129109155e+01 -7.7999805493e+02  3.6538699096e+02 ] stress_45 gradient
 [ -5.5264182304e-01  7.9504880979e-04 -3.4567609185e+03 -1.0200004202e+03 
    9.4455127245e+01 -7.8048337281e+02  3.6520089245e+02 ] stress_46 gradient
 [ -8.0191913626e-01 -3.2662519784e-04 -3.4804543692e+03 -4.4464304171e+02 
   -3.3281554895e+02 -1.2222110738e+03  1.9573537021e+02 ] stress_47 gradient
 [ -7.7232126145e-01  1.0308749713e-03 -3.4751746461e+03 -5.8758486711e+02 
   -3.1145870495e+02 -1.2033536356e+03  2.1944485576e+02 ] stress_48 gradient
 [ -7.7232981405e-01  5.3563027534e-04 -3.4751746461e+03 -5.8756357161e+02 
   -3.1147494812e+02 -1.2033671180e+03  2.1943926362e+02 ] stress_49 gradient
 [ -7.8632790735e-01 -2.0068793716e-04 -3.4760511563e+03 -5.5310251794e+02 
   -3.3100562217e+02 -1.2274667284e+03  2.0944251016e+02 ] stress_50 gradient
 [ -1.0150520440e+00 -3.8897882802e-04 -3.5665970482e+03  3.0546750803e+01 
   -2.4005137185e+02 -1.7153587505e+03  7.0836466968e+00 ] stress_51 gradient
 [ -1.0122340757e+00  4.2228284842e-04 -3.5661218187e+03  1.0137977549e+01 
   -2.3760212133e+02 -1.7131631103e+03  9.2973362152e+00 ] stress_52 gradient
 [ -8.6080594964e-01  1.6954033752e-03 -3.5360602390e+03 -5.3627333822e+02 
   -1.6247267572e+02 -1.5896675629e+03  1.3382480139e+02 ] stress_53 gradient
 [ -2.3208813968e-01  1.6231746540e-03 -3.3431288257e+03 -1.4395377516e+03 
    6.6949222634e+00 -1.0632830771e+03  6.6461134773e+02 ] stress_54 gradient
 [  3.2100158381e-01  9.7876558620e-04 -2.9942641889e+03 -1.4079919513e+03 
    6.8208159303e+01 -5.9202289200e+02  1.1398164321e+03 ] stress_55 gradient
 [  5.6603592984e-01  6.5139069680e-04 -2.6786525640e+03 -1.1570402456e+03 
    7.0440225909e+01 -3.8087890639e+02  1.3527292661e+03 ] stress_56 gradient
 [  6.4034146551e-01  5.5229972638e-04 -2.5311699424e+03 -1.0443875334e+03 
    6.7275363520e+01 -3.1648328150e+02  1.4176640256e+03 ] stress_57 gradient
 [  6.4017728050e-01  1.3712648661e-04 -2.5311873421e+03 -1.0433503864e+03 
    6.6898668062e+01 -3.1658914361e+02  1.4175581744e+03 ] stress_58 gradient
 [  5.8057142002e-01 -1.2393466622e-03 -2.5402057726e+03 -8.0804510419e+02 
   -1.5058437507e+01 -3.6049096163e+02  1.3737393446e+03 ] stress_59 gradient
 [  5.1970922586e-02 -1.6391656203e-03 -2.6723848639e+03  3.4466649343e+02 
   -3.6855745082e+02 -7.8658946963e+02  9.4843933808e+02 ] stress_60 gradient
 [ -5.1139751071e-01 -1.0847210793e-03 -2.9983384386e+03  7.5049353538e+02 
   -4.1087235995e+02 -1.2735497054e+03  4.6238829343e+02 ] stress_61 gradient
 [ -7.2468034908e-01 -8.3218770315e-04 -3.2995409324e+03  6.6011924445e+02 
   -3.2722643957e+02 -1.4677392741e+03  2.6855984379e+02 ] stress_62 gradient
 [ -7.7017978120e-01 -7.8009313673e-04 -3.4055116632e+03  6.1395169022e+02 
   -2.9842967773e+02 -1.5102519015e+03  2.2612626764e+02 ] stress_63 gradient
 [ -7.5521407844e-01  4.7689173465e-04 -3.4026559365e+03  5.1640974689e+02 
   -2.8589196068e+02 -1.4984552666e+03  2.3792648703e+02 ] stress_64 gradient
 [ -4.0263029105e-01  1.4749818694e-03 -3.3126684664e+03 -5.6230663112e+02 
   -1.2164982008e+02 -1.2076740083e+03  5.2878579761e+02 ] stress_65 gradient
 [ -1.9076402178e-01  1.4032477608e-03 -3.2375871064e+03 -9.0317858442e+02 
   -5.6500668821e+01 -1.0297128022e+03  7.0679567409e+02 ] stress_66 gradient
 [ -2.0359755020e-01  1.2280408208e-04 -3.2387216760e+03 -8.6593576670e+02 
   -8.8112480938e+01 -1.0377703573e+03  6.9874159097e+02 ] stress_67 gradient
 [ -6.6121753722e-01 -5.9179733837e-04 -3.3479583314e+03  6.3378969133e+01 
   -6.5909167201e+02 -1.3797309047e+03  3.5692288397e+02 ] stress_68 gradient
 [ -9.2230967644e-01 -4.4134960926e-04 -3.5819979624e+03  2.9674959411e+02 
   -5.5557324105e+02 -1.6173029679e+03  1.1944776272e+02 ] stress_69 gradient
 [ -9.2499244698e-01 -4.4033779990e-04 -3.5876844036e+03  2.9642150787e+02 
   -5.5053439176e+02 -1.6201387742e+03  1.1661294594e+02 ] stress_70 gradient
 [ -9.2462651626e-01  1.7809673109e-05 -3.5876235047e+03  2.9308603335e+02 
   -5.5009892889e+02 -1.6198631333e+03  1.1688855868e+02 ] stress_71 gradient
 [ -9.0897337982e-01  8.1022460792e-04 -3.5848357456e+03  2.0140767200e+02 
   -5.3652767191e+02 -1.6075666494e+03  1.2918528043e+02 ] stress_72 gradient
 [ -7.7769349687e-01  1.5810868726e-03 -3.5581316565e+03 -2.7200344441e+02 
   -4.5246667475e+02 -1.5015147816e+03  2.3523890339e+02 ] stress_73 gradient
 [ -3.8440546386e-01  1.6886752375e-03 -3.4500005349e+03 -1.0279072217e+03 
   -2.6825407181e+02 -1.1772845904e+03  5.5947627410e+02 ] stress_74 gradient
 [  1.2507942677e-01  1.2055576757e-03 -3.2126788844e+03 -1.3337410628e+03 
   -9.9104304799e+01 -7.5067874325e+02  9.8609402909e+02 ] stress_75 gradient
 [  5.0123017202e-01  7.2474904084e-04 -2.8599210636e+03 -1.1550547423e+03 
   -1.6061936691e+01 -4.3175314286e+02  1.3050298890e+03 ] stress_76 gradient
 [  7.1583614595e-01  4.4222795409e-04 -2.4311977602e+03 -8.6283712383e+02 
    1.1723368634e+01 -2.4791559071e+02  1.4888743672e+03 ] stress_77 gradient
 [  8.3038744320e-01  3.0701091485e-04 -1.9585777188e+03 -6.2232217611e+02 
    1.7901064671e+01 -1.4894599829e+02  1.5878476988e+03 ] stress_78 gradient
 [  8.9248726978e-01  2.5335826786e-04 -1.4647778860e+03 -4.5339018091e+02 
    1.7323975986e+01 -9.4907882776e+01  1.6418877665e+03 ] stress_79 gradient
 [  9.2759741172e-01  2.4197740918e-04 -9.6761936635e+02 -3.3940948256e+02 
    1.5123665685e+01 -6.4170917578e+01  1.6726261757e+03 ] stress_80 gradient
 [  9.4839001752e-01  2.5202674983e-04 -4.8255037950e+02 -2.6261559236e+02 
    1.2880101108e+01 -4.5875247631e+01  1.6909224674e+03 ] stress_81 gradient
 [  9.6123409206e-01  2.7231586106e-04 -2.3598350437e+01 -2.1031586628e+02 
    1.1003194077e+01 -3.4525530606e+01  1.7022729187e+03 ] stress_82 gradient
 [  9.6944425806e-01  2.9648992574e-04  3.9639845697e+02 -1.7427707266e+02 
    9.5409440676e+00 -2.7243515405e+01  1.7095550865e+03 ] stress_83 gradient
 [  9.7481695752e-01  3.2069372404e-04  7.6596276203e+02 -1.4928507894e+02 
    8.4420664667e+00 -2.2464739747e+01  1.7143339716e+03 ] stress_84 gradient
 [  9.7836008664e-01  3.4243747362e-04  1.0749945795e+03 -1.3205829863e+02 
    7.6426836603e+00 -1.9305354833e+01  1.7174935321e+03 ] stress_85 gradient
 [  9.8065563860e-01  3.6006196108e-04  1.3151670630e+03 -1.2052651768e+02 
    7.0874958745e+00 -1.7255025384e+01  1.7195438512e+03 ] stress_86 gradient
 [  9.8204101463e-01  3.7246285639e-04  1.4800428650e+03 -1.1340845517e+02 
    6.7363514628e+00 -1.6016139029e+01  1.7207829101e+03 ] stress_87 gradient
 [  9.8270224946e-01  3.7894238157e-04  1.5650714191e+03 -1.0996541139e+02 
    6.5642469000e+00 -1.5424409756e+01  1.7213744789e+03 ] stress_88 gradient
 [  9.8257541706e-01  2.4502674183e-05  1.5650491257e+03 -1.0861721000e+02 
    6.4576625262e+00 -1.5544253658e+01  1.7212746192e+03 ] stress_89 gradient
 [  8.3931306045e-01 -1.7295153083e-03  1.5351084739e+03  4.6573877801e+02 
   -3.9697386704e+01 -1.5987736023e+02  1.6011842794e+03 ] stress_90 gradient
 [  4.9767988452e-01 -1.9157170318e-03  1.4412154225e+03  1.1666474447e+03 
   -9.6135090441e+01 -5.1027037441e+02  1.3096438060e+03 ] stress_91 gradient
 [  5.0298399669e-01 -5.3170163560e-04  1.4414470560e+03  1.1532584735e+03 
   -8.3445344646e+01 -5.0627208217e+02  1.3157132777e+03 ] stress_92 gradient
 [  9.3490940873e-01  1.3870819050e-04  1.5164093368e+03  1.1387804786e+02 
    5.8017817086e+02 -1.3878573201e+02  1.8735949923e+03 ] stress_93 gradient
 [  9.5213258252e-01  1.2940671313e-04  1.5240565073e+03  7.3955314401e+01 
    5.8953003716e+02 -1.2214041249e+02  1.8988650850e+03 ] stress_94 gradient
 [  9.5205750273e-01 -1.6008724607e-04  1.5240440013e+03  7.4743247740e+01 
    5.8944644873e+02 -1.2220882338e+02  1.8987987782e+03 ] stress_95 gradient
 [  9.4892660492e-01 -6.7329956905e-04  1.5235002605e+03  9.7263688316e+01 
    5.8673913262e+02 -1.2515398732e+02  1.8959487828e+03 ] stress_96 gradient
 [  9.1913847111e-01 -1.3291989038e-03  1.5180285969e+03  2.4381828937e+02 
    5.6616944343e+02 -1.5378719265e+02  1.8682393176e+03 ] stress_97 gradient
 [  7.8943315588e-01 -1.8730599909e-03  1.4911823739e+03  6.5821149006e+02 
    4.9394973299e+02 -2.8049001262e+02  1.7456242853e+03 ] stress_98 gradient
 [  4.8529937771e-01 -1.9730777700e-03  1.4111634125e+03  1.2144547291e+03 
    3.5717062599e+02 -5.8130585092e+02  1.4545122498e+03 ] stress_99 gradient
 [  7.1529726953e-02 -1.6352639236e-03  1.2497887574e+03  1.5103423325e+03 
    2.0753711495e+02 -9.9463848643e+02  1.0545106961e+03 ] stress_100 gradient
 [ -3.0002365080e-01 -1.1835958314e-03  1.0040929550e+03  1.4301953154e+03 
    1.0061145165e+02 -1.3688495776e+03  6.9236754720e+02 ] stress_101 gradient
 [ -5.6000399324e-01 -8.3432308760e-04  6.8934750927e+02  1.1684309223e+03 
    4.2067611479e+01 -1.6325171514e+03  4.3720208283e+02 ] stress_102 gradient
 [ -7.2234538439e-01 -6.1820257982e-04  3.2262859978e+02  8.9439314092e+02 
    1.4212405786e+01 -1.7981544094e+03  2.7690531748e+02 ] stress_103 gradient
 [ -8.2040045831e-01 -5.0012202127e-04 -8.3245084250e+01  6.7064249463e+02 
    1.9460773683e+00 -1.8987274134e+03  1.7957527692e+02 ] stress_104 gradient
 [ -8.7996484386e-01 -4.4393999520e-04 -5.1903158055e+02  5.0352167386e+02 
   -3.0734261354e+00 -1.9601049693e+03  1.2017633898e+02 ] stress_105 gradient
 [ -9.1697039663e-01 -4.2527151100e-04 -9.7765682140e+02  3.8242745252e+02 
   -4.8506840761e+00 -1.9983945972e+03  8.3121205532e+01 ] stress_106 gradient
 [ -9.4061792792e-01 -4.2934853020e-04 -1.4530907214e+03  2.9514097398e+02 
   -5.2195317139e+00 -2.0229536092e+03  5.9353801358e+01 ] stress_107 gradient
 [ -9.5617407244e-01 -4.4738062816e-04 -1.9398001742e+03  2.3184096941e+02 
   -5.0074580080e+00 -2.0391624971e+03  4.3667442426e+01 ] stress_108 gradient
 [ -9.6669535571e-01 -4.7403360173e-04 -2.4325021943e+03  1.8542672991e+02 
   -4.5865957358e+00 -2.0501581753e+03  3.3025994835e+01 ] stress_109 gradient
 [ -9.7399628220e-01 -5.0594750286e-04 -2.9260698498e+03  1.5095054069e+02 
   -4.1199240824e+00 -2.0578097092e+03  2.5621598830e+01 ] stress_110 gradient
 [ -9.7918161515e-01 -5.4090169147e-04 -3.4154713633e+03  1.2500146786e+02 
   -3.6758833613e+00 -2.0632571140e+03  2.0349806276e+01 ] stress_111 gradient
 [ -9.8294134778e-01 -5.7734530388e-04 -3.8957353127e+03  1.0522384804e+02 
   -3.2802071219e+00 -2.0672154582e+03  1.6518789277e+01 ] stress_112 gradient
 [ -9.8571782239e-01 -6.1414134157e-04 -4.3620718855e+03  8.9974342446e+01 
   -2.9385531010e+00 -2.0701446430e+03  1.3684371945e+01 ] stress_113 gradient
 [ -9.8780101592e-01 -6.5041256630e-04 -4.8098505850e+03  7.8096455099e+01 
   -2.6487312048e+00 -2.0723462754e+03  1.1553366247e+01 ] stress_114 gradient
 [ -9.8938487060e-01 -6.8545138509e-04 -5.2346116492e+03  6.8767373103e+01 
   -2.4058137356e+00 -2.0740230913e+03  9.9308460693e+00 ] stress_115 gradient
 [ -9.9060187897e-01 -7.1867188189e-04 -5.6321476119e+03  6.1394293298e+01 
   -2.2032304206e+00 -2.0753129113e+03  8.6825999925e+00 ] stress_116 gradient
 [ -9.9154393467e-01 -7.4957421423e-04 -5.9984848154e+03  5.5546524916e+01 
   -2.0356885465e+00 -2.0763131086e+03  7.7147599097e+00 ] stress_117 gradient
 [ -9.9227598339e-01 -7.7773705947e-04 -6.3300449015e+03  5.0906830578e+01 
   -1.8984429129e+00 -2.0770910952e+03  6.9614184394e+00 ] stress_118 gradient
 [ -9.9284413843e-01 -8.0279639720e-04 -6.6235540068e+03  4.7241568933e+01 
   -1.7869308371e+00 -2.0776953083e+03  6.3766401168e+00 ] stress_119 gradient
 [ -9.9328148650e-01 -8.2443699322e-04 -6.8760520065e+03  4.4378456776e+01 
   -1.6978671818e+00 -2.0781612014e+03  5.9260732098e+00 ] stress_120 gradient
 [ -9.9361191663e-01 -8.4240514945e-04 -7.0851062043e+03  4.2189192484e+01 
   -1.6285143344e+00 -2.0785127435e+03  5.5857514019e+00 ] stress_121 gradient
 [ -9.9385236756e-01 -8.5648883337e-04 -7.2486286356e+03  4.0581123984e+01 
   -1.5770472229e+00 -2.0787689099e+03  5.3376999446e+00 ] stress_122 gradient
 [ -9.9401457568e-01 -8.6652441380e-04 -7.3649831842e+03  3.9488882265e+01 
   -1.5418232763e+00 -2.0789421842e+03  5.1699356706e+00 ] stress_123 gradient
 [ -9.9410621964e-01 -8.7240166463e-04 -7.4330644252e+03  3.8868887987e+01 
   -1.5213824398e+00 -2.0790395574e+03  5.0756681247e+00 ] stress_124 gradient
 [ -9.9413046241e-01 -8.7398129967e-04 -7.4513558655e+03  3.8704649494e+01 
   -1.5160897205e+00 -2.0790655236e+03  5.0505034866e+00 ] stress_125 gradient
 [ -9.9373533632e-01 -3.8136485430e-04 -7.4512802855e+03  3.4549545479e+01 
   -1.3279244982e+00 -2.0786780283e+03  5.6252958418e+00 ] stress_126 gradient
 [ -9.5910769853e-01  7.4550402702e-04 -7.4442040429e+03 -1.6524657581e+02 
    7.8259211806e+00 -2.0438468957e+03  5.7259943463e+01 ] stress_127 gradient
 [ -6.5934420424e-01  1.5268647888e-03 -7.3686252944e+03 -1.0457412900e+03 
    4.8441120167e+01 -1.7378837223e+03  5.1083435217e+02 ] stress_128 gradient
 [ -6.5973573111e-02  1.2062878336e-03 -7.1267518554e+03 -1.6559560588e+03 
    7.6590363314e+01 -1.1265037324e+03  1.4171970817e+03 ] stress_129 gradient
 [  3.9026732644e-01  6.7643709222e-04 -6.7545286579e+03 -1.4985216431e+03 
    6.9156833238e+01 -6.5329059101e+02  2.1187477257e+03 ] stress_130 gradient
 [  6.2705827410e-01  3.7425769939e-04 -6.3650319028e+03 -1.1872992256e+03 
    5.4681981681e+01 -4.0652999593e+02  2.4845816886e+03 ] stress_131 gradient
 [  7.3822919141e-01  2.3710176783e-04 -6.0462334132e+03 -9.6931064856e+02 
    4.4578732038e+01 -2.9030837424e+02  2.6568871804e+03 ] stress_132 gradient
 [  7.8509597875e-01  1.8320528584e-04 -5.8539889620e+03 -8.5941273228e+02 
    3.9494255868e+01 -2.4121831389e+02  2.7296657185e+03 ] stress_133 gradient
 [  7.8761273307e-01  1.8042413319e-04 -5.8421756495e+03 -8.5315807398e+02 
    3.9204981496e+01 -2.3858074931e+02  2.7335766232e+03 ] stress_134 gradient
 [  7.3605812040e-01 -1.6482372875e-03 -5.8511492757e+03 -6.1195050090e+02 
   -1.7952093765e+01 -3.1034847207e+02  2.6647107074e+03 ] stress_135 gradient
 [  7.2489285109e-01 -1.7276730888e-03 -5.8532600775e+03 -5.6880050346e+02 
   -2.8018513396e+01 -3.2630858407e+02  2.6493959064e+03 ] stress_136 gradient
 [  7.3601163253e-01 -8.6271595950e-04 -5.8467708030e+03 -7.0225820347e+02 
   -1.8455522426e+01 -3.1484791156e+02  2.6647756961e+03 ] stress_137 gradient
 [  7.3599775276e-01 -1.0365674695e-03 -5.8467718904e+03 -7.0214825527e+02 
   -1.8481803504e+01 -3.1486488945e+02  2.6647593191e+03 ] stress_138 gradient
 [  7.2561738767e-01 -1.8417775541e-03 -5.8481590820e+03 -6.5230414118e+02 
   -3.0180770887e+01 -3.2926498337e+02  2.6509187666e+03 ] stress_139 gradient
 [  4.6944566088e-01 -2.6288048133e-03 -5.8933846137e+03  2.1046776189e+01 
   -1.7641520769e+02 -7.1022093941e+02  2.2847644538e+03 ] stress_140 gradient
 [ -2.2837285561e-01 -2.0195447423e-03 -6.1258827396e+03  7.5881361542e+02 
   -2.8906102073e+02 -1.7985668722e+03  1.2386895046e+03 ] stress_141 gradient
 [ -6.6986788135e-01 -1.4026232103e-03 -6.5236584920e+03  6.6488518327e+02 
   -2.1291597570e+02 -2.5132205380e+03  5.5178348332e+02 ] stress_142 gradient
 [ -8.3678770359e-01 -1.1737807514e-03 -6.9354350260e+03  4.6759259859e+02 
   -1.4172746908e+02 -2.7910007301e+03  2.8478704278e+02 ] stress_143 gradient
 [ -8.9829151154e-01 -1.1030685558e-03 -7.2570011563e+03  3.5433859035e+02 
   -1.0492574622e+02 -2.8952584348e+03  1.8457664944e+02 ] stress_144 gradient
 [ -9.1916953932e-01 -1.0843162113e-03 -7.4264226314e+03  3.0801679606e+02 
   -9.0386834530e+01 -2.9310198557e+03  1.5020334772e+02 ] stress_145 gradient
 [ -9.1916847805e-01 -9.8616266803e-04 -7.4264226314e+03  3.0799848860e+02 
   -9.0386104500e+01 -2.9310183576e+03  1.5020454604e+02 ] stress_146 gradient
 [ -9.0860285026e-01  1.3464310324e-04 -7.4242318998e+03  2.2855872789e+02 
   -8.6346848726e+01 -2.9155904524e+03  1.6566442321e+02 ] stress_147 gradient
 [ -6.8414357008e-01  1.3022644134e-03 -7.3687315701e+03 -6.1575585311e+02 
   -3.8631031940e+01 -2.5813077546e+03  5.0063235630e+02 ] stress_148 gradient
 [ -1.0836922188e-01  1.1827328346e-03 -7.1458523820e+03 -1.4819804674e+03 
    2.4100296590e+01 -1.7140189955e+03  1.3697082088e+03 ] stress_149 gradient
 [  3.1961267020e-01  7.3401342335e-04 -6.8316262087e+03 -1.4912913913e+03 
    4.1332471308e+01 -1.0646502963e+03  2.0204222838e+03 ] stress_150 gradient
 [  5.0180434094e-01  5.1318610157e-04 -6.6015477294e+03 -1.3377168617e+03 
    4.1374995554e+01 -7.8703888427e+02  2.2986105985e+03 ] stress_151 gradient
 [  5.2474460733e-01  4.8490706423e-04 -6.5646962409e+03 -1.3107713252e+03 
    4.1029326367e+01 -7.5202648782e+02  2.3336957000e+03 ] stress_152 gradient
 [  5.2011003288e-01 -5.4576583389e-04 -6.5652628188e+03 -1.2872346999e+03 
    3.1531454070e+01 -7.5746740104e+02  2.3282585399e+03 ] stress_153 gradient
 [  3.1484595700e-01 -1.8423879883e-03 -6.6026466295e+03 -6.1215546746e+02 
   -2.1615092096e+02 -1.0284229822e+03  2.0574897998e+03 ] stress_154 gradient
 [ -2.9215927216e-01 -1.6976394451e-03 -6.8149828468e+03  4.8090647810e+02 
   -5.1319208171e+02 -1.9048634213e+03  1.1816420625e+03 ] stress_155 gradient
 [ -6.4933104208e-01 -1.3379811011e-03 -7.1167198378e+03  6.5610979565e+02 
   -4.5927480641e+02 -2.4601231971e+03  6.2675214409e+02 ] stress_156 gradient
 [ -7.5341114393e-01 -1.2275690280e-03 -7.2893096905e+03  6.1635752959e+02 
   -3.9910281692e+02 -2.6296513872e+03  4.5733579275e+02 ] stress_157 gradient
 [ -7.5264650792e-01 -6.3885667374e-04 -7.2891492870e+03  6.0803007140e+02 
   -3.9856679242e+02 -2.6285752888e+03  4.5841188073e+02 ] stress_158 gradient
 [ -6.0297504491e-01  9.6305936517e-04 -7.2523778371e+03 -9.7729374720e+01 
   -3.3484109008e+02 -2.4107978932e+03  6.7621040976e+02 ] stress_159 gradient
 [ -3.1394335148e-01  1.1757110027e-03 -7.1593719531e+03 -8.3424577416e+02 
   -2.4027176790e+02 -1.9854744756e+03  1.1015772424e+03 ] stress_160 gradient
 [ -3.1503474479e-01  3.7562743331e-04 -7.1594441075e+03 -8.3102619173e+02 
   -2.4322800597e+02 -1.9866314686e+03  1.1004205477e+03 ] stress_161 gradient
 [ -5.7522038507e-01 -9.2367095449e-04 -7.2040386281e+03 -2.4021786809e+02 
   -6.5097428637e+02 -2.3134672161e+03  7.7365812497e+02 ] stress_162 gradient
 [ -9.4019335673e-01 -8.2813041014e-04 -7.4247745531e+03  2.7132640395e+02 
   -6.5783127529e+02 -2.8698964687e+03  2.1734620460e+02 ] stress_163 gradient
 [ -9.6433872860e-01 -8.2504864955e-04 -7.4719043738e+03  2.7559108840e+02 
   -6.0473875134e+02 -2.9160423638e+03  1.7120983129e+02 ] stress_164 gradient
 [ -9.6432245576e-01 -6.2414771761e-04 -7.4719011114e+03  2.7536745696e+02 
   -6.0472415074e+02 -2.9160198931e+03  1.7123219986e+02 ] stress_165 gradient
 [ -9.6349501742e-01 -2.3013948017e-04 -7.4717428828e+03  2.6735052457e+02 
   -6.0412516115e+02 -2.9148584059e+03  1.7239376773e+02 ] stress_166 gradient
 [ -9.5441548245e-01  3.2994858024e-04 -7.4699528881e+03  2.0395528214e+02 
   -5.9860960229e+02 -2.9019297454e+03  1.8532240158e+02 ] stress_167 gradient
 [ -9.0715935398e-01  9.5270738141e-04 -7.4600856239e+03 -3.0204126620e+01 
   -5.7406709005e+02 -2.8339208268e+03  2.5333044278e+02 ] stress_168 gradient
 [ -7.6172231804e-01  1.4161902267e-03 -7.4257527428e+03 -5.1859116874e+02 
   -5.0873477428e+02 -2.6228931897e+03  4.6435656779e+02 ] stress_169 gradient
 [ -4.7915906444e-01  1.5069835761e-03 -7.3421179595e+03 -1.1013639583e+03 
   -3.9804175487e+02 -2.2102361242e+03  8.7701337944e+02 ] stress_170 gradient
 [ -1.1504920025e-01  1.2542918130e-03 -7.1896251471e+03 -1.4612818433e+03 
   -2.7289487227e+02 -1.6757039008e+03  1.4115494173e+03 ] stress_171 gradient
 [  2.2535532661e-01  8.8021261161e-04 -6.9655821906e+03 -1.4890958752e+03 
   -1.6975258925e+02 -1.1737881446e+03  1.9134721605e+03 ] stress_172 gradient
 [  4.8402591385e-01  5.5531297453e-04 -6.6798382475e+03 -1.3091894940e+03 
   -1.0038641992e+02 -7.9095178773e+02  2.2963162223e+03 ] stress_173 gradient
 [  6.6019068381e-01  3.2916222683e-04 -6.3449499241e+03 -1.0678089125e+03 
   -5.8449118786e+01 -5.2936350566e+02  2.5579106533e+03 ] stress_174 gradient
 [  7.7494405972e-01  1.8963198331e-04 -5.9711781528e+03 -8.4256155948e+02 
   -3.4151166584e+01 -3.5846510031e+02  2.7288137156e+03 ] stress_175 gradient
 [  8.4907196760e-01  1.1181638567e-04 -5.5661108363e+03 -6.5803212498e+02 
   -2.0180583222e+01 -2.4777926826e+02  2.8395029850e+03 ] stress_176 gradient
 [  8.9742759458e-01  7.4959677907e-05 -5.1354860714e+03 -5.1482705370e+02 
   -1.2072687971e+01 -1.7540453613e+02  2.9118792883e+03 ] stress_177 gradient
 [  9.2954742603e-01  6.4799966799e-05 -4.6839174985e+03 -4.0599368236e+02 
   -7.2888016362e+00 -1.2722678750e+02  2.9600583914e+03 ] stress_178 gradient
 [  9.5133746095e-01  7.2116363686e-05 -4.2154815426e+03 -3.2369896913e+02 
   -4.4143086663e+00 -9.4479440821e+01  2.9928067763e+03 ] stress_179 gradient
 [  9.6644364698e-01  9.1005540681e-05 -3.7339392585e+03 -2.6128395158e+02 
   -2.6558489974e+00 -7.1737062696e+01  3.0155500195e+03 ] stress_180 gradient
 [  9.7713870833e-01  1.1763898050e-04 -3.2428766169e+03 -2.1361046219e+02 
   -1.5628116387e+00 -5.5609069356e+01  3.0316785571e+03 ] stress_181 gradient
 [  9.8486141757e-01  1.4946435433e-04 -2.7458431576e+03 -1.7687212360e+02 
   -8.7439338522e-01 -4.3945760781e+01  3.0433421685e+03 ] stress_182 gradient
 [  9.9054092867e-01  1.8472213386e-04 -2.2463133844e+03 -1.4828560421e+02 
   -4.3619290114e-01 -3.5356448338e+01  3.0519316992e+03 ] stress_183 gradient
 [  9.9478832615e-01  2.2214767767e-04 -1.7477525572e+03 -1.2582587821e+02 
   -1.5531387496e-01 -2.8924326153e+01  3.0583638613e+03 ] stress_184 gradient
 [  9.9801365635e-01  2.6079566810e-04 -1.2535639498e+03 -1.0801324768e+02 
    2.5003527321e-02 -2.4034694881e+01  3.0632537904e+03 ] stress_185 gradient
 [  1.0004969078e+00  2.9992772006e-04 -7.6711603626e+02 -9.3761366517e+01 
    1.4053076690e-01 -2.0266103462e+01  3.0670224950e+03 ] stress_186 gradient
 [  1.0024326677e+00  3.3894560066e-04 -2.9170823582e+02 -8.2266016606e+01 
    2.1408128779e-01 -1.7324934326e+01  3.0699635625e+03 ] stress_187 gradient
 [  1.0039582981e+00  3.7734941931e-04  1.6945736201e+02 -7.2926625889e+01 
    2.5970815919e-01 -1.5005455439e+01  3.0722831033e+03 ] stress_188 gradient
 [  1.0051722892e+00  4.1470746105e-04  6.1325370394e+02 -6.5291541384e+01 
    2.8744929688e-01 -1.3157861929e+01  3.0741309069e+03 ] stress_189 gradient
 [  1.0061460998e+00  4.5064295559e-04  1.0366978280e+03 -5.9017529809e+01 
    3.0314494312e-01 -1.1675292964e+01  3.0756136235e+03 ] stress_190 gradient
 [  1.0069324398e+00  4.8482176048e-04  1.4369508634e+03 -5.3841954378e+01 
    3.1117527076e-01 -1.0476354580e+01  3.0768123392e+03 ] stress_191 gradient
 [  1.0075703267e+00  5.1694014044e-04  1.8112761629e+03 -4.9563099744e+01 
    3.1409539084e-01 -9.5041209122e+00  3.0777849725e+03 ] stress_192 gradient
 [  1.0080892678e+00  5.4673376450e-04  2.1572116680e+03 -4.6023542433e+01 
    3.1409539084e-01 -8.7121524506e+00  3.0785770596e+03 ] stress_193 gradient
 [  1.0085114668e+00  5.7396077028e-04  2.4724192935e+03 -4.3101405093e+01 
    3.1227031449e-01 -8.0674921182e+00  3.0792217537e+03 ] stress_194 gradient
 [  1.0088538206e+00  5.9840330363e-04  2.7547382132e+03 -4.0701760151e+01 
    3.0935019441e-01 -7.5446730881e+00  3.0797442196e+03 ] stress_195 gradient
 [  1.0091292935e+00  6.1987786285e-04  3.0023262336e+03 -3.8749711360e+01 
    3.0624756876e-01 -7.1237213717e+00  3.0801652280e+03 ] stress_196 gradient
 [  1.0093477074e+00  6.3821720829e-04  3.2134673086e+03 -3.7187888448e+01 
    3.0296243341e-01 -6.7901558420e+00  3.0804991588e+03 ] stress_197 gradient
 [  1.0095165537e+00  6.5328758677e-04  3.3867841427e+03 -3.5971482383e+01 
    3.0022482096e-01 -6.5319920991e+00  3.0807571962e+03 ] stress_198 gradient
 [  1.0096413676e+00  6.6497761744e-04  3.5211147620e+03 -3.5066992695e+01 
    2.9785222378e-01 -6.3412405543e+00  3.0809481279e+03 ] stress_199 gradient
 [  1.0097260821e+00  6.7319747397e-04  3.6155157761e+03 -3.4450480626e+01 
    2.9620965714e-01 -6.2119090078e+00  3.0810775461e+03 ] stress_200 gradient
 [  1.0097733607e+00  6.7788995039e-04  3.6693874390e+03 -3.4105500493e+01 
    2.9511461133e-01 -6.1395033154e+00  3.0811498445e+03 ] stress_201 gradient
 [  1.0097756705e+00  6.7811988082e-04  3.6720262131e+03 -3.4088721527e+01 
    2.9529711896e-01 -6.1355085211e+00  3.0811534395e+03 ] stress_202 gradient
 [  9.7492914021e-01 -9.8274214615e-04  3.6646835374e+03  1.7615262776e+02 
   -7.4922974884e+00 -6.6652185732e+01  3.0293154775e+03 ] stress_203 gradient
 [  6.2191687157e-01 -1.8203934707e-03  3.5704820218e+03  1.1892761417e+03 
   -4.5223567502e+01 -6.8780184022e+02  2.4972438169e+03 ] stress_204 gradient
 [  6.2191968706e-01 -1.2963094173e-03  3.5704820761e+03  1.1892677005e+03 
   -4.5216230701e+01 -6.8779834477e+02  2.4972494889e+03 ] stress_205 gradient
 [  7.8684185429e-01  4.3316742495e-04  3.5858123041e+03  7.1269403064e+02 
    2.8174539050e+02 -4.6357869018e+02  2.8577369643e+03 ] stress_206 gradient
 [  8.2222307837e-01  4.4347368724e-04  3.5909669668e+03  6.1050866943e+02 
    3.4045586001e+02 -4.1326172787e+02  2.9386384887e+03 ] stress_207 gradient
 [  8.2212250725e-01  1.3179781640e-04  3.5909479359e+03  6.1167011863e+02 
    3.4039417248e+02 -4.1342851064e+02  2.9384851042e+03 ] stress_208 gradient
 [  8.1800329477e-01 -4.2210728530e-04  3.5901399370e+03  6.4276682877e+02 
    3.3844590502e+02 -4.2036447656e+02  2.9320952826e+03 ] stress_209 gradient
 [  7.7998137645e-01 -1.1130524633e-03  3.5822714640e+03  8.2880454288e+02 
    3.2409424602e+02 -4.8512113122e+02  2.8724395056e+03 ] stress_210 gradient
 [  6.2457164326e-01 -1.6350675566e-03  3.5454665741e+03  1.2849094674e+03 
    2.7650793655e+02 -7.5197595363e+02  2.6266034124e+03 ] stress_211 gradient
 [  2.9512182312e-01 -1.6698927263e-03  3.4425822792e+03  1.7528056170e+03 
    1.9399323410e+02 -1.3211267365e+03  2.1022784668e+03 ] stress_212 gradient
 [ -1.0541228943e-01 -1.3227167805e-03  3.2482906440e+03  1.8350693466e+03 
    1.1171465984e+02 -2.0163487120e+03  1.4618083979e+03 ] stress_213 gradient
 [ -4.3398446683e-01 -9.2857782095e-04  2.9671494667e+03  1.5733983525e+03 
    5.6424563197e+01 -2.5888635132e+03  9.3437829540e+02 ] stress_214 gradient
 [ -6.5165075358e-01 -6.4828338838e-04  2.6183538850e+03  1.2170294958e+03 
    2.6549729616e+01 -2.9693773951e+03  5.8382805716e+02 ] stress_215 gradient
 [ -7.8408308835e-01 -4.8475180466e-04  2.2196374610e+03  9.0538971883e+02 
    1.1850028832e+01 -3.2015484929e+03  3.6993859546e+02 ] stress_216 gradient
 [ -8.6337481241e-01 -4.0141960874e-04  1.7838857641e+03  6.6978400919e+02 
    4.8362659823e+00 -3.3409034835e+03  2.4155658634e+02 ] stress_217 gradient
 [ -9.1157765786e-01 -3.6739620776e-04  1.3205278034e+03  5.0050568924e+02 
    1.5182798121e+00 -3.4258063977e+03  1.6333889084e+02 ] stress_218 gradient
 [ -9.4168937556e-01 -3.6297561601e-04  8.3719389346e+02  3.8039018727e+02 
   -3.4311408406e-02 -3.4789476813e+03  1.1438248000e+02 ] stress_219 gradient
 [ -9.6108122729e-01 -3.7640212903e-04  3.4066774434e+02  2.9480377422e+02 
   -7.3696524500e-01 -3.5132295294e+03  8.2799657347e+01 ] stress_220 gradient
 [ -9.7394991918e-01 -4.0065110512e-04 -1.6270953877e+02  2.3312313523e+02 
   -1.0273346620e+00 -3.5360148515e+03  6.1808352446e+01 ] stress_221 gradient
 [ -9.8273152808e-01 -4.3138971005e-04 -6.6680401598e+02  1.8804319127e+02 
   -1.1182233916e+00 -3.5515855707e+03  4.7463708255e+01 ] stress_222 gradient
 [ -9.8887766587e-01 -4.6581754610e-04 -1.1656475884e+03  1.5461405549e+02 
   -1.1143907354e+00 -3.5624963595e+03  3.7411832245e+01 ] stress_223 gradient
 [ -9.9327686685e-01 -5.0202194233e-04 -1.6534053734e+03  1.2947990024e+02 
   -1.0683988466e+00 -3.5703151755e+03  3.0209152808e+01 ] stress_224 gradient
 [ -9.9648806757e-01 -5.3862451899e-04 -2.1244496540e+03  1.1034457005e+02 
   -1.0065288082e+00 -3.5760277349e+03  2.4946147914e+01 ] stress_225 gradient
 [ -9.9887133053e-01 -5.7457714165e-04 -2.5733571594e+03  9.5620418465e+01 
   -9.4210366489e-01 -3.5802717071e+03  2.1036441478e+01 ] stress_226 gradient
 [ -1.0006640893e+00 -6.0904818287e-04 -2.9949677894e+03  8.4195655134e+01 
   -8.8096365489e-01 -3.5834665459e+03  1.8093376813e+01 ] stress_227 gradient
 [ -1.0020263879e+00 -6.4136199648e-04 -3.3845047813e+03  7.5280760760e+01 
   -8.2639391560e-01 -3.5858958817e+03  1.5855321523e+01 ] stress_228 gradient
 [ -1.0030674748e+00 -6.7094580120e-04 -3.7374463866e+03  6.8312525221e+01 
   -7.7912447549e-01 -3.5877534622e+03  1.4143726507e+01 ] stress_229 gradient
 [ -1.0038635952e+00 -6.9732693820e-04 -4.0498156851e+03  6.2881852047e+01 
   -7.3933784425e-01 -3.5891746111e+03  1.2834366299e+01 ] stress_230 gradient
 [ -1.0044681456e+00 -7.2010640914e-04 -4.3180566120e+03  5.8692730404e+01 
   -7.0666900249e-01 -3.5902547043e+03  1.1839763822e+01 ] stress_231 gradient
 [ -1.0049185619e+00 -7.3894785837e-04 -4.5390377641e+03  5.5531941006e+01 
   -6.8093544670e-01 -3.5910591565e+03  1.1098405515e+01 ] stress_232 gradient
 [ -1.0052412718e+00 -7.5359388313e-04 -4.7103231827e+03  5.3244990954e+01 
   -6.6195466511e-01 -3.5916359053e+03  1.0566752551e+01 ] stress_233 gradient
 [ -1.0054541089e+00 -7.6384202532e-04 -4.8299434386e+03  5.1726034852e+01 
   -6.4881412784e-01 -3.5920164097e+03  1.0216444767e+01 ] stress_234 gradient
 [ -1.0055682892e+00 -7.6954953466e-04 -4.8964858931e+03  5.0907462662e+01 
   -6.4169633630e-01 -3.5922206437e+03  1.0028309118e+01 ] stress_235 gradient
 [ -1.0055682892e+00 -7.3831055800e-04 -4.8964858931e+03  5.0907140874e+01 
   -6.4187884394e-01 -3.5922206437e+03  1.0028309118e+01 ] stress_236 gradient
 [ -9.6909093775e-01  9.3144769336e-04 -4.8888213229e+03 -1.6625053259e+02 
    9.7714510260e+00 -3.5295158165e+03  7.2746583025e+01 ] stress_237 gradient
 [ -7.0334727287e-01  1.7352566794e-03 -4.8211444075e+03 -1.0006972245e+03 
    4.9963925799e+01 -3.0656455561e+03  5.3671725304e+02 ] stress_238 gradient
 [ -7.1008973310e-01  6.9198845301e-04 -4.8249540730e+03 -8.7868330554e+02 
    3.2513344367e+01 -3.0740920046e+03  5.2828250479e+02 ] stress_239 gradient
 [ -8.0033055787e-01 -3.0167064950e-04 -4.9085384515e+03  5.8516964991e+01 
   -8.8577272764e+01 -3.2098886299e+03  3.9267424935e+02 ] stress_240 gradient
 [ -7.5712089274e-01  1.1905338703e-03 -4.9000805635e+03 -1.6654942803e+02 
   -7.5777109938e+01 -3.1357057529e+03  4.6686759951e+02 ] stress_241 gradient
 [ -5.9729983093e-01  1.6701111818e-03 -4.8638897200e+03 -6.6110942983e+02 
   -4.4442636202e+01 -2.8581677453e+03  7.4444565172e+02 ] stress_242 gradient
 [ -6.2787809625e-01  1.4132484595e-04 -4.8801801942e+03 -3.0330152742e+02 
   -9.2775310053e+01 -2.9027162211e+03  6.9992692544e+02 ] stress_243 gradient
 [ -6.9105147221e-01 -3.0788916346e-04 -4.9258103778e+03  1.7267850841e+02 
   -1.4909730404e+02 -3.0035488868e+03  5.9916171169e+02 ] stress_244 gradient
 [ -7.9317009385e-01 -5.9323465615e-04 -5.0416663162e+03  6.0682288228e+02 
   -1.8391809061e+02 -3.1778948018e+03  4.2493172404e+02 ] stress_245 gradient
 [ -7.8890939926e-01  2.8707037988e-04 -5.0408256929e+03  5.7142761946e+02 
   -1.8190412045e+02 -3.1707316318e+03  4.3209525849e+02 ] stress_246 gradient
 [ -6.1396914979e-01  1.4913103459e-03 -5.0004306456e+03 -1.4743605529e+02 
   -1.3306318149e+02 -2.8698785920e+03  7.3296734001e+02 ] stress_247 gradient
 [ -2.2760682538e-02  1.3798587505e-03 -4.7832344732e+03 -1.1515284587e+03 
   -3.4879371470e+01 -1.8403544440e+03  1.7625709933e+03 ] stress_248 gradient
 [  4.3951787616e-01  8.6167186654e-04 -4.4286012903e+03 -1.1911620193e+03 
    6.5332206269e+00 -1.0287870081e+03  2.5742125473e+03 ] stress_249 gradient
 [  6.3794444763e-01  6.1021260561e-04 -4.1246719364e+03 -1.0094554735e+03 
    1.4889873589e+01 -6.7866454152e+02  2.9243697379e+03 ] stress_250 gradient
 [  6.9473502216e-01  5.3877472674e-04 -3.9952126909e+03 -9.2983637319e+02 
    1.5978348261e+01 -5.7820838536e+02  3.0248361714e+03 ] stress_251 gradient
 [  6.9437731110e-01  3.2374916700e-05 -3.9952812022e+03 -9.2599515076e+02 
    1.5541607837e+01 -5.7875567252e+02  3.0242889404e+03 ] stress_252 gradient
 [  6.3482406058e-01 -1.3766771561e-03 -4.0085422789e+03 -5.8315129777e+02 
   -2.2399454537e+01 -6.7689170064e+02  2.9261573061e+03 ] stress_253 gradient
 [  2.0669286002e-01 -1.9908811885e-03 -4.1438257496e+03  6.5650074555e+02 
   -1.4862369710e+02 -1.4116628135e+03  2.1914124238e+03 ] stress_254 gradient
 [ -2.9940578245e-01 -1.6369321341e-03 -4.4428266369e+03  1.1535669652e+03 
   -1.8032670822e+02 -2.3034297898e+03  1.2996654267e+03 ] stress_255 gradient
 [ -5.3657454292e-01 -1.3843227399e-03 -4.7117314714e+03  1.0979271791e+03 
   -1.5999354873e+02 -2.7282734323e+03  8.7482717130e+02 ] stress_256 gradient
 [ -5.8623611701e-01 -1.3289093136e-03 -4.7918011094e+03  1.0595615681e+03 
   -1.5248409554e+02 -2.8178787216e+03  7.8522307494e+02 ] stress_257 gradient
 [ -5.7287397530e-01 -2.5754421414e-05 -4.7886137008e+03  9.4575638235e+02 
   -1.4615820342e+02 -2.7954174773e+03  8.0768351554e+02 ] stress_258 gradient
 [ -2.8582344347e-01  1.1336085517e-03 -4.7009163038e+03 -2.4319021361e+02 
   -7.0236054779e+01 -2.3009625534e+03  1.3021308026e+03 ] stress_259 gradient
 [ -4.3786601683e-02  1.1417188557e-03 -4.5970880750e+03 -7.7883147324e+02 
   -2.8846951396e+01 -1.8796567529e+03  1.7234335857e+03 ] stress_260 gradient
 [ -5.0282715735e-02  1.2404319588e-04 -4.5988330316e+03 -7.1517297194e+02 
   -3.7223234864e+01 -1.8895014102e+03  1.7135891022e+03 ] stress_261 gradient
 [ -2.8486275724e-01 -1.0910775804e-03 -4.6911971003e+03  3.5689293506e+02 
   -1.6129592218e+02 -2.2809425793e+03  1.3221566241e+03 ] stress_262 gradient
 [ -6.0567591326e-01 -1.1073729074e-03 -4.9362213828e+03  8.7421068833e+02 
   -1.9039947911e+02 -2.8444306378e+03  7.5867477823e+02 ] stress_263 gradient
 [ -6.6373522796e-01 -1.0781750625e-03 -5.0109966167e+03  8.8259354009e+02 
   -1.8294331810e+02 -2.9489539965e+03  6.5415164476e+02 ] stress_264 gradient
 [ -6.6371920483e-01 -8.7591518828e-04 -5.0109933543e+03  8.8234283246e+02 
   -1.8293054258e+02 -2.9489285297e+03  6.5417760828e+02 ] stress_265 gradient
 [ -6.6259662886e-01 -4.2519760995e-04 -5.0107503021e+03  8.7024774944e+02 
   -1.8227278558e+02 -2.9470669544e+03  6.5603899283e+02 ] stress_266 gradient
 [ -6.4846512744e-01  2.2862489344e-04 -5.0075634373e+03  7.6323416037e+02 
   -1.7606461080e+02 -2.9232160201e+03  6.7988948027e+02 ] stress_267 gradient
 [ -5.7310814807e-01  9.0735808085e-04 -4.9890046941e+03  3.7161532945e+02 
   -1.5125474333e+02 -2.7943704411e+03  8.0873200230e+02 ] stress_268 gradient
 [ -3.6127443072e-01  1.2883809599e-03 -4.9257542094e+03 -3.3777534115e+02 
   -9.9841178791e+01 -2.4285846260e+03  1.1745114818e+03 ] stress_269 gradient
 [ -2.3485468827e-02  1.2238554518e-03 -4.7839413362e+03 -9.6875926416e+02 
   -4.1518811456e+01 -1.8407818873e+03  1.7623089615e+03 ] stress_270 gradient
 [  3.1683349039e-01  9.2902271877e-04 -4.5518319850e+03 -1.1902813075e+03 
   -2.4837444346e+00 -1.2448580762e+03  2.3582328227e+03 ] stress_271 gradient
 [  5.7147931834e-01  6.4831812572e-04 -4.2416479808e+03 -1.0963162604e+03 
    1.4348556373e+01 -7.9660742129e+02  2.8064869761e+03 ] stress_272 gradient
 [  7.3564380817e-01  4.6140239108e-04 -3.8721527308e+03 -8.9334644375e+02 
    1.8438366722e+01 -5.0632750998e+02  3.0967702960e+03 ] stress_273 gradient
 [  8.3603925718e-01  3.5744573864e-04 -3.4586171952e+03 -6.9415937593e+02 
    1.7391321251e+01 -3.2811163560e+02  3.2749886796e+03 ] stress_274 gradient
 [  8.9722715986e-01  3.0932426806e-04 -3.0120950807e+03 -5.3282264392e+02 
    1.4873447915e+01 -2.1912309284e+02  3.3839791359e+03 ] stress_275 gradient
 [  9.3521031053e-01  2.9594148946e-04 -2.5410589562e+03 -4.1079105301e+02 
    1.2284396658e+01 -1.5126248108e+02  3.4518409826e+03 ] stress_276 gradient
 [  9.5942795293e-01  3.0382296961e-04 -2.0525595087e+03 -3.2057011723e+02 
    1.0053242592e+01 -1.0787848860e+02  3.4952252229e+03 ] stress_277 gradient
 [  9.7531789868e-01  3.2474966989e-04 -1.5529911299e+03 -2.5408027037e+02 
    8.2489735424e+00 -7.9345153185e+01  3.5237595291e+03 ] stress_278 gradient
 [  9.8603840974e-01  3.5366023408e-04 -1.0484045672e+03 -2.0479870099e+02 
    6.8259626431e+00 -6.0052282085e+01  3.5430524204e+03 ] stress_279 gradient
 [  9.9346088307e-01  3.8732610983e-04 -5.4465155925e+02 -1.6791967193e+02 
    5.7126669515e+00 -4.6669213496e+01  3.5564356156e+03 ] stress_280 gradient
 [  9.9872177442e-01  4.2358607620e-04 -4.7436490556e+01 -1.4001857329e+02 
    4.8417412082e+00 -3.7167089978e+01  3.5659378639e+03 ] stress_281 gradient
 [  1.0025290978e+00  4.6091279659e-04  4.3769122030e+02 -1.1867833758e+02 
    4.1582506567e+00 -3.0279560966e+01  3.5728257856e+03 ] stress_282 gradient
 [  1.0053348510e+00  4.9816653007e-04  9.0534527702e+02 -1.0219184296e+02 
    3.6193060380e+00 -2.5197180750e+01  3.5779082441e+03 ] stress_283 gradient
 [  1.0074346920e+00  5.3445878004e-04  1.3503949415e+03 -8.9344487652e+01 
    3.1927860332e+00 -2.1388142015e+01  3.5817172920e+03 ] stress_284 gradient
 [  1.0090257467e+00  5.6906439238e-04  1.7679231657e+03 -7.9266983334e+01 
    2.8535046095e+00 -1.8498905233e+01  3.5846064324e+03 ] stress_285 gradient
 [  1.0102423805e+00  6.0138287292e-04  2.1533766642e+03 -7.1329555657e+01 
    2.5835760310e+00 -1.6287785210e+01  3.5868181248e+03 ] stress_286 gradient
 [  1.0111774651e+00  6.3090470853e-04  2.5025430771e+03 -6.5073644678e+01 
    2.3689472224e+00 -1.4586501129e+01  3.5885193344e+03 ] stress_287 gradient
 [  1.0118959878e+00  6.5719250696e-04  2.8115623886e+03 -6.0163820483e+01 
    2.1990327491e+00 -1.3278704531e+01  3.5898270968e+03 ] stress_288 gradient
 [  1.0124441243e+00  6.7988306569e-04  3.0770954864e+03 -5.6352409449e+01 
    2.0667148195e+00 -1.2280005331e+01  3.5908256937e+03 ] stress_289 gradient
 [  1.0128544204e+00  6.9867120609e-04  3.2962377071e+03 -5.3458646949e+01 
    1.9656056707e+00 -1.1532478979e+01  3.5915734430e+03 ] stress_290 gradient
 [  1.0131498285e+00  7.1330905170e-04  3.4665677731e+03 -5.1352277642e+01 
    1.8916901366e+00 -1.0993680760e+01  3.5921118865e+03 ] stress_291 gradient
 [  1.0133461222e+00  7.2361247534e-04  3.5862674151e+03 -4.9941488408e+01 
    1.8420480972e+00 -1.0635647104e+01  3.5924701830e+03 ] stress_292 gradient
 [  1.0134533107e+00  7.2944839738e-04  3.6540001183e+03 -4.9167323015e+01 
    1.8150369901e+00 -1.0440401409e+01  3.5926655086e+03 ] stress_293 gradient
 [  1.0134548714e+00  7.2953461528e-04  3.6550006013e+03 -4.9156014452e+01 
    1.8144894692e+00 -1.0437405309e+01  3.5926683046e+03 ] stress_294 gradient
 [  9.7579950803e-01 -9.8194838339e-04  3.6469717248e+03  1.7717151322e+02 
   -6.6005658913e+00 -7.5639979158e+01  3.5274679184e+03 ] stress_295 gradient
 [  6.3255856759e-01 -1.8049140239e-03  3.5547636173e+03  1.1764908571e+03 
   -4.4038290857e+01 -6.7767358224e+02  2.9254462652e+03 ] stress_296 gradient
 [  6.3258087927e-01 -1.1764835862e-03  3.5547642698e+03  1.1764221277e+03 
   -4.3974011720e+01 -6.7764671724e+02  2.9254731075e+03 ] stress_297 gradient
 [  8.2635696137e-01  4.1615189950e-04  3.5778981568e+03  5.9712213470e+02 
    3.6648234065e+02 -4.1637667067e+02  3.1867358845e+03 ] stress_298 gradient
 [  8.5451841506e-01  4.2255617647e-04  3.5834736749e+03  5.1312062139e+02 
    4.1360394955e+02 -3.7592036488e+02  3.2271914400e+03 ] stress_299 gradient
 [  8.5449523355e-01  2.1321960270e-04  3.5834693250e+03  5.1342327486e+02 
    4.1358770638e+02 -3.7595831545e+02  3.2271534933e+03 ] stress_300 gradient
 [  8.5355319866e-01 -1.6157623686e-04  3.5832877156e+03  5.2201672562e+02 
    4.1305843466e+02 -3.7752527449e+02  3.2255864951e+03 ] stress_301 gradient
 [  8.4439623245e-01 -6.7622101824e-04  3.5814776025e+03  5.8143703106e+02 
    4.0877224626e+02 -3.9292921091e+02  3.2101833382e+03 ] stress_302 gradient
 [  8.0010103181e-01 -1.2377663151e-03  3.5722247654e+03  7.8162195317e+02 
    3.9117560408e+02 -4.6806834242e+02  3.1350457149e+03 ] stress_303 gradient
 [  6.6897086936e-01 -1.6566602853e-03  3.5414227194e+03  1.1704675049e+03 
    3.4648207483e+02 -6.9195218441e+02  2.9111669692e+03 ] stress_304 gradient
 [  4.1675313582e-01 -1.7497005732e-03  3.4680075987e+03  1.5995866291e+03 
    2.7220335139e+02 -1.1247709892e+03  2.4783540391e+03 ] stress_305 gradient
 [  8.7053741979e-02 -1.5319751712e-03  3.3347568487e+03  1.8140011715e+03 
    1.8790204661e+02 -1.6928760342e+03  1.9102522848e+03 ] stress_306 gradient
 [ -2.2988416924e-01 -1.1891422596e-03  3.1379803180e+03  1.7378592820e+03 
    1.1731234707e+02 -2.2408617844e+03  1.3622654667e+03 ] stress_307 gradient
 [ -4.7798140845e-01 -8.7822719433e-04  2.8850076325e+03  1.4881986602e+03 
    6.9074157344e+01 -2.6710904130e+03  9.3203239165e+02 ] stress_308 gradient
 [ -6.5134660554e-01 -6.5360310963e-04  2.5860660129e+03  1.1980555540e+03 
    3.9617448423e+01 -2.9725123119e+03  6.3060632853e+02 ] stress_309 gradient
 [ -7.6651117229e-01 -5.1005411135e-04  2.2499037048e+03  9.3758731300e+02 
    2.2525804473e+01 -3.1732124006e+03  4.2990273922e+02 ] stress_310 gradient
 [ -8.4197280763e-01 -4.2655573428e-04  1.8829667553e+03  7.2737240783e+02 
    1.2765121388e+01 -3.3049992486e+03  2.9811351761e+02 ] stress_311 gradient
 [ -8.9170082567e-01 -3.8397121364e-04  1.4899672220e+03  5.6539570767e+02 
    7.1831298006e+00 -3.3920109162e+03  2.1110018095e+02 ] stress_312 gradient
 [ -9.2495902732e-01 -3.6860195928e-04  1.0746367981e+03  4.4283487830e+02 
    3.9640626866e+00 -3.4503059871e+03  1.5280329451e+02 ] stress_313 gradient
 [ -9.4762425781e-01 -3.7137166113e-04  6.4008839958e+02  3.5044989265e+02 
    2.0897107629e+00 -3.4900976585e+03  1.1301120678e+02 ] stress_314 gradient
 [ -9.6338092029e-01 -3.8639787217e-04  1.8913425384e+02  2.8056536221e+02 
    9.9010313348e-01 -3.5178005756e+03  8.5307333781e+01 ] stress_315 gradient
 [ -9.7455182683e-01 -4.0984673463e-04 -2.7554717196e+02  2.2731741770e+02 
    3.4366160281e-01 -3.5374679589e+03  6.5639768881e+01 ] stress_316 gradient
 [ -9.8262159279e-01 -4.3917178944e-04 -7.5137093410e+02  1.8637520118e+02 
   -3.4858931311e-02 -3.5516934302e+03  5.1414157434e+01 ] stress_317 gradient
 [ -9.8855441493e-01 -4.7263227222e-04 -1.2357629637e+03  1.5458510602e+02 
   -2.5277287528e-01 -3.5621642920e+03  4.0942870746e+01 ] stress_318 gradient
 [ -9.9298776389e-01 -5.0899707608e-04 -1.7261600666e+03  1.2965504507e+02 
   -3.7341032449e-01 -3.5699965904e+03  3.3110276409e+01 ] stress_319 gradient
 [ -9.9635095540e-01 -5.4736346307e-04 -2.2200186233e+03  1.0991317824e+02 
   -4.3546287060e-01 -3.5759448428e+03  2.7162234069e+01 ] stress_320 gradient
 [ -9.9893775366e-01 -5.8703986174e-04 -2.7147732649e+03  9.4133871051e+01 
   -4.6192645692e-01 -3.5805238787e+03  2.2582668858e+01 ] stress_321 gradient
 [ -1.0009528593e+00 -6.2747826880e-04 -3.2078945092e+03  8.1410002039e+01 
   -4.6721917419e-01 -3.5840942283e+03  1.9012485362e+01 ] stress_322 gradient
 [ -1.0025408550e+00 -6.6822464504e-04 -3.6968414554e+03  7.1065631719e+01 
   -4.6010138265e-01 -3.5869095613e+03  1.6196841652e+01 ] stress_323 gradient
 [ -1.0038055790e+00 -7.0889370423e-04 -4.1791188770e+03  6.2591656386e+01 
   -4.4604830513e-01 -3.5891541378e+03  1.3952395347e+01 ] stress_324 gradient
 [ -1.0048225897e+00 -7.4914990863e-04 -4.6522891841e+03  5.5601297896e+01 
   -4.2852758669e-01 -3.5909602853e+03  1.2146532785e+01 ] stress_325 gradient
 [ -1.0056474060e+00 -7.8868913808e-04 -5.1139120679e+03  4.9799074062e+01 
   -4.0972931689e-01 -3.5924253770e+03  1.0680592588e+01 ] stress_326 gradient
 [ -1.0063215634e+00 -8.2724085506e-04 -5.5616744552e+03  4.4956009466e+01 
   -3.9056602974e-01 -3.5936243154e+03  9.4822763576e+00 ] stress_327 gradient
 [ -1.0068762132e+00 -8.6454948509e-04 -5.9932453291e+03  4.0894798705e+01 
   -3.7231528076e-01 -3.5946110302e+03  8.4952632180e+00 ] stress_328 gradient
 [ -1.0073351613e+00 -9.0038682980e-04 -6.4064747386e+03  3.7475578757e+01 
   -3.5497706788e-01 -3.5954274668e+03  7.6784109869e+00 ] stress_329 gradient
 [ -1.0077167198e+00 -9.3453825858e-04 -6.7992638442e+03  3.4588343964e+01 
   -3.3891640845e-01 -3.5961070816e+03  6.9989656839e+00 ] stress_330 gradient
 [ -1.0080349765e+00 -9.6680237181e-04 -7.1695899301e+03  3.2145935644e+01 
   -3.2449831774e-01 -3.5966743427e+03  6.4321621009e+00 ] stress_331 gradient
 [ -1.0083009812e+00 -9.9699783285e-04 -7.5156015590e+03  3.0078468255e+01 
   -3.1135777839e-01 -3.5971482255e+03  5.9580283120e+00 ] stress_332 gradient
 [ -1.0085233905e+00 -1.0249530719e-03 -7.8355141735e+03  2.8330249421e+01 
   -2.9985980569e-01 -3.5975447091e+03  5.5613856419e+00 ] stress_333 gradient
 [ -1.0087090506e+00 -1.0505148502e-03 -8.1277199321e+03  2.6856320708e+01 
   -2.8963938850e-01 -3.5978757779e+03  5.2302509189e+00 ] stress_334 gradient
 [ -1.0088633304e+00 -1.0735460466e-03 -8.3907654158e+03  2.5620492416e+01 
   -2.8069652061e-01 -3.5981509195e+03  4.9554370626e+00 ] stress_335 gradient
 [ -1.0089904958e+00 -1.0939148806e-03 -8.6232363546e+03  2.4594148361e+01 
   -2.7321371173e-01 -3.5983776242e+03  4.7281564184e+00 ] stress_336 gradient
 [ -1.0090939386e+00 -1.1115179098e-03 -8.8240251486e+03  2.3753820979e+01 
   -2.6682595073e-01 -3.5985623836e+03  4.5436157173e+00 ] stress_337 gradient
 [ -1.0091762600e+00 -1.1262578986e-03 -8.9920802031e+03  2.3081352208e+01 
   -2.6153323346e-01 -3.5987091924e+03  4.3970216999e+00 ] stress_338 gradient
 [ -1.0092394993e+00 -1.1380556054e-03 -9.1265418639e+03  2.2562514407e+01 
   -2.5751806757e-01 -3.5988220454e+03  4.2839805363e+00 ] stress_339 gradient
 [ -1.0092851964e+00 -1.1468505526e-03 -9.2267538359e+03  2.2186481695e+01 
   -2.5459794956e-01 -3.5989039387e+03  4.2020955923e+00 ] stress_340 gradient
 [ -1.0093143710e+00 -1.1525948200e-03 -9.2921941278e+03  2.1945703535e+01 
   -2.5259036765e-01 -3.5989558711e+03  4.1501685552e+00 ] stress_341 gradient
 [ -1.0093277514e+00 -1.1552569901e-03 -9.3225196394e+03  2.1835364597e+01 
   -2.5186033711e-01 -3.5989803392e+03  4.1262022297e+00 ] stress_342 gradient



---------------------
Begin Evaluation  118
---------------------
Parameters for evaluation 118:
                      4.8053081776e+02 fy
                      2.0784060126e+05 E
                      1.8392449930e-02 b
                      8.7012078330e-01 cR1
                      5.4813470460e-02 cR2
                      2.0030544584e-02 a1
                      2.5040320748e-02 a3

blocking fork: workflow_driver1 paramsDakota.in results.out

Active response data for evaluation 118:
Active set vector = { 1 1 1 1 1 1 1 1 1 1 1 1 1 1 1 1 1 1 1 1 1 1 1 1 1 1 1 1 1 1 1 1 1 1 1 1 1 1 1 1 1 1 1 1 1 1 1 1 1 1 1 1 1 1 1 1 1 1 1 1 1 1 1 1 1 1 1 1 1 1 1 1 1 1 1 1 1 1 1 1 1 1 1 1 1 1 1 1 1 1 1 1 1 1 1 1 1 1 1 1 1 1 1 1 1 1 1 1 1 1 1 1 1 1 1 1 1 1 1 1 1 1 1 1 1 1 1 1 1 1 1 1 1 1 1 1 1 1 1 1 1 1 1 1 1 1 1 1 1 1 1 1 1 1 1 1 1 1 1 1 1 1 1 1 1 1 1 1 1 1 1 1 1 1 1 1 1 1 1 1 1 1 1 1 1 1 1 1 1 1 1 1 1 1 1 1 1 1 1 1 1 1 1 1 1 1 1 1 1 1 1 1 1 1 1 1 1 1 1 1 1 1 1 1 1 1 1 1 1 1 1 1 1 1 1 1 1 1 1 1 1 1 1 1 1 1 1 1 1 1 1 1 1 1 1 1 1 1 1 1 1 1 1 1 1 1 1 1 1 1 1 1 1 1 1 1 1 1 1 1 1 1 1 1 1 1 1 1 1 1 1 1 1 1 1 1 1 1 1 1 1 1 1 1 1 1 1 1 1 1 1 1 1 1 1 1 1 1 1 1 1 1 1 1 1 1 1 1 1 1 1 1 1 1 1 1 1 1 1 1 1 1 }
                      2.4220157847e+00 stress_1
                     -2.5171568011e+02 stress_2
                     -4.9424799880e+02 stress_3
                     -4.9576760413e+02 stress_4
                     -1.6682394978e+02 stress_5
                      2.5329576788e+02 stress_6
                      4.0135592261e+02 stress_7
                      4.0222417229e+02 stress_8
                      1.5256275219e+02 stress_9
                     -2.3138389897e+02 stress_10
                     -4.3993991114e+02 stress_11
                     -4.8922800300e+02 stress_12
                     -5.0314444643e+02 stress_13
                     -5.0413770526e+02 stress_14
                     -1.7338320528e+02 stress_15
                     -3.4134708402e+02 stress_16
                     -5.0981211161e+02 stress_17
                     -3.1501293392e+02 stress_18
                      2.1456887098e+01 stress_19
                      2.9856873883e+02 stress_20
                      4.1856441029e+02 stress_21
                      4.6350661056e+02 stress_22
                      4.8206873002e+02 stress_23
                      4.8819186288e+02 stress_24
                      1.5749432456e+02 stress_25
                      2.8560685144e+02 stress_26
                      4.2948246112e+02 stress_27
                      4.6525914865e+02 stress_28
                      3.4238830974e+02 stress_29
                      1.2875058593e+02 stress_30
                     -1.2500360358e+02 stress_31
                     -3.2064117374e+02 stress_32
                     -4.2446369925e+02 stress_33
                     -4.7426633150e+02 stress_34
                     -5.0122034936e+02 stress_35
                     -5.1870529656e+02 stress_36
                     -5.3170411244e+02 stress_37
                     -5.4201936730e+02 stress_38
                     -5.5025795841e+02 stress_39
                     -5.5656473386e+02 stress_40
                     -5.6092535755e+02 stress_41
                     -5.6328052893e+02 stress_42
                     -5.4781371868e+02 stress_43
                     -1.6075703782e+02 stress_44
                      1.0636094781e+02 stress_45
                     -9.9844757217e+01 stress_46
                     -4.5322432963e+02 stress_47
                     -1.5680649176e+02 stress_48
                     -2.5974263501e+02 stress_49
                     -4.1955082682e+02 stress_50
                     -5.6864313618e+02 stress_51
                     -3.9867058182e+02 stress_52
                     -6.1068281569e+01 stress_53
                      2.2649643413e+02 stress_54
                      3.5826718151e+02 stress_55
                      4.0782115250e+02 stress_56
                      4.2287310896e+02 stress_57
                      3.3650397587e+02 stress_58
                      2.1672623522e+01 stress_59
                     -3.1591309135e+02 stress_60
                     -4.7141238459e+02 stress_61
                     -5.2133121197e+02 stress_62
                     -5.3234576011e+02 stress_63
                     -2.6387630671e+02 stress_64
                      1.1339732365e+02 stress_65
                      2.0042280679e+02 stress_66
                     -7.1902639561e+01 stress_67
                     -4.4065486260e+02 stress_68
                     -5.3484792935e+02 stress_69
                     -5.3592720297e+02 stress_70
                     -4.4052903774e+02 stress_71
                     -2.6828426807e+02 stress_72
                     -4.4797204641e+01 stress_73
                      1.6688113150e+02 stress_74
                      3.1135046473e+02 stress_75
                      3.9199138655e+02 stress_76
                      4.3621892345e+02 stress_77
                      4.6304513717e+02 stress_78
                      4.8166668048e+02 stress_79
                      4.9613285685e+02 stress_80
                      5.0818910073e+02 stress_81
                      5.1856324857e+02 stress_82
                      5.2752350574e+02 stress_83
                      5.3512980988e+02 stress_84
                      5.4134773853e+02 stress_85
                      5.4611145545e+02 stress_86
                      5.4935311626e+02 stress_87
                      5.5101689214e+02 stress_88
                      4.7728874382e+02 stress_89
                      4.3677138923e+01 stress_90
                     -1.5951352781e+02 stress_91
                      1.3071557597e+02 stress_92
                      4.7803200997e+02 stress_93
                      4.8437261171e+02 stress_94
                      4.2416779320e+02 stress_95
                      3.1599119140e+02 stress_96
                      1.6530378502e+02 stress_97
                     -1.0244604353e+01 stress_98
                     -1.7746346516e+02 stress_99
                     -3.0621826319e+02 stress_100
                     -3.9080238366e+02 stress_101
                     -4.4297486834e+02 stress_102
                     -4.7592379638e+02 stress_103
                     -4.9839994453e+02 stress_104
                     -5.1527962584e+02 stress_105
                     -5.2913922362e+02 stress_106
                     -5.4132219790e+02 stress_107
                     -5.5252689906e+02 stress_108
                     -5.6310994505e+02 stress_109
                     -5.7324286910e+02 stress_110
                     -5.8299367707e+02 stress_111
                     -5.9237073842e+02 stress_112
                     -6.0134979586e+02 stress_113
                     -6.0988744043e+02 stress_114
                     -6.1792960001e+02 stress_115
                     -6.2541798440e+02 stress_116
                     -6.3229273479e+02 stress_117
                     -6.3849739848e+02 stress_118
                     -6.4397845352e+02 stress_119
                     -6.4868619286e+02 stress_120
                     -6.5257935871e+02 stress_121
                     -6.5562198098e+02 stress_122
                     -6.5778566907e+02 stress_123
                     -6.5905122498e+02 stress_124
                     -6.5939117892e+02 stress_125
                     -5.5681489020e+02 stress_126
                     -3.0590955541e+02 stress_127
                      8.8991222505e-01 stress_128
                      2.1965929079e+02 stress_129
                      3.2866724711e+02 stress_130
                      3.7949932519e+02 stress_131
                      4.0432345040e+02 stress_132
                      4.1560054652e+02 stress_133
                      4.1622958019e+02 stress_134
                      1.1301164231e+01 stress_135
                     -1.0590795923e+01 stress_136
                      1.7452868191e+02 stress_137
                      1.3838856389e+02 stress_138
                     -3.3976920951e+01 stress_139
                     -3.2104189009e+02 stress_140
                     -5.3004831347e+02 stress_141
                     -6.1376352332e+02 stress_142
                     -6.4626422709e+02 stress_143
                     -6.6106123494e+02 stress_144
                     -6.6717522663e+02 stress_145
                     -6.4677441739e+02 stress_146
                     -4.0873048434e+02 stress_147
                     -5.7898748476e+01 stress_148
                      1.9428092263e+02 stress_149
                      3.0664819818e+02 stress_150
                      3.4822301613e+02 stress_151
                      3.5335668812e+02 stress_152
                      1.3690481681e+02 stress_153
                     -2.3149503778e+02 stress_154
                     -4.9339702778e+02 stress_155
                     -5.9023259857e+02 stress_156
                     -6.1726600568e+02 stress_157
                     -4.9453892250e+02 stress_158
                     -8.9473114484e+01 stress_159
                      9.3863168584e+01 stress_160
                     -7.2954615975e+01 stress_161
                     -4.6830060831e+02 stress_162
                     -6.2385099773e+02 stress_163
                     -6.3481631349e+02 stress_164
                     -5.9305309799e+02 stress_165
                     -5.1076311980e+02 stress_166
                     -3.8997585412e+02 stress_167
                     -2.3776104795e+02 stress_168
                     -7.1360824280e+01 stress_169
                      8.3526281369e+01 stress_170
                      2.0609478069e+02 stress_171
                      2.9187596365e+02 stress_172
                      3.4852057946e+02 stress_173
                      3.8603987041e+02 stress_174
                      4.1207947812e+02 stress_175
                      4.3145314112e+02 stress_176
                      4.4697803424e+02 stress_177
                      4.6026583055e+02 stress_178
                      4.7223296820e+02 stress_179
                      4.8340094086e+02 stress_180
                      4.9406382105e+02 stress_181
                      5.0438090333e+02 stress_182
                      5.1443193294e+02 stress_183
                      5.2424701589e+02 stress_184
                      5.3382627010e+02 stress_185
                      5.4315043060e+02 stress_186
                      5.5218838993e+02 stress_187
                      5.6090214206e+02 stress_188
                      5.6924911176e+02 stress_189
                      5.7718530475e+02 stress_190
                      5.8466647444e+02 stress_191
                      5.9164822663e+02 stress_192
                      5.9808973580e+02 stress_193
                      6.0395138463e+02 stress_194
                      6.0919599677e+02 stress_195
                      6.1379165076e+02 stress_196
                      6.1770827694e+02 stress_197
                      6.2092168309e+02 stress_198
                      6.2341134899e+02 stress_199
                      6.2516050501e+02 stress_200
                      6.2615852305e+02 stress_201
                      6.2620740771e+02 stress_202
                      2.6421199548e+02 stress_203
                     -7.9914294627e+01 stress_204
                      2.9013032177e+01 stress_205
                      4.6807182684e+02 stress_206
                      4.8724734187e+02 stress_207
                      4.2241992271e+02 stress_208
                      3.0530942291e+02 stress_209
                      1.4337206282e+02 stress_210
                     -4.0001786827e+01 stress_211
                     -2.0580688379e+02 stress_212
                     -3.2619567924e+02 stress_213
                     -4.0206538295e+02 stress_214
                     -4.4826240484e+02 stress_215
                     -4.7779775344e+02 stress_216
                     -4.9850216235e+02 stress_217
                     -5.1454291363e+02 stress_218
                     -5.2806086971e+02 stress_219
                     -5.4014832575e+02 stress_220
                     -5.5135774594e+02 stress_221
                     -5.6195663152e+02 stress_222
                     -5.7205889852e+02 stress_223
                     -5.8169299952e+02 stress_224
                     -5.9084033903e+02 stress_225
                     -5.9945570938e+02 stress_226
                     -6.0748006391e+02 stress_227
                     -6.1484968182e+02 stress_228
                     -6.2149787447e+02 stress_229
                     -6.2736295558e+02 stress_230
                     -6.3238757935e+02 stress_231
                     -6.3651977752e+02 stress_232
                     -6.3971871385e+02 stress_233
                     -6.4195087239e+02 stress_234
                     -6.4319193742e+02 stress_235
                     -6.3669920767e+02 stress_236
                     -2.7206882633e+02 stress_237
                      2.3010556629e+01 stress_238
                     -1.9707361538e+02 stress_239
                     -4.4708496800e+02 stress_240
                     -1.1611287017e+02 stress_241
                      6.0558271939e+01 stress_242
                     -2.7192918031e+02 stress_243
                     -3.9574319227e+02 stress_244
                     -5.0425051069e+02 stress_245
                     -3.1923309472e+02 stress_246
                      1.5339934358e+01 stress_247
                      2.7655739432e+02 stress_248
                      3.9086254822e+02 stress_249
                      4.3380873074e+02 stress_250
                      4.4620176705e+02 stress_251
                      3.4077878782e+02 stress_252
                      1.9208539193e+01 stress_253
                     -3.1461740045e+02 stress_254
                     -4.8440772609e+02 stress_255
                     -5.4583843977e+02 stress_256
                     -5.5817019988e+02 stress_257
                     -2.8087943875e+02 stress_258
                      9.8348644524e+01 stress_259
                      2.1649942630e+02 stress_260
                      1.8542744191e+00 stress_261
                     -3.6364256827e+02 stress_262
                     -5.2130872750e+02 stress_263
                     -5.4314312724e+02 stress_264
                     -5.0109756946e+02 stress_265
                     -4.0687883874e+02 stress_266
                     -2.6417521011e+02 stress_267
                     -8.6792037432e+01 stress_268
                      9.4409485013e+01 stress_269
                      2.4349948906e+02 stress_270
                      3.4577428951e+02 stress_271
                      4.0971612387e+02 stress_272
                      4.4966040714e+02 stress_273
                      4.7622516082e+02 stress_274
                      4.9557701343e+02 stress_275
                      5.1101515519e+02 stress_276
                      5.2426924861e+02 stress_277
                      5.3624015664e+02 stress_278
                      5.4739097143e+02 stress_279
                      5.5794839091e+02 stress_280
                      5.6800827550e+02 stress_281
                      5.7759275482e+02 stress_282
                      5.8668173269e+02 stress_283
                      5.9523228997e+02 stress_284
                      6.0318828571e+02 stress_285
                      6.1048931305e+02 stress_286
                      6.1707401841e+02 stress_287
                      6.2288267594e+02 stress_288
                      6.2786187714e+02 stress_289
                      6.3196387531e+02 stress_290
                      6.3514810634e+02 stress_291
                      6.3738386033e+02 stress_292
                      6.3864828757e+02 stress_293
                      6.3866695755e+02 stress_294
                      2.6479684118e+02 stress_295
                     -7.1569755511e+01 stress_296
                      5.9054496672e+01 stress_297
                      4.8352465118e+02 stress_298
                      4.9840699227e+02 stress_299
                      4.5488717015e+02 stress_300
                      3.7653503809e+02 stress_301
                      2.6515525227e+02 stress_302
                      1.2708960952e+02 stress_303
                     -2.3153834090e+01 stress_304
                     -1.6391101873e+02 stress_305
                     -2.7721823482e+02 stress_306
                     -3.5823890049e+02 stress_307
                     -4.1272736147e+02 stress_308
                     -4.4922775303e+02 stress_309
                     -4.7463270552e+02 stress_310
                     -4.9346630351e+02 stress_311
                     -5.0845938196e+02 stress_312
                     -5.2121041019e+02 stress_313
                     -5.3265218794e+02 stress_314
                     -5.4332909923e+02 stress_315
                     -5.5355814339e+02 stress_316
                     -5.6352187118e+02 stress_317
                     -5.7332071203e+02 stress_318
                     -5.8300446296e+02 stress_319
                     -5.9259124102e+02 stress_320
                     -6.0207814961e+02 stress_321
                     -6.1144939893e+02 stress_322
                     -6.2067995118e+02 stress_323
                     -6.2973945544e+02 stress_324
                     -6.3859439972e+02 stress_325
                     -6.4720820674e+02 stress_326
                     -6.5554453841e+02 stress_327
                     -6.6356519179e+02 stress_328
                     -6.7123418064e+02 stress_329
                     -6.7851563665e+02 stress_330
                     -6.8537445635e+02 stress_331
                     -6.9177826447e+02 stress_332
                     -6.9769551521e+02 stress_333
                     -7.0309766363e+02 stress_334
                     -7.0795878817e+02 stress_335
                     -7.1225351112e+02 stress_336
                     -7.1596197727e+02 stress_337
                     -7.1906523572e+02 stress_338
                     -7.2154776172e+02 stress_339
                     -7.2339773060e+02 stress_340
                     -7.2460570384e+02 stress_341
                     -7.2516545311e+02 stress_342



------------------------------------------
Begin Dakota derivative estimation routine
------------------------------------------

>>>>> map at X performed previously and results retrieved

>>>>> Dakota finite difference gradient evaluation for x[1] + h:

---------------------
Begin Evaluation  119
---------------------
Parameters for evaluation 119:
                      4.8101134857e+02 fy
                      2.0784060126e+05 E
                      1.8392449930e-02 b
                      8.7012078330e-01 cR1
                      5.4813470460e-02 cR2
                      2.0030544584e-02 a1
                      2.5040320748e-02 a3

(Asynchronous job 119 added to queue)


>>>>> Dakota finite difference gradient evaluation for x[2] + h:

---------------------
Begin Evaluation  120
---------------------
Parameters for evaluation 120:
                      4.8053081776e+02 fy
                      2.0804844186e+05 E
                      1.8392449930e-02 b
                      8.7012078330e-01 cR1
                      5.4813470460e-02 cR2
                      2.0030544584e-02 a1
                      2.5040320748e-02 a3

(Asynchronous job 120 added to queue)


>>>>> Dakota finite difference gradient evaluation for x[3] + h:

---------------------
Begin Evaluation  121
---------------------
Parameters for evaluation 121:
                      4.8053081776e+02 fy
                      2.0784060126e+05 E
                      1.8410842380e-02 b
                      8.7012078330e-01 cR1
                      5.4813470460e-02 cR2
                      2.0030544584e-02 a1
                      2.5040320748e-02 a3

(Asynchronous job 121 added to queue)


>>>>> Dakota finite difference gradient evaluation for x[4] + h:

---------------------
Begin Evaluation  122
---------------------
Parameters for evaluation 122:
                      4.8053081776e+02 fy
                      2.0784060126e+05 E
                      1.8392449930e-02 b
                      8.7099090409e-01 cR1
                      5.4813470460e-02 cR2
                      2.0030544584e-02 a1
                      2.5040320748e-02 a3

(Asynchronous job 122 added to queue)


>>>>> Dakota finite difference gradient evaluation for x[5] + h:

---------------------
Begin Evaluation  123
---------------------
Parameters for evaluation 123:
                      4.8053081776e+02 fy
                      2.0784060126e+05 E
                      1.8392449930e-02 b
                      8.7012078330e-01 cR1
                      5.4868283930e-02 cR2
                      2.0030544584e-02 a1
                      2.5040320748e-02 a3

(Asynchronous job 123 added to queue)


>>>>> Dakota finite difference gradient evaluation for x[6] + h:

---------------------
Begin Evaluation  124
---------------------
Parameters for evaluation 124:
                      4.8053081776e+02 fy
                      2.0784060126e+05 E
                      1.8392449930e-02 b
                      8.7012078330e-01 cR1
                      5.4813470460e-02 cR2
                      2.0050575128e-02 a1
                      2.5040320748e-02 a3

(Asynchronous job 124 added to queue)


>>>>> Dakota finite difference gradient evaluation for x[7] + h:

---------------------
Begin Evaluation  125
---------------------
Parameters for evaluation 125:
                      4.8053081776e+02 fy
                      2.0784060126e+05 E
                      1.8392449930e-02 b
                      8.7012078330e-01 cR1
                      5.4813470460e-02 cR2
                      2.0030544584e-02 a1
                      2.5065361068e-02 a3

(Asynchronous job 125 added to queue)



Blocking synchronize of 7 asynchronous evaluations
First pass: initiating 7 local asynchronous jobs
Initiating evaluation 119
nonblocking fork: workflow_driver1 paramsDakota.in results.out
Initiating evaluation 120
nonblocking fork: workflow_driver1 paramsDakota.in results.out
Initiating evaluation 121
nonblocking fork: workflow_driver1 paramsDakota.in results.out
Initiating evaluation 122
nonblocking fork: workflow_driver1 paramsDakota.in results.out
Initiating evaluation 123
nonblocking fork: workflow_driver1 paramsDakota.in results.out
Initiating evaluation 124
nonblocking fork: workflow_driver1 paramsDakota.in results.out
Initiating evaluation 125
nonblocking fork: workflow_driver1 paramsDakota.in results.out
Waiting on completed jobs
Evaluation 119 has completed
Evaluation 120 has completed
Evaluation 121 has completed
Evaluation 122 has completed
Evaluation 123 has completed
Waiting on completed jobs
Evaluation 124 has completed
Waiting on completed jobs
Evaluation 125 has completed

Active response data for evaluation 119:
Active set vector = { 1 1 1 1 1 1 1 1 1 1 1 1 1 1 1 1 1 1 1 1 1 1 1 1 1 1 1 1 1 1 1 1 1 1 1 1 1 1 1 1 1 1 1 1 1 1 1 1 1 1 1 1 1 1 1 1 1 1 1 1 1 1 1 1 1 1 1 1 1 1 1 1 1 1 1 1 1 1 1 1 1 1 1 1 1 1 1 1 1 1 1 1 1 1 1 1 1 1 1 1 1 1 1 1 1 1 1 1 1 1 1 1 1 1 1 1 1 1 1 1 1 1 1 1 1 1 1 1 1 1 1 1 1 1 1 1 1 1 1 1 1 1 1 1 1 1 1 1 1 1 1 1 1 1 1 1 1 1 1 1 1 1 1 1 1 1 1 1 1 1 1 1 1 1 1 1 1 1 1 1 1 1 1 1 1 1 1 1 1 1 1 1 1 1 1 1 1 1 1 1 1 1 1 1 1 1 1 1 1 1 1 1 1 1 1 1 1 1 1 1 1 1 1 1 1 1 1 1 1 1 1 1 1 1 1 1 1 1 1 1 1 1 1 1 1 1 1 1 1 1 1 1 1 1 1 1 1 1 1 1 1 1 1 1 1 1 1 1 1 1 1 1 1 1 1 1 1 1 1 1 1 1 1 1 1 1 1 1 1 1 1 1 1 1 1 1 1 1 1 1 1 1 1 1 1 1 1 1 1 1 1 1 1 1 1 1 1 1 1 1 1 1 1 1 1 1 1 1 1 1 1 1 1 1 1 1 1 1 1 1 1 1 }
                      2.4220157847e+00 stress_1
                     -2.5171568970e+02 stress_2
                     -4.9472762123e+02 stress_3
                     -4.9624843450e+02 stress_4
                     -1.6729645677e+02 stress_5
                      2.5315454840e+02 stress_6
                      4.0157704187e+02 stress_7
                      4.0244777320e+02 stress_8
                      1.5278295224e+02 stress_9
                     -2.3137937853e+02 stress_10
                     -4.4034329033e+02 stress_11
                     -4.8970670799e+02 stress_12
                     -5.0362977102e+02 stress_13
                     -5.0462318581e+02 stress_14
                     -1.7385333983e+02 stress_15
                     -3.4181721873e+02 stress_16
                     -5.1028816935e+02 stress_17
                     -3.1548704942e+02 stress_18
                      2.1072900611e+01 stress_19
                      2.9853932511e+02 stress_20
                      4.1881504786e+02 stress_21
                      4.6386952644e+02 stress_22
                      4.8247223777e+02 stress_23
                      4.8860713032e+02 stress_24
                      1.5789366929e+02 stress_25
                      2.8600619588e+02 stress_26
                      4.2988056379e+02 stress_27
                      4.6565845911e+02 stress_28
                      3.4278721231e+02 stress_29
                      1.2913170109e+02 stress_30
                     -1.2475277344e+02 stress_31
                     -3.2066417444e+02 stress_32
                     -4.2471161063e+02 stress_33
                     -4.7462961744e+02 stress_34
                     -5.0163639048e+02 stress_35
                     -5.1914619934e+02 stress_36
                     -5.3215754231e+02 stress_37
                     -5.4247953780e+02 stress_38
                     -5.5072194265e+02 stress_39
                     -5.5703092527e+02 stress_40
                     -5.6139279125e+02 stress_41
                     -5.6374855258e+02 stress_42
                     -5.4828174212e+02 stress_43
                     -1.6119331515e+02 stress_44
                      1.0609552177e+02 stress_45
                     -1.0011032486e+02 stress_46
                     -4.5360963745e+02 stress_47
                     -1.5717758205e+02 stress_48
                     -2.6011372940e+02 stress_49
                     -4.1992864322e+02 stress_50
                     -5.6913089372e+02 stress_51
                     -3.9915698606e+02 stress_52
                     -6.1481931193e+01 stress_53
                      2.2638492910e+02 stress_54
                      3.5842148030e+02 stress_55
                      4.0809319888e+02 stress_56
                      4.2318085933e+02 stress_57
                      3.3681164743e+02 stress_58
                      2.1951661733e+01 stress_59
                     -3.1588808415e+02 stress_60
                     -4.7165814478e+02 stress_61
                     -5.2167946957e+02 stress_62
                     -5.3271588149e+02 stress_63
                     -2.6423923974e+02 stress_64
                      1.1320381635e+02 stress_65
                      2.0033112161e+02 stress_66
                     -7.2000486659e+01 stress_67
                     -4.4097260372e+02 stress_68
                     -5.3529114364e+02 stress_69
                     -5.3637170630e+02 stress_70
                     -4.4097336537e+02 stress_71
                     -2.6872107715e+02 stress_72
                     -4.5170938649e+01 stress_73
                      1.6669639741e+02 stress_74
                      3.1141058871e+02 stress_75
                      3.9223227912e+02 stress_76
                      4.3656293963e+02 stress_77
                      4.6344419241e+02 stress_78
                      4.8209557045e+02 stress_79
                      4.9657861358e+02 stress_80
                      5.0864484553e+02 stress_81
                      5.1902516293e+02 stress_82
                      5.2798936361e+02 stress_83
                      5.3559824830e+02 stress_84
                      5.4181787869e+02 stress_85
                      5.4658269813e+02 stress_86
                      5.4982502430e+02 stress_87
                      5.5148911776e+02 stress_88
                      4.7776090855e+02 stress_89
                      4.4080471842e+01 stress_90
                     -1.5927437172e+02 stress_91
                      1.3095727672e+02 stress_92
                      4.7848124817e+02 stress_93
                      4.8483012876e+02 stress_94
                      4.2462527421e+02 stress_95
                      3.1644716887e+02 stress_96
                      1.6574545339e+02 stress_97
                     -9.8652552557e+00 stress_98
                     -1.7723026676e+02 stress_99
                     -3.0618391574e+02 stress_100
                     -3.9094659589e+02 stress_101
                     -4.4324401200e+02 stress_102
                     -4.7627094494e+02 stress_103
                     -4.9879420442e+02 stress_104
                     -5.1570250171e+02 stress_105
                     -5.2957987652e+02 stress_106
                     -5.4177421013e+02 stress_107
                     -5.5298638346e+02 stress_108
                     -5.6357448296e+02 stress_109
                     -5.7371091360e+02 stress_110
                     -5.8346421196e+02 stress_111
                     -5.9284307896e+02 stress_112
                     -6.0182346981e+02 stress_113
                     -6.1036211478e+02 stress_114
                     -6.1840503496e+02 stress_115
                     -6.2589400379e+02 stress_116
                     -6.3276920655e+02 stress_117
                     -6.3897422177e+02 stress_118
                     -6.4445554963e+02 stress_119
                     -6.4916349898e+02 stress_120
                     -6.5305682350e+02 stress_121
                     -6.5609956123e+02 stress_122
                     -6.5826332720e+02 stress_123
                     -6.5952892713e+02 stress_124
                     -6.5986889270e+02 stress_125
                     -5.5729241426e+02 stress_126
                     -3.0637044526e+02 stress_127
                      5.7306472314e-01 stress_128
                      2.1962761049e+02 stress_129
                      3.2885482571e+02 stress_130
                      3.7980068971e+02 stress_131
                      4.0467823193e+02 stress_132
                      4.1597784613e+02 stress_133
                      4.1660808900e+02 stress_134
                      1.1654908096e+01 stress_135
                     -1.0242416249e+01 stress_136
                      1.7488240198e+02 stress_137
                      1.3874227730e+02 stress_138
                     -3.3628192934e+01 stress_139
                     -3.2081625122e+02 stress_140
                     -5.3015805276e+02 stress_141
                     -6.1408544199e+02 stress_142
                     -6.4666635442e+02 stress_143
                     -6.6149291278e+02 stress_144
                     -6.6761693499e+02 stress_145
                     -6.4721612525e+02 stress_146
                     -4.0916711749e+02 stress_147
                     -5.8227531587e+01 stress_148
                      1.9422884832e+02 stress_149
                      3.0680180932e+02 stress_150
                      3.4846418256e+02 stress_151
                      3.5360887854e+02 stress_152
                      1.3715478183e+02 stress_153
                     -2.3134369262e+02 stress_154
                     -4.9353741108e+02 stress_155
                     -5.9054464306e+02 stress_156
                     -6.1762806762e+02 stress_157
                     -4.9490061727e+02 stress_158
                     -8.9762900094e+01 stress_159
                      9.3712278705e+01 stress_160
                     -7.3106029606e+01 stress_161
                     -4.6857702291e+02 stress_162
                     -6.2430280605e+02 stress_163
                     -6.3527972320e+02 stress_164
                     -5.9351649989e+02 stress_165
                     -5.1122612439e+02 stress_166
                     -3.9043449788e+02 stress_167
                     -2.3819699015e+02 stress_168
                     -7.1726886265e+01 stress_169
                      8.3296006334e+01 stress_170
                      2.0603949381e+02 stress_171
                      2.9198427343e+02 stress_172
                      3.4875319968e+02 stress_173
                      3.8635714538e+02 stress_174
                      4.1245189317e+02 stress_175
                      4.3186117296e+02 stress_176
                      4.4740929845e+02 stress_177
                      4.6071252582e+02 stress_178
                      4.7269013136e+02 stress_179
                      4.8386536067e+02 stress_180
                      4.9453337833e+02 stress_181
                      5.0485417014e+02 stress_182
                      5.1490792776e+02 stress_183
                      5.2472505077e+02 stress_184
                      5.3430585410e+02 stress_185
                      5.4363120727e+02 stress_186
                      5.5267009630e+02 stress_187
                      5.6138458114e+02 stress_188
                      5.6973213386e+02 stress_189
                      5.7766879453e+02 stress_190
                      5.8515034185e+02 stress_191
                      5.9213240037e+02 stress_192
                      5.9857415875e+02 stress_193
                      6.0443601033e+02 stress_194
                      6.0968078687e+02 stress_195
                      6.1427657314e+02 stress_196
                      6.1819330421e+02 stress_197
                      6.2140679144e+02 stress_198
                      6.2389651728e+02 stress_199
                      6.2564571398e+02 stress_200
                      6.2664375473e+02 stress_201
                      6.2669264049e+02 stress_202
                      2.6468048929e+02 stress_203
                     -7.9615430502e+01 stress_204
                      2.9311897650e+01 stress_205
                      4.6844989627e+02 stress_206
                      4.8764241249e+02 stress_207
                      4.2281494504e+02 stress_208
                      3.0570246699e+02 stress_209
                      1.4374684208e+02 stress_210
                     -3.9701678677e+01 stress_211
                     -2.0566509260e+02 stress_212
                     -3.2624637398e+02 stress_213
                     -4.0227397484e+02 stress_214
                     -4.4857558910e+02 stress_215
                     -4.7817456811e+02 stress_216
                     -4.9891707159e+02 stress_217
                     -5.1498097956e+02 stress_218
                     -5.2851340043e+02 stress_219
                     -5.4061017127e+02 stress_220
                     -5.5182577258e+02 stress_221
                     -5.6242887599e+02 stress_222
                     -5.7253409488e+02 stress_223
                     -5.8217030869e+02 stress_224
                     -5.9131919040e+02 stress_225
                     -5.9993570530e+02 stress_226
                     -6.0796092077e+02 stress_227
                     -6.1533119289e+02 stress_228
                     -6.2197988548e+02 stress_229
                     -6.2784534890e+02 stress_230
                     -6.3287026297e+02 stress_231
                     -6.3700267743e+02 stress_232
                     -6.4020176872e+02 stress_233
                     -6.4243402947e+02 stress_234
                     -6.4367514933e+02 stress_235
                     -6.3718241957e+02 stress_236
                     -2.7253451597e+02 stress_237
                      2.2672558185e+01 stress_238
                     -1.9741485218e+02 stress_239
                     -4.4746956352e+02 stress_240
                     -1.1647670884e+02 stress_241
                      6.0271226412e+01 stress_242
                     -2.7223091492e+02 stress_243
                     -3.9607528088e+02 stress_244
                     -5.0463167105e+02 stress_245
                     -3.1961220893e+02 stress_246
                      1.5044871029e+01 stress_247
                      2.7654645114e+02 stress_248
                      3.9107377310e+02 stress_249
                      4.3411531175e+02 stress_250
                      4.4653563801e+02 stress_251
                      3.4111248704e+02 stress_252
                      1.9513629893e+01 stress_253
                     -3.1451804709e+02 stress_254
                     -4.8455160737e+02 stress_255
                     -5.4609630223e+02 stress_256
                     -5.5845192824e+02 stress_257
                     -2.8115474926e+02 stress_258
                      9.8211262269e+01 stress_259
                      2.1647836305e+02 stress_260
                      1.8300913806e+00 stress_261
                     -3.6377946430e+02 stress_262
                     -5.2159979610e+02 stress_263
                     -5.4346209683e+02 stress_264
                     -5.0141653135e+02 stress_265
                     -4.0719726159e+02 stress_266
                     -2.6448684533e+02 stress_267
                     -8.7067468829e+01 stress_268
                      9.4235845209e+01 stress_269
                      2.4348818624e+02 stress_270
                      3.4592654527e+02 stress_271
                      4.0999075888e+02 stress_272
                      4.5001393178e+02 stress_273
                      4.7662692707e+02 stress_274
                      4.9600817930e+02 stress_275
                      5.1146457006e+02 stress_276
                      5.2473029819e+02 stress_277
                      5.3670883972e+02 stress_278
                      5.4786480439e+02 stress_279
                      5.5842578932e+02 stress_280
                      5.6848820093e+02 stress_281
                      5.7807450902e+02 stress_282
                      5.8716483453e+02 stress_283
                      5.9571640037e+02 stress_284
                      6.0367316027e+02 stress_285
                      6.1097477194e+02 stress_286
                      6.1755992640e+02 stress_287
                      6.2336892902e+02 stress_288
                      6.2834839345e+02 stress_289
                      6.3245058868e+02 stress_290
                      6.3563496158e+02 stress_291
                      6.3787080984e+02 stress_292
                      6.3913528856e+02 stress_293
                      6.3915395928e+02 stress_294
                      2.6526575468e+02 stress_295
                     -7.1265775437e+01 stress_296
                      5.9358487433e+01 stress_297
                      4.8392171727e+02 stress_298
                      4.9881759164e+02 stress_299
                      4.5529775839e+02 stress_300
                      3.7694517400e+02 stress_301
                      2.6556099010e+02 stress_302
                      1.2747406816e+02 stress_303
                     -2.2832380738e+01 stress_304
                     -1.6371076669e+02 stress_305
                     -2.7717642799e+02 stress_306
                     -3.5834940609e+02 stress_307
                     -4.1295709089e+02 stress_308
                     -4.4954078796e+02 stress_309
                     -4.7500107539e+02 stress_310
                     -4.9387092914e+02 stress_311
                     -5.0888789807e+02 stress_312
                     -5.2165490340e+02 stress_313
                     -5.3310756887e+02 stress_314
                     -5.4379204887e+02 stress_315
                     -5.5402645876e+02 stress_316
                     -5.6399406256e+02 stress_317
                     -5.7379575290e+02 stress_318
                     -5.8348163309e+02 stress_319
                     -5.9307002637e+02 stress_320
                     -6.0255817730e+02 stress_321
                     -6.1193039435e+02 stress_322
                     -6.2116170920e+02 stress_323
                     -6.3022182081e+02 stress_324
                     -6.3907725347e+02 stress_325
                     -6.4769145657e+02 stress_326
                     -6.5602811196e+02 stress_327
                     -6.6404903167e+02 stress_328
                     -6.7171824092e+02 stress_329
                     -6.7899988014e+02 stress_330
                     -6.8585885265e+02 stress_331
                     -6.9226278851e+02 stress_332
                     -6.9818014604e+02 stress_333
                     -7.0358238360e+02 stress_334
                     -7.0844358222e+02 stress_335
                     -7.1273836623e+02 stress_336
                     -7.1644688205e+02 stress_337
                     -7.1955018002e+02 stress_338
                     -7.2203273639e+02 stress_339
                     -7.2388272721e+02 stress_340
                     -7.2509071446e+02 stress_341
                     -7.2565047014e+02 stress_342


Active response data for evaluation 120:
Active set vector = { 1 1 1 1 1 1 1 1 1 1 1 1 1 1 1 1 1 1 1 1 1 1 1 1 1 1 1 1 1 1 1 1 1 1 1 1 1 1 1 1 1 1 1 1 1 1 1 1 1 1 1 1 1 1 1 1 1 1 1 1 1 1 1 1 1 1 1 1 1 1 1 1 1 1 1 1 1 1 1 1 1 1 1 1 1 1 1 1 1 1 1 1 1 1 1 1 1 1 1 1 1 1 1 1 1 1 1 1 1 1 1 1 1 1 1 1 1 1 1 1 1 1 1 1 1 1 1 1 1 1 1 1 1 1 1 1 1 1 1 1 1 1 1 1 1 1 1 1 1 1 1 1 1 1 1 1 1 1 1 1 1 1 1 1 1 1 1 1 1 1 1 1 1 1 1 1 1 1 1 1 1 1 1 1 1 1 1 1 1 1 1 1 1 1 1 1 1 1 1 1 1 1 1 1 1 1 1 1 1 1 1 1 1 1 1 1 1 1 1 1 1 1 1 1 1 1 1 1 1 1 1 1 1 1 1 1 1 1 1 1 1 1 1 1 1 1 1 1 1 1 1 1 1 1 1 1 1 1 1 1 1 1 1 1 1 1 1 1 1 1 1 1 1 1 1 1 1 1 1 1 1 1 1 1 1 1 1 1 1 1 1 1 1 1 1 1 1 1 1 1 1 1 1 1 1 1 1 1 1 1 1 1 1 1 1 1 1 1 1 1 1 1 1 1 1 1 1 1 1 1 1 1 1 1 1 1 1 1 1 1 1 1 }
                      2.4244378005e+00 stress_1
                     -2.5196738605e+02 stress_2
                     -4.9426260143e+02 stress_3
                     -4.9578253665e+02 stress_4
                     -1.6651831905e+02 stress_5
                      2.5368946478e+02 stress_6
                      4.0153574089e+02 stress_7
                      4.0240238251e+02 stress_8
                      1.5249472783e+02 stress_9
                     -2.3161970145e+02 stress_10
                     -4.3997676495e+02 stress_11
                     -4.8923874761e+02 stress_12
                     -5.0316240487e+02 stress_13
                     -5.0415649485e+02 stress_14
                     -1.7308664528e+02 stress_15
                     -3.4121848774e+02 stress_16
                     -5.0984599145e+02 stress_17
                     -3.1485396486e+02 stress_18
                      2.1861921367e+01 stress_19
                      2.9889595627e+02 stress_20
                      4.1873185740e+02 stress_21
                      4.6360694199e+02 stress_22
                      4.8214712193e+02 stress_23
                      4.8826464501e+02 stress_24
                      1.5725238878e+02 stress_25
                      2.8549302848e+02 stress_26
                      4.2951376071e+02 stress_27
                      4.6532502969e+02 stress_28
                      3.4233172946e+02 stress_29
                      1.2849821727e+02 stress_30
                     -1.2537912134e+02 stress_31
                     -3.2093827939e+02 stress_32
                     -4.2463987788e+02 stress_33
                     -4.7437711331e+02 stress_34
                     -5.0130542434e+02 stress_35
                     -5.1878304021e+02 stress_36
                     -5.3178235011e+02 stress_37
                     -5.4210119113e+02 stress_38
                     -5.5034421337e+02 stress_39
                     -5.5665509193e+02 stress_40
                     -5.6101883586e+02 stress_41
                     -5.6337577335e+02 stress_42
                     -5.4789349650e+02 stress_43
                     -1.6048160761e+02 stress_44
                      1.0673227144e+02 stress_45
                     -9.9679495347e+01 stress_46
                     -4.5329226358e+02 stress_47
                     -1.5659227391e+02 stress_48
                     -2.5963134913e+02 stress_49
                     -4.1959258341e+02 stress_50
                     -5.6872400604e+02 stress_51
                     -3.9858283733e+02 stress_52
                     -6.0715908022e+01 stress_53
                      2.2683379286e+02 stress_54
                      3.5847058456e+02 stress_55
                      4.0795651119e+02 stress_56
                      4.2298787358e+02 stress_57
                      3.3653245052e+02 stress_58
                      2.1414996097e+01 stress_59
                     -3.1625382555e+02 stress_60
                     -4.7163784389e+02 stress_61
                     -5.2150417521e+02 stress_62
                     -5.3250789527e+02 stress_63
                     -2.6377718431e+02 stress_64
                      1.1370391520e+02 stress_65
                      2.0071448393e+02 stress_66
                     -7.1877096961e+01 stress_67
                     -4.4077788019e+02 stress_68
                     -5.3493967164e+02 stress_69
                     -5.3601873500e+02 stress_70
                     -4.4052534792e+02 stress_71
                     -2.6811587707e+02 stress_72
                     -4.4468577739e+01 stress_73
                      1.6723212609e+02 stress_74
                      3.1160102601e+02 stress_75
                      3.9214200214e+02 stress_76
                      4.3631081910e+02 stress_77
                      4.6310893344e+02 stress_78
                      4.8171933013e+02 stress_79
                      4.9618314488e+02 stress_80
                      5.0824148039e+02 stress_81
                      5.1861984738e+02 stress_82
                      5.2758513063e+02 stress_83
                      5.3519646662e+02 stress_84
                      5.4141891549e+02 stress_85
                      5.4618629621e+02 stress_86
                      5.4943053488e+02 stress_87
                      5.5109565771e+02 stress_88
                      4.7729384235e+02 stress_89
                      4.3317659569e+01 stress_90
                     -1.5991171160e+02 stress_91
                      1.3060505148e+02 stress_92
                      4.7806087522e+02 stress_93
                      4.8439954222e+02 stress_94
                      4.2413455507e+02 stress_95
                      3.1585128554e+02 stress_96
                      1.6502754853e+02 stress_97
                     -1.0633894866e+01 stress_98
                     -1.7787355325e+02 stress_99
                     -3.0655813000e+02 stress_100
                     -3.9104836355e+02 stress_101
                     -4.4314825226e+02 stress_102
                     -4.7605226500e+02 stress_103
                     -4.9850387651e+02 stress_104
                     -5.1537188603e+02 stress_105
                     -5.2922760807e+02 stress_106
                     -5.4141143321e+02 stress_107
                     -5.5261988500e+02 stress_108
                     -5.6320847286e+02 stress_109
                     -5.7334803180e+02 stress_110
                     -5.8310610628e+02 stress_111
                     -5.9249074345e+02 stress_112
                     -6.0147744979e+02 stress_113
                     -6.1002263402e+02 stress_114
                     -6.1807207700e+02 stress_115
                     -6.2556736678e+02 stress_116
                     -6.3244854063e+02 stress_117
                     -6.3865905831e+02 stress_118
                     -6.4414532223e+02 stress_119
                     -6.4885755981e+02 stress_120
                     -6.5275446053e+02 stress_121
                     -6.5580001025e+02 stress_122
                     -6.5796578433e+02 stress_123
                     -6.5923256189e+02 stress_124
                     -6.5957284417e+02 stress_125
                     -5.5689416953e+02 stress_126
                     -3.0575461635e+02 stress_127
                      1.2072719452e+00 stress_128
                      2.1991000551e+02 stress_129
                      3.2880781979e+02 stress_130
                      3.7957709037e+02 stress_131
                      4.0437271115e+02 stress_132
                      4.1563860721e+02 stress_133
                      4.1626706297e+02 stress_134
                      1.0958562484e+01 stress_135
                     -1.0949909784e+01 stress_136
                      1.7434934628e+02 stress_137
                      1.3817309484e+02 stress_138
                     -3.4359749232e+01 stress_139
                     -3.2158832146e+02 stress_140
                     -5.3046808591e+02 stress_141
                     -6.1405505124e+02 stress_142
                     -6.4650819220e+02 stress_143
                     -6.6129050598e+02 stress_144
                     -6.6740060168e+02 stress_145
                     -6.4697939215e+02 stress_146
                     -4.0870250622e+02 stress_147
                     -5.7628063726e+01 stress_148
                      1.9452675638e+02 stress_149
                      3.0680075012e+02 stress_150
                      3.4832966514e+02 stress_151
                      3.5345745906e+02 stress_152
                      1.3679136978e+02 stress_153
                     -2.3187801022e+02 stress_154
                     -4.9374990458e+02 stress_155
                     -5.9051070208e+02 stress_156
                     -6.1752115731e+02 stress_157
                     -4.9467171536e+02 stress_158
                     -8.9272936665e+01 stress_159
                      9.4107555100e+01 stress_160
                     -7.2876520135e+01 stress_161
                     -4.6849260705e+02 stress_162
                     -6.2402314040e+02 stress_163
                     -6.3498781629e+02 stress_164
                     -5.9318284542e+02 stress_165
                     -5.1081097586e+02 stress_166
                     -3.8990729769e+02 stress_167
                     -2.3756304555e+02 stress_168
                     -7.1066473180e+01 stress_169
                      8.3839512274e+01 stress_170
                      2.0635548369e+02 stress_171
                      2.9205890380e+02 stress_172
                      3.4863598367e+02 stress_173
                      3.8610826912e+02 stress_174
                      4.1211887827e+02 stress_175
                      4.3147637092e+02 stress_176
                      4.4699360686e+02 stress_177
                      4.6027929448e+02 stress_178
                      4.7224795533e+02 stress_179
                      4.8341985614e+02 stress_180
                      4.9408827376e+02 stress_181
                      5.0441197232e+02 stress_182
                      5.1447033139e+02 stress_183
                      5.2429319418e+02 stress_184
                      5.3388048219e+02 stress_185
                      5.4321277700e+02 stress_186
                      5.5225884680e+02 stress_187
                      5.6098058170e+02 stress_188
                      5.6933531674e+02 stress_189
                      5.7727897935e+02 stress_190
                      5.8476725347e+02 stress_191
                      5.9175568180e+02 stress_192
                      5.9820338386e+02 stress_193
                      6.0407069207e+02 stress_194
                      6.0932038481e+02 stress_195
                      6.1392050247e+02 stress_196
                      6.1784094064e+02 stress_197
                      6.2105747931e+02 stress_198
                      6.2354957508e+02 stress_199
                      6.2530043966e+02 stress_200
                      6.2629943308e+02 stress_201
                      6.2634836552e+02 stress_202
                      2.6400774875e+02 stress_203
                     -8.0292665741e+01 stress_204
                      2.8743587014e+01 stress_205
                      4.6816190093e+02 stress_206
                      4.8733956211e+02 stress_207
                      4.2244736397e+02 stress_208
                      3.0522173844e+02 stress_209
                      1.4314076209e+02 stress_210
                     -4.0341602461e+01 stress_211
                     -2.0615394607e+02 stress_212
                     -3.2647057707e+02 stress_213
                     -4.0225835723e+02 stress_214
                     -4.4839712438e+02 stress_215
                     -4.7789848984e+02 stress_216
                     -4.9858558471e+02 stress_217
                     -5.1461926953e+02 stress_218
                     -5.2813631086e+02 stress_219
                     -5.4022656069e+02 stress_220
                     -5.5144102338e+02 stress_221
                     -5.6204629978e+02 stress_222
                     -5.7215572402e+02 stress_223
                     -5.8179735123e+02 stress_224
                     -5.9095229950e+02 stress_225
                     -5.9957514335e+02 stress_226
                     -6.0760666331e+02 stress_227
                     -6.1498299815e+02 stress_228
                     -6.2163734022e+02 stress_229
                     -6.2750790500e+02 stress_230
                     -6.3253726377e+02 stress_231
                     -6.3667337836e+02 stress_232
                     -6.3987535902e+02 stress_233
                     -6.4210964776e+02 stress_234
                     -6.4335189915e+02 stress_235
                     -6.3685267668e+02 stress_236
                     -2.7187524121e+02 stress_237
                      2.3371231640e+01 stress_238
                     -1.9692977789e+02 stress_239
                     -4.4714767716e+02 stress_240
                     -1.1586542727e+02 stress_241
                      6.0905407657e+01 stress_242
                     -2.7189980042e+02 stress_243
                     -3.9580718998e+02 stress_244
                     -5.0437382379e+02 stress_245
                     -3.1917344279e+02 stress_246
                      1.5649905180e+01 stress_247
                      2.7684420328e+02 stress_248
                      3.9104163783e+02 stress_249
                      4.3393555192e+02 stress_250
                      4.4631374007e+02 stress_251
                      3.4078551018e+02 stress_252
                      1.8922387365e+01 stress_253
                     -3.1503123170e+02 stress_254
                     -4.8474797146e+02 stress_255
                     -5.4612617152e+02 stress_256
                     -5.5844641268e+02 stress_257
                     -2.8088479780e+02 stress_258
                      9.8584282277e+01 stress_259
                      2.1673675060e+02 stress_260
                      1.8800813206e+00 stress_261
                     -3.6386934665e+02 stress_262
                     -5.2153889554e+02 stress_263
                     -5.4336722617e+02 stress_264
                     -5.0127963056e+02 stress_265
                     -4.0696722181e+02 stress_266
                     -2.6412769722e+02 stress_267
                     -8.6603440586e+01 stress_268
                      9.4677291106e+01 stress_269
                      2.4375388246e+02 stress_270
                      3.4596739039e+02 stress_271
                      4.0985087247e+02 stress_272
                      4.4975630360e+02 stress_273
                      4.7629945143e+02 stress_274
                      4.9564130447e+02 stress_275
                      5.1107666709e+02 stress_276
                      5.2433240078e+02 stress_277
                      5.3630766017e+02 stress_278
                      5.4746448542e+02 stress_279
                      5.5802890351e+02 stress_280
                      5.6809632566e+02 stress_281
                      5.7768856413e+02 stress_282
                      5.8678528585e+02 stress_283
                      5.9534338702e+02 stress_284
                      6.0330657601e+02 stress_285
                      6.1061432115e+02 stress_286
                      6.1720516296e+02 stress_287
                      6.2301928470e+02 stress_288
                      6.2800320235e+02 stress_289
                      6.3210910584e+02 stress_290
                      6.3529637949e+02 stress_291
                      6.3753427513e+02 stress_292
                      6.3879991543e+02 stress_293
                      6.3881860333e+02 stress_294
                      2.6459276052e+02 stress_295
                     -7.1944909178e+01 stress_296
                      5.8809956404e+01 stress_297
                      4.8361118585e+02 stress_298
                      4.9849485993e+02 stress_299
                      4.5493152914e+02 stress_300
                      3.7650149881e+02 stress_301
                      2.6501474556e+02 stress_302
                      1.2683238053e+02 stress_303
                     -2.3498142504e+01 stress_304
                     -1.6427467456e+02 stress_305
                     -2.7753663490e+02 stress_306
                     -3.5848603782e+02 stress_307
                     -4.1290987404e+02 stress_308
                     -4.4936358065e+02 stress_309
                     -4.7473870155e+02 stress_310
                     -4.9355494963e+02 stress_311
                     -5.0853918153e+02 stress_312
                     -5.2128701909e+02 stress_313
                     -5.3272937562e+02 stress_314
                     -5.4340941258e+02 stress_315
                     -5.5364333258e+02 stress_316
                     -5.6361315719e+02 stress_317
                     -5.7341895410e+02 stress_318
                     -5.8311026456e+02 stress_319
                     -5.9270501800e+02 stress_320
                     -6.0220017413e+02 stress_321
                     -6.1157982926e+02 stress_322
                     -6.2081885126e+02 stress_323
                     -6.2988680912e+02 stress_324
                     -6.3875012113e+02 stress_325
                     -6.4737214682e+02 stress_326
                     -6.5571649186e+02 stress_327
                     -6.6374490019e+02 stress_328
                     -6.7142133817e+02 stress_329
                     -6.7870989285e+02 stress_330
                     -6.8557541891e+02 stress_331
                     -6.9198550341e+02 stress_332
                     -6.9790856487e+02 stress_333
                     -7.0331602651e+02 stress_334
                     -7.0818193826e+02 stress_335
                     -7.1248089502e+02 stress_336
                     -7.1619302009e+02 stress_337
                     -7.1929934236e+02 stress_338
                     -7.2178432059e+02 stress_339
                     -7.2363611756e+02 stress_340
                     -7.2484528479e+02 stress_341
                     -7.2540558741e+02 stress_342


Active response data for evaluation 121:
Active set vector = { 1 1 1 1 1 1 1 1 1 1 1 1 1 1 1 1 1 1 1 1 1 1 1 1 1 1 1 1 1 1 1 1 1 1 1 1 1 1 1 1 1 1 1 1 1 1 1 1 1 1 1 1 1 1 1 1 1 1 1 1 1 1 1 1 1 1 1 1 1 1 1 1 1 1 1 1 1 1 1 1 1 1 1 1 1 1 1 1 1 1 1 1 1 1 1 1 1 1 1 1 1 1 1 1 1 1 1 1 1 1 1 1 1 1 1 1 1 1 1 1 1 1 1 1 1 1 1 1 1 1 1 1 1 1 1 1 1 1 1 1 1 1 1 1 1 1 1 1 1 1 1 1 1 1 1 1 1 1 1 1 1 1 1 1 1 1 1 1 1 1 1 1 1 1 1 1 1 1 1 1 1 1 1 1 1 1 1 1 1 1 1 1 1 1 1 1 1 1 1 1 1 1 1 1 1 1 1 1 1 1 1 1 1 1 1 1 1 1 1 1 1 1 1 1 1 1 1 1 1 1 1 1 1 1 1 1 1 1 1 1 1 1 1 1 1 1 1 1 1 1 1 1 1 1 1 1 1 1 1 1 1 1 1 1 1 1 1 1 1 1 1 1 1 1 1 1 1 1 1 1 1 1 1 1 1 1 1 1 1 1 1 1 1 1 1 1 1 1 1 1 1 1 1 1 1 1 1 1 1 1 1 1 1 1 1 1 1 1 1 1 1 1 1 1 1 1 1 1 1 1 1 1 1 1 1 1 1 1 1 1 1 1 }
                      2.4220157847e+00 stress_1
                     -2.5171568013e+02 stress_2
                     -4.9425218523e+02 stress_3
                     -4.9577323493e+02 stress_4
                     -1.6682956273e+02 stress_5
                      2.5329155308e+02 stress_6
                      4.0135543081e+02 stress_7
                      4.0222372545e+02 stress_8
                      1.5256229934e+02 stress_9
                     -2.3138515746e+02 stress_10
                     -4.3994665054e+02 stress_11
                     -4.8924233544e+02 stress_12
                     -5.0316410982e+02 stress_13
                     -5.0415786280e+02 stress_14
                     -1.7340328613e+02 stress_15
                     -3.4136716487e+02 stress_16
                     -5.0983266066e+02 stress_17
                     -3.1503347399e+02 stress_18
                      2.1436890085e+01 stress_19
                      2.9855243474e+02 stress_20
                      4.1855529166e+02 stress_21
                      4.6350504891e+02 stress_22
                      4.8207277799e+02 stress_23
                      4.8819830773e+02 stress_24
                      1.5750067861e+02 stress_25
                      2.8561320549e+02 stress_26
                      4.2948882909e+02 stress_27
                      4.6526558382e+02 stress_28
                      3.4239474293e+02 stress_29
                      1.2875691666e+02 stress_30
                     -1.2499825314e+02 stress_31
                     -3.2063928499e+02 stress_32
                     -4.2446808587e+02 stress_33
                     -4.7427875713e+02 stress_34
                     -5.0124161956e+02 stress_35
                     -5.1873557649e+02 stress_36
                     -5.3174308417e+02 stress_37
                     -5.4206630690e+02 stress_38
                     -5.5031179152e+02 stress_39
                     -5.5662408681e+02 stress_40
                     -5.6098862455e+02 stress_41
                     -5.6334593793e+02 stress_42
                     -5.4787912768e+02 stress_43
                     -1.6082221793e+02 stress_44
                      1.0629737069e+02 stress_45
                     -9.9908334483e+01 stress_46
                     -4.5328834233e+02 stress_47
                     -1.5687040741e+02 stress_48
                     -2.5980655066e+02 stress_49
                     -4.1961475857e+02 stress_50
                     -5.6870873311e+02 stress_51
                     -3.9873617002e+02 stress_52
                     -6.1133317046e+01 stress_53
                      2.2643494678e+02 stress_54
                      3.5821211051e+02 stress_55
                      4.0777188633e+02 stress_56
                      4.2282655534e+02 stress_57
                      3.3645742193e+02 stress_58
                      2.1625903814e+01 stress_59
                     -3.1596224166e+02 stress_60
                     -4.7146752977e+02 stress_61
                     -5.2139189695e+02 stress_62
                     -5.3240839413e+02 stress_63
                     -2.6393888824e+02 stress_64
                      1.1333639682e+02 stress_65
                      2.0036326074e+02 stress_66
                     -7.1962206448e+01 stress_67
                     -4.4071643812e+02 stress_68
                     -5.3491380932e+02 stress_69
                     -5.3599318752e+02 stress_70
                     -4.4059502118e+02 stress_71
                     -2.6835020026e+02 stress_72
                     -4.4862645857e+01 stress_73
                      1.6681767876e+02 stress_74
                      3.1129137671e+02 stress_75
                      3.9193878652e+02 stress_76
                      4.3617420861e+02 stress_77
                      4.6300911485e+02 stress_78
                      4.8163974019e+02 stress_79
                      4.9611506033e+02 stress_80
                      5.0818022565e+02 stress_81
                      5.1856281456e+02 stress_82
                      5.2753079632e+02 stress_83
                      5.3514389751e+02 stress_84
                      5.4136750988e+02 stress_85
                      5.4613564406e+02 stress_86
                      5.4938033728e+02 stress_87
                      5.5104567701e+02 stress_88
                      4.7731752828e+02 stress_89
                      4.3705372891e+01 stress_90
                     -1.5948702052e+02 stress_91
                      1.3074208752e+02 stress_92
                      4.7805989966e+02 stress_93
                      4.8440064203e+02 stress_94
                      4.2419582330e+02 stress_95
                      3.1601921152e+02 stress_96
                      1.6533170455e+02 stress_97
                     -1.0217178445e+01 stress_98
                     -1.7743751077e+02 stress_99
                     -3.0619527667e+02 stress_100
                     -3.9078391599e+02 stress_101
                     -4.4296218957e+02 stress_102
                     -4.7591786237e+02 stress_103
                     -4.9840147543e+02 stress_104
                     -5.1528917179e+02 stress_105
                     -5.2915720466e+02 stress_106
                     -5.4134892314e+02 stress_107
                     -5.5256257590e+02 stress_108
                     -5.6315468370e+02 stress_109
                     -5.7329668546e+02 stress_110
                     -5.8305649452e+02 stress_111
                     -5.9244238890e+02 stress_112
                     -6.0143002322e+02 stress_113
                     -6.0997590334e+02 stress_114
                     -6.1802587513e+02 stress_115
                     -6.2552157102e+02 stress_116
                     -6.3240305909e+02 stress_117
                     -6.3861382084e+02 stress_118
                     -6.4410027411e+02 stress_119
                     -6.4881265739e+02 stress_120
                     -6.5270966817e+02 stress_121
                     -6.5575529795e+02 stress_122
                     -6.5792112604e+02 stress_123
                     -6.5918793411e+02 stress_124
                     -6.5952822446e+02 stress_125
                     -5.5695193435e+02 stress_126
                     -3.0604646948e+02 stress_127
                      7.5438792806e-01 stress_128
                      2.1952821484e+02 stress_129
                      3.2854301716e+02 stress_130
                      3.7938225898e+02 stress_131
                      4.0421224760e+02 stress_132
                      4.1549287952e+02 stress_133
                      4.1612213047e+02 stress_134
                      1.1193549559e+01 stress_135
                     -1.0698449399e+01 stress_136
                      1.7442114774e+02 stress_137
                      1.3828102970e+02 stress_138
                     -3.4084480635e+01 stress_139
                     -3.2115028129e+02 stress_140
                     -5.3016098050e+02 stress_141
                     -6.1388350629e+02 stress_142
                     -6.4639178354e+02 stress_143
                     -6.6119470569e+02 stress_144
                     -6.6731181340e+02 stress_145
                     -6.4691100417e+02 stress_146
                     -4.0886703084e+02 stress_147
                     -5.8034274496e+01 stress_148
                      1.9414949550e+02 stress_149
                      3.0652255030e+02 stress_150
                      3.4810159989e+02 stress_151
                      3.5323594967e+02 stress_152
                      1.3678406794e+02 stress_153
                     -2.3161647392e+02 stress_154
                     -4.9352236875e+02 stress_155
                     -5.9036348904e+02 stress_156
                     -6.1740007047e+02 stress_157
                     -4.9467298433e+02 stress_158
                     -8.9606500260e+01 stress_159
                      9.3731493108e+01 stress_160
                     -7.3086292778e+01 stress_161
                     -4.6843310495e+02 stress_162
                     -6.2398755399e+02 stress_163
                     -6.3495373658e+02 stress_164
                     -5.9319052103e+02 stress_165
                     -5.1090053992e+02 stress_166
                     -3.9011324134e+02 stress_167
                     -2.3789825378e+02 stress_168
                     -7.1497398831e+01 stress_169
                      8.3391244805e+01 stress_170
                      2.0596254862e+02 stress_171
                      2.9174785212e+02 stress_172
                      3.4839772336e+02 stress_173
                      3.8592317363e+02 stress_174
                      4.1196965582e+02 stress_175
                      4.3135076888e+02 stress_176
                      4.4688358210e+02 stress_177
                      4.6017968369e+02 stress_178
                      4.7215543685e+02 stress_179
                      4.8333226605e+02 stress_180
                      4.9400417790e+02 stress_181
                      5.0433040163e+02 stress_182
                      5.1439061862e+02 stress_183
                      5.2421487110e+02 stress_184
                      5.3380321444e+02 stress_185
                      5.4313632172e+02 stress_186
                      5.5218302476e+02 stress_187
                      5.6090525866e+02 stress_188
                      5.6926039066e+02 stress_189
                      5.7720437166e+02 stress_190
                      5.8469290281e+02 stress_191
                      5.9168153960e+02 stress_192
                      5.9812941122e+02 stress_193
                      6.0399685735e+02 stress_194
                      6.0924666191e+02 stress_195
                      6.1384686954e+02 stress_196
                      6.1776737903e+02 stress_197
                      6.2098397283e+02 stress_198
                      6.2347610935e+02 stress_199
                      6.2522700159e+02 stress_200
                      6.2622601044e+02 stress_201
                      6.2627494363e+02 stress_202
                      2.6427939642e+02 stress_203
                     -7.9848625907e+01 stress_204
                      2.9078700898e+01 stress_205
                      4.6813777724e+02 stress_206
                      4.8731338701e+02 stress_207
                      4.2248596749e+02 stress_208
                      3.0537545284e+02 stress_209
                      1.4343794811e+02 stress_210
                     -3.9936578296e+01 stress_211
                     -2.0574356732e+02 stress_212
                     -3.2613593611e+02 stress_213
                     -4.0201081062e+02 stress_214
                     -4.4821424764e+02 stress_215
                     -4.7775692952e+02 stress_216
                     -4.9846935286e+02 stress_217
                     -5.1451862626e+02 stress_218
                     -5.2804547186e+02 stress_219
                     -5.4014206004e+02 stress_220
                     -5.5136073838e+02 stress_221
                     -5.6196889528e+02 stress_222
                     -5.7208033703e+02 stress_223
                     -5.8172340889e+02 stress_224
                     -5.9087941187e+02 stress_225
                     -5.9950303854e+02 stress_226
                     -6.0753514735e+02 stress_227
                     -6.1491192962e+02 stress_228
                     -6.2156661358e+02 stress_229
                     -6.2743743980e+02 stress_230
                     -6.3246699706e+02 stress_231
                     -6.3660325952e+02 stress_232
                     -6.3980534613e+02 stress_233
                     -6.4203970474e+02 stress_234
                     -6.4328199361e+02 stress_235
                     -6.3678926386e+02 stress_236
                     -2.7215874163e+02 stress_237
                      2.2921885759e+01 stress_238
                     -1.9716235628e+02 stress_239
                     -4.4717524585e+02 stress_240
                     -1.1620299252e+02 stress_241
                      6.0468815026e+01 stress_242
                     -2.7201893670e+02 stress_243
                     -3.9583378772e+02 stress_244
                     -5.0434323682e+02 stress_245
                     -3.1932580542e+02 stress_246
                      1.5247966371e+01 stress_247
                      2.7646942062e+02 stress_248
                      3.9078109688e+02 stress_249
                      4.3373286933e+02 stress_250
                      4.4612828666e+02 stress_251
                      3.4070530617e+02 stress_252
                      1.9134813772e+01 stress_253
                     -3.1469361355e+02 stress_254
                     -4.8448943822e+02 stress_255
                     -5.4592509761e+02 stress_256
                     -5.5825833038e+02 stress_257
                     -2.8096751067e+02 stress_258
                      9.8262185135e+01 stress_259
                      2.1641487633e+02 stress_260
                      1.7696923745e+00 stress_261
                     -3.6372884869e+02 stress_262
                     -5.2139951422e+02 stress_263
                     -5.4323528923e+02 stress_264
                     -5.0118973139e+02 stress_265
                     -4.0697099620e+02 stress_266
                     -2.6426730898e+02 stress_267
                     -8.6883795111e+01 stress_268
                      9.4318890389e+01 stress_269
                      2.4341150241e+02 stress_270
                      3.4569057173e+02 stress_271
                      4.0963811101e+02 stress_272
                      4.4958919008e+02 stress_273
                      4.7616154957e+02 stress_274
                      4.9552161467e+02 stress_275
                      5.1096841977e+02 stress_276
                      5.2423149770e+02 stress_277
                      5.3621159382e+02 stress_278
                      5.4737168900e+02 stress_279
                      5.5793837353e+02 stress_280
                      5.6800740291e+02 stress_281
                      5.7760080471e+02 stress_282
                      5.8669838370e+02 stress_283
                      5.9525712634e+02 stress_284
                      6.0322080126e+02 stress_285
                      6.1052891787e+02 stress_286
                      6.1712004511e+02 stress_287
                      6.2293438613e+02 stress_288
                      6.2791847102e+02 stress_289
                      6.3202449967e+02 stress_290
                      6.3521186341e+02 stress_291
                      6.3744981892e+02 stress_292
                      6.3871549190e+02 stress_293
                      6.3873418027e+02 stress_294
                      2.6486391633e+02 stress_295
                     -7.1504375928e+01 stress_296
                      5.9119876268e+01 stress_297
                      4.8359045592e+02 stress_298
                      4.9847289951e+02 stress_299
                      4.5495307731e+02 stress_300
                      3.7660094192e+02 stress_301
                      2.6522112281e+02 stress_302
                      1.2715530996e+02 stress_303
                     -2.3088700018e+01 stress_304
                     -1.6384723473e+02 stress_305
                     -2.7715690145e+02 stress_306
                     -3.5818118622e+02 stress_307
                     -4.1267429992e+02 stress_308
                     -4.4918018968e+02 stress_309
                     -4.7459132494e+02 stress_310
                     -4.9343167170e+02 stress_311
                     -5.0843197825e+02 stress_312
                     -5.2119064528e+02 stress_313
                     -5.3264041527e+02 stress_314
                     -5.4332562053e+02 stress_315
                     -5.5356321116e+02 stress_316
                     -5.6353569031e+02 stress_317
                     -5.7334344011e+02 stress_318
                     -5.8303621044e+02 stress_319
                     -5.9263207155e+02 stress_320
                     -6.0212807969e+02 stress_321
                     -6.1150839851e+02 stress_322
                     -6.2074794349e+02 stress_323
                     -6.2981631780e+02 stress_324
                     -6.3867996464e+02 stress_325
                     -6.4730226184e+02 stress_326
                     -6.5564682876e+02 stress_327
                     -6.6367541960e+02 stress_328
                     -6.7135200858e+02 stress_329
                     -6.7864068878e+02 stress_330
                     -6.8550631952e+02 stress_331
                     -6.9191649150e+02 stress_332
                     -6.9783962608e+02 stress_333
                     -7.0324714875e+02 stress_334
                     -7.0811311122e+02 stress_335
                     -7.1241210978e+02 stress_336
                     -7.1612426885e+02 stress_337
                     -7.1923061818e+02 stress_338
                     -7.2171561719e+02 stress_339
                     -7.2356742917e+02 stress_340
                     -7.2477660599e+02 stress_341
                     -7.2533691300e+02 stress_342


Active response data for evaluation 122:
Active set vector = { 1 1 1 1 1 1 1 1 1 1 1 1 1 1 1 1 1 1 1 1 1 1 1 1 1 1 1 1 1 1 1 1 1 1 1 1 1 1 1 1 1 1 1 1 1 1 1 1 1 1 1 1 1 1 1 1 1 1 1 1 1 1 1 1 1 1 1 1 1 1 1 1 1 1 1 1 1 1 1 1 1 1 1 1 1 1 1 1 1 1 1 1 1 1 1 1 1 1 1 1 1 1 1 1 1 1 1 1 1 1 1 1 1 1 1 1 1 1 1 1 1 1 1 1 1 1 1 1 1 1 1 1 1 1 1 1 1 1 1 1 1 1 1 1 1 1 1 1 1 1 1 1 1 1 1 1 1 1 1 1 1 1 1 1 1 1 1 1 1 1 1 1 1 1 1 1 1 1 1 1 1 1 1 1 1 1 1 1 1 1 1 1 1 1 1 1 1 1 1 1 1 1 1 1 1 1 1 1 1 1 1 1 1 1 1 1 1 1 1 1 1 1 1 1 1 1 1 1 1 1 1 1 1 1 1 1 1 1 1 1 1 1 1 1 1 1 1 1 1 1 1 1 1 1 1 1 1 1 1 1 1 1 1 1 1 1 1 1 1 1 1 1 1 1 1 1 1 1 1 1 1 1 1 1 1 1 1 1 1 1 1 1 1 1 1 1 1 1 1 1 1 1 1 1 1 1 1 1 1 1 1 1 1 1 1 1 1 1 1 1 1 1 1 1 1 1 1 1 1 1 1 1 1 1 1 1 1 1 1 1 1 1 }
                      2.4220157847e+00 stress_1
                     -2.5171567797e+02 stress_2
                     -4.9424780655e+02 stress_3
                     -4.9576755565e+02 stress_4
                     -1.6684440494e+02 stress_5
                      2.5284081930e+02 stress_6
                      4.0080989193e+02 stress_7
                      4.0167913812e+02 stress_8
                      1.5202773270e+02 stress_9
                     -2.3145267432e+02 stress_10
                     -4.3959168024e+02 stress_11
                     -4.8901596973e+02 stress_12
                     -5.0300541597e+02 stress_13
                     -5.0400392135e+02 stress_14
                     -1.7334878311e+02 stress_15
                     -3.4131265953e+02 stress_16
                     -5.0978474664e+02 stress_17
                     -3.1500175150e+02 stress_18
                      2.1060331669e+01 stress_19
                      2.9755282662e+02 stress_20
                      4.1769332846e+02 stress_21
                      4.6289330160e+02 stress_22
                      4.8159744328e+02 stress_23
                      4.8776920352e+02 stress_24
                      1.5719455645e+02 stress_25
                      2.8530708150e+02 stress_26
                      4.2917186716e+02 stress_27
                      4.6493908113e+02 stress_28
                      3.4207278414e+02 stress_29
                      1.2856563311e+02 stress_30
                     -1.2462131514e+02 stress_31
                     -3.1974060560e+02 stress_32
                     -4.2361577203e+02 stress_33
                     -4.7365942553e+02 stress_34
                     -5.0080787846e+02 stress_35
                     -5.1841841716e+02 stress_36
                     -5.3149506103e+02 stress_37
                     -5.4185875261e+02 stress_38
                     -5.5012777812e+02 stress_39
                     -5.5645353748e+02 stress_40
                     -5.6082540466e+02 stress_41
                     -5.6318608039e+02 stress_42
                     -5.4771927539e+02 stress_43
                     -1.6092518970e+02 stress_44
                      1.0547302391e+02 stress_45
                     -1.0073206993e+02 stress_46
                     -4.5361132966e+02 stress_47
                     -1.5731779657e+02 stress_48
                     -2.6025392134e+02 stress_49
                     -4.2003215528e+02 stress_50
                     -5.6861659555e+02 stress_51
                     -3.9866178460e+02 stress_52
                     -6.1534745518e+01 stress_53
                      2.2524417399e+02 stress_54
                      3.5704244064e+02 stress_55
                      4.0681477233e+02 stress_56
                      4.2196474041e+02 stress_57
                      3.3559650849e+02 stress_58
                      2.0969765833e+01 stress_59
                     -3.1561323412e+02 stress_60
                     -4.7075953663e+02 stress_61
                     -5.2075703819e+02 stress_62
                     -5.3181176040e+02 stress_63
                     -2.6342712280e+02 stress_64
                      1.1290816249e+02 stress_65
                      1.9963709466e+02 stress_66
                     -7.2655981423e+01 stress_67
                     -4.4059982653e+02 stress_68
                     -5.3458985847e+02 stress_69
                     -5.3566941782e+02 stress_70
                     -4.4027415179e+02 stress_71
                     -2.6810910091e+02 stress_72
                     -4.5033808997e+01 stress_73
                      1.6598692689e+02 stress_74
                      3.1019022489e+02 stress_75
                      3.9098666551e+02 stress_76
                      4.3546845334e+02 stress_77
                      4.6250390342e+02 stress_78
                      4.8127239415e+02 stress_79
                      4.9583770987e+02 stress_80
                      5.0796074406e+02 stress_81
                      5.1838037641e+02 stress_82
                      5.2737197480e+02 stress_83
                      5.3500001256e+02 stress_84
                      5.4123292161e+02 stress_85
                      5.4600666635e+02 stress_86
                      5.4925451681e+02 stress_87
                      5.5092128665e+02 stress_88
                      4.7719431013e+02 stress_89
                      4.4082266050e+01 stress_90
                     -1.5849864517e+02 stress_91
                      1.3171883098e+02 stress_92
                      4.7813119474e+02 stress_93
                      4.8443705606e+02 stress_94
                      4.2423292235e+02 stress_95
                      3.1607590027e+02 stress_96
                      1.6551594506e+02 stress_97
                     -9.6719924571e+00 stress_98
                     -1.7640695271e+02 stress_99
                     -3.0490436088e+02 stress_100
                     -3.8955827003e+02 stress_101
                     -4.4195853426e+02 stress_102
                     -4.7514588540e+02 stress_103
                     -4.9781668373e+02 stress_104
                     -5.1484173769e+02 stress_105
                     -5.2880666340e+02 stress_106
                     -5.4106555480e+02 stress_107
                     -5.5232530798e+02 stress_108
                     -5.6294871853e+02 stress_109
                     -5.7311162385e+02 stress_110
                     -5.8288499690e+02 stress_111
                     -5.9227925612e+02 stress_112
                     -6.0127157358e+02 stress_113
                     -6.0981954614e+02 stress_114
                     -6.1786981730e+02 stress_115
                     -6.2536461243e+02 stress_116
                     -6.3224444723e+02 stress_117
                     -6.3845314488e+02 stress_118
                     -6.4393738664e+02 stress_119
                     -6.4864761524e+02 stress_120
                     -6.5254268449e+02 stress_121
                     -6.5558670483e+02 stress_122
                     -6.5775134251e+02 stress_123
                     -6.5901743746e+02 stress_124
                     -6.5935753419e+02 stress_125
                     -5.5678485737e+02 stress_126
                     -3.0605327696e+02 stress_127
                     -1.9754653630e-02 stress_128
                      2.1821876395e+02 stress_129
                      3.2736375682e+02 stress_130
                      3.7846662635e+02 stress_131
                      4.0348039942e+02 stress_132
                      4.1485309969e+02 stress_133
                      4.1548757440e+02 stress_134
                      1.0768903379e+01 stress_135
                     -1.1085528871e+01 stress_136
                      1.7391787247e+02 stress_137
                      1.3777784996e+02 stress_138
                     -3.4544300236e+01 stress_139
                     -3.2102359332e+02 stress_140
                     -5.2938819908e+02 stress_141
                     -6.1318518858e+02 stress_142
                     -6.4585754822e+02 stress_143
                     -6.6075307863e+02 stress_144
                     -6.6690736384e+02 stress_145
                     -6.4650657051e+02 stress_146
                     -4.0853171231e+02 stress_147
                     -5.8434395443e+01 stress_148
                      1.9299168733e+02 stress_149
                      3.0535092430e+02 stress_150
                      3.4705938662e+02 stress_151
                      3.5221650526e+02 stress_152
                      1.3578509162e+02 stress_153
                     -2.3202764574e+02 stress_154
                     -4.9297870781e+02 stress_155
                     -5.8966188648e+02 stress_156
                     -6.1672989626e+02 stress_157
                     -4.9401005202e+02 stress_158
                     -8.9558094900e+01 stress_159
                      9.3137442092e+01 stress_160
                     -7.3677545541e+01 stress_161
                     -4.6850969960e+02 stress_162
                     -6.2361503664e+02 stress_163
                     -6.3457664519e+02 stress_164
                     -5.9281362402e+02 stress_165
                     -5.1053061495e+02 stress_166
                     -3.8979847325e+02 stress_167
                     -2.3778731858e+02 stress_168
                     -7.1811927648e+01 stress_169
                      8.2568178482e+01 stress_170
                      2.0482355212e+02 stress_171
                      2.9058057023e+02 stress_172
                      3.4738174540e+02 stress_173
                      3.8511106063e+02 stress_174
                      4.1134663645e+02 stress_175
                      4.3088082983e+02 stress_176
                      4.4653029502e+02 stress_177
                      4.5991275839e+02 stress_178
                      4.7195147516e+02 stress_179
                      4.8317373328e+02 stress_180
                      4.9387807581e+02 stress_181
                      5.0422710880e+02 stress_182
                      5.1430299879e+02 stress_183
                      5.2413761333e+02 stress_184
                      5.3373235748e+02 stress_185
                      5.4306891116e+02 stress_186
                      5.5211686641e+02 stress_187
                      5.6083873956e+02 stress_188
                      5.6919234818e+02 stress_189
                      5.7713399652e+02 stress_190
                      5.8461966636e+02 stress_191
                      5.9160513896e+02 stress_192
                      5.9804972569e+02 stress_193
                      6.0391391522e+02 stress_194
                      6.0916061376e+02 stress_195
                      6.1375796496e+02 stress_196
                      6.1767594906e+02 stress_197
                      6.2089041281e+02 stress_198
                      6.2338086510e+02 stress_199
                      6.2513055713e+02 stress_200
                      6.2612887512e+02 stress_201
                      6.2617777436e+02 stress_202
                      2.6436519729e+02 stress_203
                     -7.8879763857e+01 stress_204
                      3.0047555635e+01 stress_205
                      4.6869202573e+02 stress_206
                      4.8777865318e+02 stress_207
                      4.2295224349e+02 stress_208
                      3.0586878140e+02 stress_209
                      1.4409321655e+02 stress_210
                     -3.8883889159e+01 stress_211
                     -2.0428195836e+02 stress_212
                     -3.2459925612e+02 stress_213
                     -4.0069669682e+02 stress_214
                     -4.4720380341e+02 stress_215
                     -4.7701028212e+02 stress_216
                     -4.9791965013e+02 stress_217
                     -5.1410764861e+02 stress_218
                     -5.2773008034e+02 stress_219
                     -5.3989197454e+02 stress_220
                     -5.5115503834e+02 stress_221
                     -5.6179312819e+02 stress_222
                     -5.7192446613e+02 stress_223
                     -5.8158042376e+02 stress_224
                     -5.9074440286e+02 stress_225
                     -5.9937257662e+02 stress_226
                     -6.0740686534e+02 stress_227
                     -6.1478423488e+02 stress_228
                     -6.2143848640e+02 stress_229
                     -6.2730828941e+02 stress_230
                     -6.3233655551e+02 stress_231
                     -6.3647150189e+02 stress_232
                     -6.3967242663e+02 stress_233
                     -6.4190590584e+02 stress_234
                     -6.4314768258e+02 stress_235
                     -6.3665495310e+02 stress_236
                     -2.7221342045e+02 stress_237
                      2.2140083418e+01 stress_238
                     -1.9783799263e+02 stress_239
                     -4.4703408161e+02 stress_240
                     -1.1625771529e+02 stress_241
                      5.9983218341e+01 stress_242
                     -2.7219304760e+02 stress_243
                     -3.9559299416e+02 stress_244
                     -5.0372261340e+02 stress_245
                     -3.1873597126e+02 stress_246
                      1.5211783317e+01 stress_247
                      2.7555567179e+02 stress_248
                      3.8982637382e+02 stress_249
                      4.3293066466e+02 stress_250
                      4.4539297439e+02 stress_251
                      3.3997333383e+02 stress_252
                      1.8701238938e+01 stress_253
                     -3.1404629835e+02 stress_254
                     -4.8340420201e+02 stress_255
                     -5.4488336418e+02 stress_256
                     -5.5724851229e+02 stress_257
                     -2.8005670819e+02 stress_258
                      9.8137141927e+01 stress_259
                      2.1582190614e+02 stress_260
                      1.2321034767e+00 stress_261
                     -3.6333216784e+02 stress_262
                     -5.2054825835e+02 stress_263
                     -5.4237537338e+02 stress_264
                     -5.0033003346e+02 stress_265
                     -4.0612181728e+02 stress_266
                     -2.6351124439e+02 stress_267
                     -8.6468690424e+01 stress_268
                      9.4115708842e+01 stress_269
                      2.4265674334e+02 stress_270
                      3.4473883246e+02 stress_271
                      4.0876245331e+02 stress_272
                      4.4888334451e+02 stress_273
                      4.7562139492e+02 stress_274
                      4.9511360154e+02 stress_275
                      5.1065789640e+02 stress_276
                      5.2399046660e+02 stress_277
                      5.3601920640e+02 stress_278
                      5.4721288351e+02 stress_279
                      5.5780237700e+02 stress_280
                      5.6788652655e+02 stress_281
                      5.7748956442e+02 stress_282
                      5.8659287938e+02 stress_283
                      5.9515460879e+02 stress_284
                      6.0311936778e+02 stress_285
                      6.1042729727e+02 stress_286
                      6.1701744249e+02 stress_287
                      6.2283036933e+02 stress_288
                      6.2781288468e+02 stress_289
                      6.3191739905e+02 stress_290
                      6.3510346160e+02 stress_291
                      6.3734044230e+02 stress_292
                      6.3860554268e+02 stress_293
                      6.3862422249e+02 stress_294
                      2.6495093111e+02 stress_295
                     -7.0546345688e+01 stress_296
                      6.0077846903e+01 stress_297
                      4.8404428885e+02 stress_298
                      4.9885355219e+02 stress_299
                      4.5533399308e+02 stress_300
                      3.7698933168e+02 stress_301
                      2.6566121513e+02 stress_302
                      1.2776967825e+02 stress_303
                     -2.2135524040e+01 stress_304
                     -1.6251940301e+02 stress_305
                     -2.7564011392e+02 stress_306
                     -3.5672708424e+02 stress_307
                     -4.1143280685e+02 stress_308
                     -4.4818565295e+02 stress_309
                     -4.7381721693e+02 stress_310
                     -4.9283368997e+02 stress_311
                     -5.0796766891e+02 stress_312
                     -5.2082530390e+02 stress_313
                     -5.3234743627e+02 stress_314
                     -5.4308512882e+02 stress_315
                     -5.5336048277e+02 stress_316
                     -5.6335981665e+02 stress_317
                     -5.7318630331e+02 stress_318
                     -5.8289173364e+02 stress_319
                     -5.9249567888e+02 stress_320
                     -6.0199630852e+02 stress_321
                     -6.1137862171e+02 stress_322
                     -6.2061816858e+02 stress_323
                     -6.2968504094e+02 stress_324
                     -6.3854606321e+02 stress_325
                     -6.4716491507e+02 stress_326
                     -6.5550545755e+02 stress_327
                     -6.6352964190e+02 stress_328
                     -6.7120160351e+02 stress_329
                     -6.7848556973e+02 stress_330
                     -6.8534651286e+02 stress_331
                     -6.9175211843e+02 stress_332
                     -6.9767088905e+02 stress_333
                     -7.0307431887e+02 stress_334
                     -7.0793651781e+02 stress_335
                     -7.1223213302e+02 stress_336
                     -7.1594132972e+02 stress_337
                     -7.1904517279e+02 stress_338
                     -7.2152814984e+02 stress_339
                     -7.2337844562e+02 stress_340
                     -7.2458662819e+02 stress_341
                     -7.2514647338e+02 stress_342


Active response data for evaluation 123:
Active set vector = { 1 1 1 1 1 1 1 1 1 1 1 1 1 1 1 1 1 1 1 1 1 1 1 1 1 1 1 1 1 1 1 1 1 1 1 1 1 1 1 1 1 1 1 1 1 1 1 1 1 1 1 1 1 1 1 1 1 1 1 1 1 1 1 1 1 1 1 1 1 1 1 1 1 1 1 1 1 1 1 1 1 1 1 1 1 1 1 1 1 1 1 1 1 1 1 1 1 1 1 1 1 1 1 1 1 1 1 1 1 1 1 1 1 1 1 1 1 1 1 1 1 1 1 1 1 1 1 1 1 1 1 1 1 1 1 1 1 1 1 1 1 1 1 1 1 1 1 1 1 1 1 1 1 1 1 1 1 1 1 1 1 1 1 1 1 1 1 1 1 1 1 1 1 1 1 1 1 1 1 1 1 1 1 1 1 1 1 1 1 1 1 1 1 1 1 1 1 1 1 1 1 1 1 1 1 1 1 1 1 1 1 1 1 1 1 1 1 1 1 1 1 1 1 1 1 1 1 1 1 1 1 1 1 1 1 1 1 1 1 1 1 1 1 1 1 1 1 1 1 1 1 1 1 1 1 1 1 1 1 1 1 1 1 1 1 1 1 1 1 1 1 1 1 1 1 1 1 1 1 1 1 1 1 1 1 1 1 1 1 1 1 1 1 1 1 1 1 1 1 1 1 1 1 1 1 1 1 1 1 1 1 1 1 1 1 1 1 1 1 1 1 1 1 1 1 1 1 1 1 1 1 1 1 1 1 1 1 1 1 1 1 1 }
                      2.4220157847e+00 stress_1
                     -2.5171568168e+02 stress_2
                     -4.9424813923e+02 stress_3
                     -4.9576763953e+02 stress_4
                     -1.6682230352e+02 stress_5
                      2.5333333790e+02 stress_6
                      4.0140103138e+02 stress_7
                      4.0226919825e+02 stress_8
                      1.5260693700e+02 stress_9
                     -2.3137915867e+02 stress_10
                     -4.3997003550e+02 stress_11
                     -4.8924617660e+02 stress_12
                     -5.0315632464e+02 stress_13
                     -5.0414913243e+02 stress_14
                     -1.7339216349e+02 stress_15
                     -3.4135604317e+02 stress_16
                     -5.0982124402e+02 stress_17
                     -3.1502167734e+02 stress_18
                      2.1458403861e+01 stress_19
                      2.9858783920e+02 stress_20
                      4.1858259465e+02 stress_21
                      4.6351977786e+02 stress_22
                      4.8207895301e+02 stress_23
                      4.8820106022e+02 stress_24
                      1.5750134018e+02 stress_25
                      2.8561386721e+02 stress_26
                      4.2949074588e+02 stress_27
                      4.6527006610e+02 stress_28
                      3.4239914622e+02 stress_29
                      1.2875903628e+02 stress_30
                     -1.2500590694e+02 stress_31
                     -3.2065426529e+02 stress_32
                     -4.2447720566e+02 stress_33
                     -4.7427628134e+02 stress_34
                     -5.0122719810e+02 stress_35
                     -5.1871009201e+02 stress_36
                     -5.3170762065e+02 stress_37
                     -5.4202206923e+02 stress_38
                     -5.5026015177e+02 stress_39
                     -5.5656660922e+02 stress_40
                     -5.6092704429e+02 stress_41
                     -5.6328212325e+02 stress_42
                     -5.4781531296e+02 stress_43
                     -1.6075684366e+02 stress_44
                      1.0636616111e+02 stress_45
                     -9.9839580734e+01 stress_46
                     -4.5324255275e+02 stress_47
                     -1.5682354518e+02 stress_48
                     -2.5975968932e+02 stress_49
                     -4.1956895067e+02 stress_50
                     -5.6865628403e+02 stress_51
                     -3.9868359555e+02 stress_52
                     -6.1077179433e+01 stress_53
                      2.2649680496e+02 stress_54
                      3.5827092128e+02 stress_55
                      4.0782501348e+02 stress_56
                      4.2287679618e+02 stress_57
                      3.3650764246e+02 stress_58
                      2.1671800786e+01 stress_59
                     -3.1593328524e+02 stress_60
                     -4.7143489687e+02 stress_61
                     -5.2134913977e+02 stress_62
                     -5.3236210976e+02 stress_63
                     -2.6389196965e+02 stress_64
                      1.1339065982e+02 stress_65
                      2.0041971294e+02 stress_66
                     -7.1907464160e+01 stress_67
                     -4.4069097221e+02 stress_68
                     -5.3487836524e+02 stress_69
                     -5.3595736271e+02 stress_70
                     -4.4055917364e+02 stress_71
                     -2.6831366066e+02 stress_72
                     -4.4821992077e+01 stress_73
                      1.6686643740e+02 stress_74
                      3.1134503844e+02 stress_75
                      3.9199050917e+02 stress_76
                      4.3621956736e+02 stress_77
                      4.6304611885e+02 stress_78
                      4.8166763013e+02 stress_79
                      4.9613368570e+02 stress_80
                      5.0818980654e+02 stress_81
                      5.1856385148e+02 stress_82
                      5.2752402848e+02 stress_83
                      5.3513027239e+02 stress_84
                      5.4134815723e+02 stress_85
                      5.4611184372e+02 stress_86
                      5.4935348529e+02 stress_87
                      5.5101725174e+02 stress_88
                      4.7728909758e+02 stress_89
                      4.3674963888e+01 stress_90
                     -1.5951879567e+02 stress_91
                      1.3071100223e+02 stress_92
                      4.7806379074e+02 stress_93
                      4.8440490515e+02 stress_94
                      4.2420008207e+02 stress_95
                      3.1602333202e+02 stress_96
                      1.6533479899e+02 stress_97
                     -1.0217546725e+01 stress_98
                     -1.7744390136e+02 stress_99
                     -3.0620689745e+02 stress_100
                     -3.9079687545e+02 stress_101
                     -4.4297256656e+02 stress_102
                     -4.7592301975e+02 stress_103
                     -4.9839983925e+02 stress_104
                     -5.1527979510e+02 stress_105
                     -5.2913948996e+02 stress_106
                     -5.4132248424e+02 stress_107
                     -5.5252717367e+02 stress_108
                     -5.6311019652e+02 stress_109
                     -5.7324309494e+02 stress_110
                     -5.8299387855e+02 stress_111
                     -5.9237091819e+02 stress_112
                     -6.0134995690e+02 stress_113
                     -6.0988758557e+02 stress_114
                     -6.1792973182e+02 stress_115
                     -6.2541810512e+02 stress_116
                     -6.3229284633e+02 stress_117
                     -6.3849750249e+02 stress_118
                     -6.4397855142e+02 stress_119
                     -6.4868628588e+02 stress_120
                     -6.5257944793e+02 stress_121
                     -6.5562206737e+02 stress_122
                     -6.5778575353e+02 stress_123
                     -6.5905130834e+02 stress_124
                     -6.5939126198e+02 stress_125
                     -5.5681496295e+02 stress_126
                     -3.0590912670e+02 stress_127
                      8.9256654320e-01 stress_128
                      2.1966348772e+02 stress_129
                      3.2867103647e+02 stress_130
                      3.7950232120e+02 stress_131
                      4.0432589273e+02 stress_132
                      4.1560271023e+02 stress_133
                      4.1623172805e+02 stress_134
                      1.1300181190e+01 stress_135
                     -1.0592330467e+01 stress_136
                      1.7452767126e+02 stress_137
                      1.3838755180e+02 stress_138
                     -3.3978573753e+01 stress_139
                     -3.2105155544e+02 stress_140
                     -5.3006415241e+02 stress_141
                     -6.1377518886e+02 stress_142
                     -6.4627199146e+02 stress_143
                     -6.6106698279e+02 stress_144
                     -6.6718017789e+02 stress_145
                     -6.4677936861e+02 stress_146
                     -4.0873521431e+02 stress_147
                     -5.7900864135e+01 stress_148
                      1.9428224432e+02 stress_149
                      3.0665046374e+02 stress_150
                      3.4822528377e+02 stress_151
                      3.5335893678e+02 stress_152
                      1.3690654543e+02 stress_153
                     -2.3150687878e+02 stress_154
                     -4.9342514784e+02 stress_155
                     -5.9025776308e+02 stress_156
                     -6.1728787231e+02 stress_157
                     -4.9456075976e+02 stress_158
                     -8.9491460627e+01 stress_159
                      9.3850004303e+01 stress_160
                     -7.2967942027e+01 stress_161
                     -4.6833627189e+02 stress_162
                     -6.2388703642e+02 stress_163
                     -6.3484944248e+02 stress_164
                     -5.9308622618e+02 stress_165
                     -5.1079621520e+02 stress_166
                     -3.9000864745e+02 stress_167
                     -2.3779249701e+02 stress_168
                     -7.1388694265e+01 stress_169
                      8.3504476061e+01 stress_170
                      2.0607983220e+02 stress_171
                      2.9186666610e+02 stress_172
                      3.4851508197e+02 stress_173
                      3.8603667006e+02 stress_174
                      4.1207760853e+02 stress_175
                      4.3145203658e+02 stress_176
                      4.4697737363e+02 stress_177
                      4.6026543182e+02 stress_178
                      4.7223272681e+02 stress_179
                      4.8340079570e+02 stress_180
                      4.9406373569e+02 stress_181
                      5.0438085564e+02 stress_182
                      5.1443190922e+02 stress_183
                      5.2424700751e+02 stress_184
                      5.3382627158e+02 stress_185
                      5.4315043839e+02 stress_186
                      5.5218840173e+02 stress_187
                      5.6090215635e+02 stress_188
                      5.6924912756e+02 stress_189
                      5.7718532141e+02 stress_190
                      5.8466649152e+02 stress_191
                      5.9164824387e+02 stress_192
                      5.9808975304e+02 stress_193
                      6.0395140177e+02 stress_194
                      6.0919601375e+02 stress_195
                      6.1379166756e+02 stress_196
                      6.1770829357e+02 stress_197
                      6.2092169956e+02 stress_198
                      6.2341136533e+02 stress_199
                      6.2516052125e+02 stress_200
                      6.2615853925e+02 stress_201
                      6.2620742390e+02 stress_202
                      2.6421158506e+02 stress_203
                     -7.9916772644e+01 stress_204
                      2.9010554560e+01 stress_205
                      4.6808725154e+02 stress_206
                      4.8726598319e+02 stress_207
                      4.2243856064e+02 stress_208
                      3.0532795417e+02 stress_209
                      1.4338980816e+02 stress_210
                     -3.9986647717e+01 stress_211
                     -2.0579626399e+02 stress_212
                     -3.2618956537e+02 stress_213
                     -4.0206229633e+02 stress_214
                     -4.4826095340e+02 stress_215
                     -4.7779710629e+02 stress_216
                     -4.9850189877e+02 stress_217
                     -5.1454283138e+02 stress_218
                     -5.2806087223e+02 stress_219
                     -5.4014836659e+02 stress_220
                     -5.5135780257e+02 stress_221
                     -5.6195669304e+02 stress_222
                     -5.7205895977e+02 stress_223
                     -5.8169305820e+02 stress_224
                     -5.9084039430e+02 stress_225
                     -5.9945576110e+02 stress_226
                     -6.0748011227e+02 stress_227
                     -6.1484972717e+02 stress_228
                     -6.2149791721e+02 stress_229
                     -6.2736299614e+02 stress_230
                     -6.3238761812e+02 stress_231
                     -6.3651981488e+02 stress_232
                     -6.3971875015e+02 stress_233
                     -6.4195090798e+02 stress_234
                     -6.4319197262e+02 stress_235
                     -6.3669924287e+02 stress_236
                     -2.7206829109e+02 stress_237
                      2.3013294300e+01 stress_238
                     -1.9707183357e+02 stress_239
                     -4.4708982165e+02 stress_240
                     -1.1611702260e+02 stress_241
                      6.0555836463e+01 stress_242
                     -2.7193426371e+02 stress_243
                     -3.9575136212e+02 stress_244
                     -5.0426058885e+02 stress_245
                     -3.1924306260e+02 stress_246
                      1.5332642478e+01 stress_247
                      2.7655548311e+02 stress_248
                      3.9086290644e+02 stress_249
                      4.3380954680e+02 stress_250
                      4.4620264270e+02 stress_251
                      3.4077963956e+02 stress_252
                      1.9207312439e+01 stress_253
                     -3.1462554432e+02 stress_254
                     -4.8441760739e+02 stress_255
                     -5.4584720653e+02 stress_256
                     -5.5817855505e+02 stress_257
                     -2.8088744744e+02 stress_258
                      9.8344795884e+01 stress_259
                      2.1649784585e+02 stress_260
                      1.8522351983e+00 stress_261
                     -3.6365140628e+02 stress_262
                     -5.2131916056e+02 stress_263
                     -5.4315315161e+02 stress_264
                     -5.0110759313e+02 stress_265
                     -4.0688882639e+02 stress_266
                     -2.6418485771e+02 stress_267
                     -8.6800325775e+01 stress_268
                      9.4404013968e+01 stress_269
                      2.4349721419e+02 stress_270
                      3.4577415380e+02 stress_271
                      4.0971691043e+02 stress_272
                      4.4966141764e+02 stress_273
                      4.7622611383e+02 stress_274
                      4.9557782839e+02 stress_275
                      5.1101582825e+02 stress_276
                      5.2426979938e+02 stress_277
                      5.3624060855e+02 stress_278
                      5.4739134536e+02 stress_279
                      5.5794870384e+02 stress_280
                      5.6800854071e+02 stress_281
                      5.7759298259e+02 stress_282
                      5.8668193094e+02 stress_283
                      5.9523246485e+02 stress_284
                      6.0318844200e+02 stress_285
                      6.1048945455e+02 stress_286
                      6.1707414815e+02 stress_287
                      6.2288279638e+02 stress_288
                      6.2786199032e+02 stress_289
                      6.3196398296e+02 stress_290
                      6.3514820994e+02 stress_291
                      6.3738396122e+02 stress_292
                      6.3864838697e+02 stress_293
                      6.3866705692e+02 stress_294
                      2.6479647957e+02 stress_295
                     -7.1572168628e+01 stress_296
                      5.9052087066e+01 stress_297
                      4.8354472007e+02 stress_298
                      4.9842964328e+02 stress_299
                      4.5490982027e+02 stress_300
                      3.7655765924e+02 stress_301
                      2.6517763870e+02 stress_302
                      1.2711103223e+02 stress_303
                     -2.3134859376e+01 stress_304
                     -1.6389611273e+02 stress_305
                     -2.7720794647e+02 stress_306
                     -3.5823247837e+02 stress_307
                     -4.1272358098e+02 stress_308
                     -4.4922558536e+02 stress_309
                     -4.7463147345e+02 stress_310
                     -4.9346560562e+02 stress_311
                     -5.0845898948e+02 stress_312
                     -5.2121019378e+02 stress_313
                     -5.3265207402e+02 stress_314
                     -5.4332904541e+02 stress_315
                     -5.5355812490e+02 stress_316
                     -5.6352187334e+02 stress_317
                     -5.7332072606e+02 stress_318
                     -5.8300448357e+02 stress_319
                     -5.9259126500e+02 stress_320
                     -6.0207817502e+02 stress_321
                     -6.1144942461e+02 stress_322
                     -6.2067997646e+02 stress_323
                     -6.2973947994e+02 stress_324
                     -6.3859442325e+02 stress_325
                     -6.4720822923e+02 stress_326
                     -6.5554455984e+02 stress_327
                     -6.6356521221e+02 stress_328
                     -6.7123420012e+02 stress_329
                     -6.7851565525e+02 stress_330
                     -6.8537447415e+02 stress_331
                     -6.9177828155e+02 stress_332
                     -6.9769553166e+02 stress_333
                     -7.0309767952e+02 stress_334
                     -7.0795880357e+02 stress_335
                     -7.1225352610e+02 stress_336
                     -7.1596199190e+02 stress_337
                     -7.1906525007e+02 stress_338
                     -7.2154777584e+02 stress_339
                     -7.2339774456e+02 stress_340
                     -7.2460571770e+02 stress_341
                     -7.2516546692e+02 stress_342


Active response data for evaluation 124:
Active set vector = { 1 1 1 1 1 1 1 1 1 1 1 1 1 1 1 1 1 1 1 1 1 1 1 1 1 1 1 1 1 1 1 1 1 1 1 1 1 1 1 1 1 1 1 1 1 1 1 1 1 1 1 1 1 1 1 1 1 1 1 1 1 1 1 1 1 1 1 1 1 1 1 1 1 1 1 1 1 1 1 1 1 1 1 1 1 1 1 1 1 1 1 1 1 1 1 1 1 1 1 1 1 1 1 1 1 1 1 1 1 1 1 1 1 1 1 1 1 1 1 1 1 1 1 1 1 1 1 1 1 1 1 1 1 1 1 1 1 1 1 1 1 1 1 1 1 1 1 1 1 1 1 1 1 1 1 1 1 1 1 1 1 1 1 1 1 1 1 1 1 1 1 1 1 1 1 1 1 1 1 1 1 1 1 1 1 1 1 1 1 1 1 1 1 1 1 1 1 1 1 1 1 1 1 1 1 1 1 1 1 1 1 1 1 1 1 1 1 1 1 1 1 1 1 1 1 1 1 1 1 1 1 1 1 1 1 1 1 1 1 1 1 1 1 1 1 1 1 1 1 1 1 1 1 1 1 1 1 1 1 1 1 1 1 1 1 1 1 1 1 1 1 1 1 1 1 1 1 1 1 1 1 1 1 1 1 1 1 1 1 1 1 1 1 1 1 1 1 1 1 1 1 1 1 1 1 1 1 1 1 1 1 1 1 1 1 1 1 1 1 1 1 1 1 1 1 1 1 1 1 1 1 1 1 1 1 1 1 1 1 1 1 1 }
                      2.4220157847e+00 stress_1
                     -2.5171567873e+02 stress_2
                     -4.9425727670e+02 stress_3
                     -4.9577701084e+02 stress_4
                     -1.6683326392e+02 stress_5
                      2.5328993299e+02 stress_6
                      4.0135368443e+02 stress_7
                      4.0222195788e+02 stress_8
                      1.5256049998e+02 stress_9
                     -2.3138874394e+02 stress_10
                     -4.3995023430e+02 stress_11
                     -4.8923960908e+02 stress_12
                     -5.0315624290e+02 stress_13
                     -5.0414951070e+02 stress_14
                     -1.7339483828e+02 stress_15
                     -3.4135871676e+02 stress_16
                     -5.0982566265e+02 stress_17
                     -3.1502646034e+02 stress_18
                      2.1444564832e+01 stress_19
                      2.9856133085e+02 stress_20
                      4.1856099814e+02 stress_21
                      4.6350483685e+02 stress_22
                      4.8206755762e+02 stress_23
                      4.8819086607e+02 stress_24
                      1.5749303258e+02 stress_25
                      2.8560555945e+02 stress_26
                      4.2948113058e+02 stress_27
                      4.6525779614e+02 stress_28
                      3.4238695019e+02 stress_29
                      1.2874889515e+02 stress_30
                     -1.2500786352e+02 stress_31
                     -3.2065108234e+02 stress_32
                     -4.2447842509e+02 stress_33
                     -4.7428360844e+02 stress_34
                     -5.0123882432e+02 stress_35
                     -5.1872434879e+02 stress_36
                     -5.3172346098e+02 stress_37
                     -5.4203887771e+02 stress_38
                     -5.5027756155e+02 stress_39
                     -5.5658439117e+02 stress_40
                     -5.6094504555e+02 stress_41
                     -5.6330023157e+02 stress_42
                     -5.4783342131e+02 stress_43
                     -1.6077611601e+02 stress_44
                      1.0634532432e+02 stress_45
                     -9.9860390393e+01 stress_46
                     -4.5324880760e+02 stress_47
                     -1.5683059218e+02 stress_48
                     -2.5976673570e+02 stress_49
                     -4.1957540992e+02 stress_50
                     -5.6867749444e+02 stress_51
                     -3.9870489613e+02 stress_52
                     -6.1100122677e+01 stress_53
                      2.2647513734e+02 stress_54
                      3.5825532498e+02 stress_55
                      4.0781352521e+02 stress_56
                      4.2286677144e+02 stress_57
                      3.3649763623e+02 stress_58
                      2.1665404836e+01 stress_59
                     -3.1592884544e+02 stress_60
                     -4.7143789432e+02 stress_61
                     -5.2136061166e+02 stress_62
                     -5.3237601133e+02 stress_63
                     -2.6390632174e+02 stress_64
                      1.1337313286e+02 stress_65
                      2.0040218103e+02 stress_66
                     -7.1923426582e+01 stress_67
                     -4.4068249877e+02 stress_68
                     -5.3488032451e+02 stress_69
                     -5.3595965493e+02 stress_70
                     -4.4056148419e+02 stress_71
                     -2.6831646832e+02 stress_72
                     -4.4827280995e+01 stress_73
                      1.6685754989e+02 stress_74
                      3.1133542925e+02 stress_75
                      3.9198273974e+02 stress_76
                      4.3621395889e+02 stress_77
                      4.6304215475e+02 stress_78
                      4.8166478023e+02 stress_79
                      4.9613157209e+02 stress_80
                      5.0818818231e+02 stress_81
                      5.1856255741e+02 stress_82
                      5.2752296036e+02 stress_83
                      5.3512936018e+02 stress_84
                      5.4134735208e+02 stress_85
                      5.4611111005e+02 stress_86
                      5.4935279566e+02 stress_87
                      5.5101658339e+02 stress_88
                      4.7728843267e+02 stress_89
                      4.3673937249e+01 stress_90
                     -1.5952374829e+02 stress_91
                      1.3070543546e+02 stress_92
                      4.7802922970e+02 stress_93
                      4.8437016495e+02 stress_94
                      4.2416534507e+02 stress_95
                      3.1598868432e+02 stress_96
                      1.6530070462e+02 stress_97
                     -1.0250222269e+01 stress_98
                     -1.7747510861e+02 stress_99
                     -3.0623818660e+02 stress_100
                     -3.9082980324e+02 stress_101
                     -4.4300756933e+02 stress_102
                     -4.7595981487e+02 stress_103
                     -4.9843797720e+02 stress_104
                     -5.1531888763e+02 stress_105
                     -5.2917925214e+02 stress_106
                     -5.4136271816e+02 stress_107
                     -5.5256774386e+02 stress_108
                     -5.6315101001e+02 stress_109
                     -5.7328408724e+02 stress_110
                     -5.8303500426e+02 stress_111
                     -5.9241214486e+02 stress_112
                     -6.0139126093e+02 stress_113
                     -6.0992894957e+02 stress_114
                     -6.1797114271e+02 stress_115
                     -6.2545955293e+02 stress_116
                     -6.3233432334e+02 stress_117
                     -6.3853900260e+02 stress_118
                     -6.4402006973e+02 stress_119
                     -6.4872781839e+02 stress_120
                     -6.5262099129e+02 stress_121
                     -6.5566361869e+02 stress_122
                     -6.5782731024e+02 stress_123
                     -6.5909286811e+02 stress_124
                     -6.5943282256e+02 stress_125
                     -5.5685652609e+02 stress_126
                     -3.0595049386e+02 stress_127
                      8.5510201348e-01 stress_128
                      2.1963672789e+02 stress_129
                      3.2865416352e+02 stress_130
                      3.7949118421e+02 stress_131
                      4.0431763716e+02 stress_132
                      4.1559571642e+02 stress_133
                      4.1622480291e+02 stress_134
                      1.1294950008e+01 stress_135
                     -1.0597329751e+01 stress_136
                      1.7452237752e+02 stress_137
                      1.3838225916e+02 stress_138
                     -3.3983513948e+01 stress_139
                     -3.2105611282e+02 stress_140
                     -5.3008433882e+02 stress_141
                     -6.1381386478e+02 stress_142
                     -6.4632013231e+02 stress_143
                     -6.6111922816e+02 stress_144
                     -6.6723393600e+02 stress_145
                     -6.4683312674e+02 stress_146
                     -4.0878888480e+02 stress_147
                     -5.7950453915e+01 stress_148
                      1.9424659083e+02 stress_149
                      3.0662687488e+02 stress_150
                      3.4820725379e+02 stress_151
                      3.5334162710e+02 stress_152
                      1.3688964690e+02 stress_153
                     -2.3151563393e+02 stress_154
                     -4.9343518139e+02 stress_155
                     -5.9028187586e+02 stress_156
                     -6.1731867891e+02 stress_157
                     -4.9459157419e+02 stress_158
                     -8.9521404903e+01 stress_159
                      9.3823397744e+01 stress_160
                     -7.2994409958e+01 stress_161
                     -4.6834694725e+02 stress_162
                     -6.2390848271e+02 stress_163
                     -6.3487472274e+02 stress_164
                     -5.9311150679e+02 stress_165
                     -5.1082150535e+02 stress_166
                     -3.9003398084e+02 stress_167
                     -2.3781781287e+02 stress_168
                     -7.1413362745e+01 stress_169
                      8.3482008785e+01 stress_170
                      2.0606121611e+02 stress_171
                      2.9185245374e+02 stress_172
                      3.4850473845e+02 stress_173
                      3.8602926913e+02 stress_174
                      4.1207229979e+02 stress_175
                      4.3144817959e+02 stress_176
                      4.4697452213e+02 stress_177
                      4.6026328321e+02 stress_178
                      4.7223107661e+02 stress_179
                      4.8339950465e+02 stress_180
                      4.9406270778e+02 stress_181
                      5.0438002358e+02 stress_182
                      5.1443122517e+02 stress_183
                      5.2424643688e+02 stress_184
                      5.3382578898e+02 stress_185
                      5.4315002494e+02 stress_186
                      5.5218804314e+02 stress_187
                      5.6090184171e+02 stress_188
                      5.6924884839e+02 stress_189
                      5.7718507107e+02 stress_190
                      5.8466626475e+02 stress_191
                      5.9164803641e+02 stress_192
                      5.9808956143e+02 stress_193
                      6.0395122317e+02 stress_194
                      6.0919584577e+02 stress_195
                      6.1379150818e+02 stress_196
                      6.1770814105e+02 stress_197
                      6.2092155236e+02 stress_198
                      6.2341122208e+02 stress_199
                      6.2516038069e+02 stress_200
                      6.2615840019e+02 stress_201
                      6.2620728491e+02 stress_202
                      2.6421066097e+02 stress_203
                     -7.9928070351e+01 stress_204
                      2.8999256523e+01 stress_205
                      4.6806253974e+02 stress_206
                      4.8723906256e+02 stress_207
                      4.2241164006e+02 stress_208
                      3.0530100141e+02 stress_209
                      1.4336234467e+02 stress_210
                     -4.0016849504e+01 stress_211
                     -2.0583334704e+02 stress_212
                     -3.2623606907e+02 stress_213
                     -4.0211724090e+02 stress_214
                     -4.4832188430e+02 stress_215
                     -4.7786188278e+02 stress_216
                     -4.9856908245e+02 stress_217
                     -5.1461153388e+02 stress_218
                     -5.2813055403e+02 stress_219
                     -5.4021869649e+02 stress_220
                     -5.5142857288e+02 stress_221
                     -5.6202777019e+02 stress_222
                     -5.7213025563e+02 stress_223
                     -5.8176451315e+02 stress_224
                     -5.9091196702e+02 stress_225
                     -5.9952742233e+02 stress_226
                     -6.0755184081e+02 stress_227
                     -6.1492150735e+02 stress_228
                     -6.2156973718e+02 stress_229
                     -6.2743484674e+02 stress_230
                     -6.3245949212e+02 stress_231
                     -6.3659170640e+02 stress_232
                     -6.3979065427e+02 stress_233
                     -6.4202282044e+02 stress_234
                     -6.4326388955e+02 stress_235
                     -6.3677115980e+02 stress_236
                     -2.7213952295e+02 stress_237
                      2.2949150715e+01 stress_238
                     -1.9713519038e+02 stress_239
                     -4.4714926255e+02 stress_240
                     -1.1617567934e+02 stress_241
                      6.0501021359e+01 stress_242
                     -2.7198732285e+02 stress_243
                     -3.9580335422e+02 stress_244
                     -5.0431416476e+02 stress_245
                     -3.1929660541e+02 stress_246
                      1.5282448713e+01 stress_247
                      2.7652053169e+02 stress_248
                      3.9084194323e+02 stress_249
                      4.3379513909e+02 stress_250
                      4.4619018755e+02 stress_251
                      3.4076719737e+02 stress_252
                      1.9194983713e+01 stress_253
                     -3.1464567368e+02 stress_254
                     -4.8445386405e+02 stress_255
                     -5.4589308837e+02 stress_256
                     -5.5822664342e+02 stress_257
                     -2.8093543262e+02 stress_258
                      9.8302553858e+01 stress_259
                      2.1646177522e+02 stress_260
                      1.8164262745e+00 stress_261
                     -3.6368825610e+02 stress_262
                     -5.2136570274e+02 stress_263
                     -5.4320219620e+02 stress_264
                     -5.0115663791e+02 stress_265
                     -4.0693786993e+02 stress_266
                     -2.6423376378e+02 stress_267
                     -8.6848010906e+01 stress_268
                      9.4360838054e+01 stress_269
                      2.4346261701e+02 stress_270
                      3.4574935552e+02 stress_271
                      4.0970016930e+02 stress_272
                      4.4965026708e+02 stress_273
                      4.7621859029e+02 stress_274
                      4.9557262570e+02 stress_275
                      5.1101212647e+02 stress_276
                      5.2426708866e+02 stress_277
                      5.3623856806e+02 stress_278
                      5.4738976916e+02 stress_279
                      5.5794745661e+02 stress_280
                      5.6800753144e+02 stress_281
                      5.7759214867e+02 stress_282
                      5.8668122830e+02 stress_283
                      5.9523186183e+02 stress_284
                      6.0318791541e+02 stress_285
                      6.1048898702e+02 stress_286
                      6.1707372644e+02 stress_287
                      6.2288241015e+02 stress_288
                      6.2786163134e+02 stress_289
                      6.3196364448e+02 stress_290
                      6.3514788629e+02 stress_291
                      6.3738364745e+02 stress_292
                      6.3864807861e+02 stress_293
                      6.3866674864e+02 stress_294
                      2.6479532675e+02 stress_295
                     -7.1583328220e+01 stress_296
                      5.9040924499e+01 stress_297
                      4.8351630999e+02 stress_298
                      4.9839946145e+02 stress_299
                      4.5487963856e+02 stress_300
                      3.7652747515e+02 stress_301
                      2.6514738094e+02 stress_302
                      1.2708023357e+02 stress_303
                     -2.3167693933e+01 stress_304
                     -1.6393354814e+02 stress_305
                     -2.7725214442e+02 stress_306
                     -3.5828378727e+02 stress_307
                     -4.1278086615e+02 stress_308
                     -4.4928729508e+02 stress_309
                     -4.7469626723e+02 stress_310
                     -4.9353250449e+02 stress_311
                     -5.0852732541e+02 stress_312
                     -5.2127952097e+02 stress_313
                     -5.3272209547e+02 stress_314
                     -5.4339956146e+02 stress_315
                     -5.5362899940e+02 stress_316
                     -5.6359301199e+02 stress_317
                     -5.7339206246e+02 stress_318
                     -5.8307597020e+02 stress_319
                     -5.9266286733e+02 stress_320
                     -6.0214986759e+02 stress_321
                     -6.1152118838e+02 stress_322
                     -6.2075179699e+02 stress_323
                     -6.2981134618e+02 stress_324
                     -6.3866632661e+02 stress_325
                     -6.4728016297e+02 stress_326
                     -6.5561651863e+02 stress_327
                     -6.6363719175e+02 stress_328
                     -6.7130619696e+02 stress_329
                     -6.7858766657e+02 stress_330
                     -6.8544649762e+02 stress_331
                     -6.9185031522e+02 stress_332
                     -6.9776757390e+02 stress_333
                     -7.0316972895e+02 stress_334
                     -7.0803085899e+02 stress_335
                     -7.1232558648e+02 stress_336
                     -7.1603405633e+02 stress_337
                     -7.1913731772e+02 stress_338
                     -7.2161984598e+02 stress_339
                     -7.2346981650e+02 stress_340
                     -7.2467779078e+02 stress_341
                     -7.2523754053e+02 stress_342


Active response data for evaluation 125:
Active set vector = { 1 1 1 1 1 1 1 1 1 1 1 1 1 1 1 1 1 1 1 1 1 1 1 1 1 1 1 1 1 1 1 1 1 1 1 1 1 1 1 1 1 1 1 1 1 1 1 1 1 1 1 1 1 1 1 1 1 1 1 1 1 1 1 1 1 1 1 1 1 1 1 1 1 1 1 1 1 1 1 1 1 1 1 1 1 1 1 1 1 1 1 1 1 1 1 1 1 1 1 1 1 1 1 1 1 1 1 1 1 1 1 1 1 1 1 1 1 1 1 1 1 1 1 1 1 1 1 1 1 1 1 1 1 1 1 1 1 1 1 1 1 1 1 1 1 1 1 1 1 1 1 1 1 1 1 1 1 1 1 1 1 1 1 1 1 1 1 1 1 1 1 1 1 1 1 1 1 1 1 1 1 1 1 1 1 1 1 1 1 1 1 1 1 1 1 1 1 1 1 1 1 1 1 1 1 1 1 1 1 1 1 1 1 1 1 1 1 1 1 1 1 1 1 1 1 1 1 1 1 1 1 1 1 1 1 1 1 1 1 1 1 1 1 1 1 1 1 1 1 1 1 1 1 1 1 1 1 1 1 1 1 1 1 1 1 1 1 1 1 1 1 1 1 1 1 1 1 1 1 1 1 1 1 1 1 1 1 1 1 1 1 1 1 1 1 1 1 1 1 1 1 1 1 1 1 1 1 1 1 1 1 1 1 1 1 1 1 1 1 1 1 1 1 1 1 1 1 1 1 1 1 1 1 1 1 1 1 1 1 1 1 1 }
                      2.4220157847e+00 stress_1
                     -2.5171568011e+02 stress_2
                     -4.9424799880e+02 stress_3
                     -4.9576760413e+02 stress_4
                     -1.6682380388e+02 stress_5
                      2.5330139714e+02 stress_6
                      4.0136722039e+02 stress_7
                      4.0223550752e+02 stress_8
                      1.5257404301e+02 stress_9
                     -2.3137565537e+02 stress_10
                     -4.3993810593e+02 stress_11
                     -4.8922770558e+02 stress_12
                     -5.0314437277e+02 stress_13
                     -5.0413764214e+02 stress_14
                     -1.7338282554e+02 stress_15
                     -3.4134670426e+02 stress_16
                     -5.0981185838e+02 stress_17
                     -3.1501264124e+02 stress_18
                      2.1459109041e+01 stress_19
                      2.9857883437e+02 stress_20
                      4.1858090795e+02 stress_21
                      4.6352573334e+02 stress_22
                      4.8208881623e+02 stress_23
                      4.8821223041e+02 stress_24
                      1.5751437408e+02 stress_25
                      2.8562690093e+02 stress_26
                      4.2950236653e+02 stress_27
                      4.6527897193e+02 stress_28
                      3.4240812550e+02 stress_29
                      1.2877004769e+02 stress_30
                     -1.2498688755e+02 stress_31
                     -3.2063049461e+02 stress_32
                     -4.2445816846e+02 stress_33
                     -4.7426352715e+02 stress_34
                     -5.0121882536e+02 stress_35
                     -5.1870438952e+02 stress_36
                     -5.3170352207e+02 stress_37
                     -5.4201894993e+02 stress_38
                     -5.5025764014e+02 stress_39
                     -5.5656447348e+02 stress_40
                     -5.6092512997e+02 stress_41
                     -5.6328031700e+02 stress_42
                     -5.4781350674e+02 stress_43
                     -1.6075545780e+02 stress_44
                      1.0637009670e+02 stress_45
                     -9.9835612975e+01 stress_46
                     -4.5321942723e+02 stress_47
                     -1.5680099590e+02 stress_48
                     -2.5973713929e+02 stress_49
                     -4.1954558123e+02 stress_50
                     -5.6864295868e+02 stress_51
                     -3.9867034893e+02 stress_52
                     -6.1064931060e+01 stress_53
                      2.2651307647e+02 stress_54
                      3.5829572402e+02 stress_55
                      4.0785502633e+02 stress_56
                      4.2290860866e+02 stress_57
                      3.3653947292e+02 stress_58
                      2.1707023735e+01 stress_59
                     -3.1588934130e+02 stress_60
                     -4.7140080736e+02 stress_61
                     -5.2132448855e+02 stress_62
                     -5.3234009922e+02 stress_63
                     -2.6387035048e+02 stress_64
                      1.1341056277e+02 stress_65
                      2.0044050379e+02 stress_66
                     -7.1885144063e+01 stress_67
                     -4.4064592572e+02 stress_68
                     -5.3484493929e+02 stress_69
                     -5.3592428389e+02 stress_70
                     -4.4052611176e+02 stress_71
                     -2.6828103432e+02 stress_72
                     -4.4791315748e+01 stress_73
                      1.6689513969e+02 stress_74
                      3.1137515680e+02 stress_75
                      3.9202406541e+02 stress_76
                      4.3625620567e+02 stress_77
                      4.6308489738e+02 stress_78
                      4.8170779357e+02 stress_79
                      4.9617473939e+02 stress_80
                      5.0823144126e+02 stress_81
                      5.1860587321e+02 stress_82
                      5.2756631263e+02 stress_83
                      5.3517273639e+02 stress_84
                      5.4139074411e+02 stress_85
                      5.4615451234e+02 stress_86
                      5.4939620416e+02 stress_87
                      5.5105999486e+02 stress_88
                      4.7733184404e+02 stress_89
                      4.3717232599e+01 stress_90
                     -1.5948073466e+02 stress_91
                      1.3074852087e+02 stress_92
                      4.7807892316e+02 stress_93
                      4.8442015785e+02 stress_94
                      4.2421533769e+02 stress_95
                      3.1603866457e+02 stress_96
                      1.6535056461e+02 stress_97
                     -1.0200894571e+01 stress_98
                     -1.7742704492e+02 stress_99
                     -3.0619185988e+02 stress_100
                     -3.9078504911e+02 stress_101
                     -4.4296392320e+02 stress_102
                     -4.7591686473e+02 stress_103
                     -4.9839544962e+02 stress_104
                     -5.1527661793e+02 stress_105
                     -5.2913714329e+02 stress_106
                     -5.4132071248e+02 stress_107
                     -5.5252580627e+02 stress_108
                     -5.6310911860e+02 stress_109
                     -5.7324222796e+02 stress_110
                     -5.8299316787e+02 stress_111
                     -5.9237032509e+02 stress_112
                     -6.0134945347e+02 stress_113
                     -6.0988715135e+02 stress_114
                     -6.1792935153e+02 stress_115
                     -6.2541776718e+02 stress_116
                     -6.3229254178e+02 stress_117
                     -6.3849722431e+02 stress_118
                     -6.4397829398e+02 stress_119
                     -6.4868604459e+02 stress_120
                     -6.5257921896e+02 stress_121
                     -6.5562184744e+02 stress_122
                     -6.5778553972e+02 stress_123
                     -6.5905109800e+02 stress_124
                     -6.5939105256e+02 stress_125
                     -5.5681474947e+02 stress_126
                     -3.0590812220e+02 stress_127
                      9.0270239199e-01 stress_128
                      2.1969477849e+02 stress_129
                      3.2872030294e+02 stress_130
                      3.7956154136e+02 stress_131
                      4.0438998069e+02 stress_132
                      4.1566889892e+02 stress_133
                      4.1629803050e+02 stress_134
                      1.1367890811e+01 stress_135
                     -1.0524452734e+01 stress_136
                      1.7459541001e+02 stress_137
                      1.3845529157e+02 stress_138
                     -3.3910539634e+01 stress_139
                     -3.2098467629e+02 stress_140
                     -5.3001729703e+02 stress_141
                     -6.1374970889e+02 stress_142
                     -6.4625709804e+02 stress_143
                     -6.6105661481e+02 stress_144
                     -6.6717146703e+02 stress_145
                     -6.4677065776e+02 stress_146
                     -4.0872633778e+02 stress_147
                     -5.7886215281e+01 stress_148
                      1.9431521946e+02 stress_149
                      3.0669879069e+02 stress_150
                      3.4828057486e+02 stress_151
                      3.5341512540e+02 stress_152
                      1.3696311805e+02 stress_153
                     -2.3144351525e+02 stress_154
                     -4.9336743910e+02 stress_155
                     -5.9021690644e+02 stress_156
                     -6.1725455603e+02 stress_157
                     -4.9452744592e+02 stress_158
                     -8.9456185331e+01 stress_159
                      9.3890749208e+01 stress_160
                     -7.2927064275e+01 stress_161
                     -4.6828123668e+02 stress_162
                     -6.2384555690e+02 stress_163
                     -6.3481202786e+02 stress_164
                     -5.9304881180e+02 stress_165
                     -5.1075880454e+02 stress_166
                     -3.8997121530e+02 stress_167
                     -2.3775470675e+02 stress_168
                     -7.1349199597e+01 stress_169
                      8.3548239278e+01 stress_170
                      2.0613012484e+02 stress_171
                      2.9192387739e+02 stress_172
                      3.4857808033e+02 stress_173
                      3.8610392167e+02 stress_174
                      4.1214780854e+02 stress_175
                      4.3152424286e+02 stress_176
                      4.4705094795e+02 stress_177
                      4.6033995037e+02 stress_178
                      4.7230790780e+02 stress_179
                      4.8347644976e+02 stress_180
                      4.9413973366e+02 stress_181
                      5.0445710788e+02 stress_182
                      5.1450835248e+02 stress_183
                      5.2432359641e+02 stress_184
                      5.3390297300e+02 stress_185
                      5.4322722783e+02 stress_186
                      5.5226526076e+02 stress_187
                      5.6097907094e+02 stress_188
                      5.6932608688e+02 stress_189
                      5.7726231699e+02 stress_190
                      5.8474351666e+02 stress_191
                      5.9172529320e+02 stress_192
                      5.9816682218e+02 stress_193
                      6.0402848714e+02 stress_194
                      6.0927311236e+02 stress_195
                      6.1386877688e+02 stress_196
                      6.1778541142e+02 stress_197
                      6.2099882402e+02 stress_198
                      6.2348849470e+02 stress_199
                      6.2523765396e+02 stress_200
                      6.2623567382e+02 stress_201
                      6.2628455856e+02 stress_202
                      2.6428784880e+02 stress_203
                     -7.9851763759e+01 stress_204
                      2.9075563186e+01 stress_205
                      4.6814337943e+02 stress_206
                      4.8732092017e+02 stress_207
                      4.2249349717e+02 stress_208
                      3.0538283746e+02 stress_209
                      1.4344398414e+02 stress_210
                     -3.9936020332e+01 stress_211
                     -2.0575424640e+02 stress_212
                     -3.2615908005e+02 stress_213
                     -4.0204199081e+02 stress_214
                     -4.4824778992e+02 stress_215
                     -4.7778849350e+02 stress_216
                     -4.9849611636e+02 stress_217
                     -5.1453882561e+02 stress_218
                     -5.2805800712e+02 stress_219
                     -5.4014625366e+02 stress_220
                     -5.5135619923e+02 stress_221
                     -5.6195544381e+02 stress_222
                     -5.7205796237e+02 stress_223
                     -5.8169224363e+02 stress_224
                     -5.9083971485e+02 stress_225
                     -5.9945518304e+02 stress_226
                     -6.0747961122e+02 stress_227
                     -6.1484928513e+02 stress_228
                     -6.2149752060e+02 stress_229
                     -6.2736263448e+02 stress_230
                     -6.3238728313e+02 stress_231
                     -6.3651949986e+02 stress_232
                     -6.3971844948e+02 stress_233
                     -6.4195061680e+02 stress_234
                     -6.4319168653e+02 stress_235
                     -6.3669895678e+02 stress_236
                     -2.7206700558e+02 stress_237
                      2.3023994266e+01 stress_238
                     -1.9706038882e+02 stress_239
                     -4.4707513646e+02 stress_240
                     -1.1610118149e+02 stress_241
                      6.0576910458e+01 stress_242
                     -2.7191165608e+02 stress_243
                     -3.9572819084e+02 stress_244
                     -5.0423987188e+02 stress_245
                     -3.1922227667e+02 stress_246
                      1.5358284839e+01 stress_247
                      2.7660152776e+02 stress_248
                      3.9092700731e+02 stress_249
                      4.3388195812e+02 stress_250
                      4.4627751009e+02 stress_251
                      3.4085451717e+02 stress_252
                      1.9281812158e+01 stress_253
                     -3.1456252559e+02 stress_254
                     -4.8437518356e+02 stress_255
                     -5.4581653630e+02 stress_256
                     -5.5815054024e+02 stress_257
                     -2.8085921700e+02 stress_258
                      9.8381246140e+01 stress_259
                      2.1654257823e+02 stress_260
                      1.8971799963e+00 stress_261
                     -3.6360946292e+02 stress_262
                     -5.2128973246e+02 stress_263
                     -5.4312674957e+02 stress_264
                     -5.0108119114e+02 stress_265
                     -4.0686241385e+02 stress_266
                     -2.6415818828e+02 stress_267
                     -8.6771790155e+01 stress_268
                      9.4438891058e+01 stress_269
                      2.4354361488e+02 stress_270
                      3.4583333917e+02 stress_271
                      4.0978639884e+02 stress_272
                      4.4973795096e+02 stress_273
                      4.7630716700e+02 stress_274
                      4.9566174838e+02 stress_275
                      5.1110158909e+02 stress_276
                      5.2435676859e+02 stress_277
                      5.3632839090e+02 stress_278
                      5.4747968862e+02 stress_279
                      5.5803744310e+02 stress_280
                      5.6809756552e+02 stress_281
                      5.7768221724e+02 stress_282
                      5.8677132233e+02 stress_283
                      5.9532197493e+02 stress_284
                      6.0327804297e+02 stress_285
                      6.1057912566e+02 stress_286
                      6.1716387359e+02 stress_287
                      6.2297256386e+02 stress_288
                      6.2795179004e+02 stress_289
                      6.3205380694e+02 stress_290
                      6.3523805144e+02 stress_291
                      6.3747381439e+02 stress_292
                      6.3873824653e+02 stress_293
                      6.3875691657e+02 stress_294
                      2.6488516821e+02 stress_295
                     -7.1496502312e+01 stress_296
                      5.9127750542e+01 stress_297
                      4.8360444415e+02 stress_298
                      4.9848779827e+02 stress_299
                      4.5496797520e+02 stress_300
                      3.7661580394e+02 stress_301
                      2.6523563261e+02 stress_302
                      1.2716810898e+02 stress_303
                     -2.3080939856e+01 stress_304
                     -1.6384896222e+02 stress_305
                     -2.7717040469e+02 stress_306
                     -3.5820479305e+02 stress_307
                     -4.1270402743e+02 stress_308
                     -4.4921196645e+02 stress_309
                     -4.7462194403e+02 stress_310
                     -4.9345884146e+02 stress_311
                     -5.0845409821e+02 stress_312
                     -5.2120658577e+02 stress_313
                     -5.3264935957e+02 stress_314
                     -5.4332696430e+02 stress_315
                     -5.5355650074e+02 stress_316
                     -5.6352058457e+02 stress_317
                     -5.7331968747e+02 stress_318
                     -5.8300363444e+02 stress_319
                     -5.9259056135e+02 stress_320
                     -6.0207758455e+02 stress_321
                     -6.1144892321e+02 stress_322
                     -6.2067954592e+02 stress_323
                     -6.2973910635e+02 stress_324
                     -6.3859409582e+02 stress_325
                     -6.4720793952e+02 stress_326
                     -6.5554430117e+02 stress_327
                     -6.6356497924e+02 stress_328
                     -6.7123398854e+02 stress_329
                     -6.7851546155e+02 stress_330
                     -6.8537429543e+02 stress_331
                     -6.9177811542e+02 stress_332
                     -6.9769537608e+02 stress_333
                     -7.0309753279e+02 stress_334
                     -7.0795866421e+02 stress_335
                     -7.1225339283e+02 stress_336
                     -7.1596186361e+02 stress_337
                     -7.1906512573e+02 stress_338
                     -7.2154765455e+02 stress_339
                     -7.2339762548e+02 stress_340
                     -7.2460560002e+02 stress_341
                     -7.2516534989e+02 stress_342

>>>>> Total response returned to iterator:

Active set vector = { 2 2 2 2 2 2 2 2 2 2 2 2 2 2 2 2 2 2 2 2 2 2 2 2 2 2 2 2 2 2 2 2 2 2 2 2 2 2 2 2 2 2 2 2 2 2 2 2 2 2 2 2 2 2 2 2 2 2 2 2 2 2 2 2 2 2 2 2 2 2 2 2 2 2 2 2 2 2 2 2 2 2 2 2 2 2 2 2 2 2 2 2 2 2 2 2 2 2 2 2 2 2 2 2 2 2 2 2 2 2 2 2 2 2 2 2 2 2 2 2 2 2 2 2 2 2 2 2 2 2 2 2 2 2 2 2 2 2 2 2 2 2 2 2 2 2 2 2 2 2 2 2 2 2 2 2 2 2 2 2 2 2 2 2 2 2 2 2 2 2 2 2 2 2 2 2 2 2 2 2 2 2 2 2 2 2 2 2 2 2 2 2 2 2 2 2 2 2 2 2 2 2 2 2 2 2 2 2 2 2 2 2 2 2 2 2 2 2 2 2 2 2 2 2 2 2 2 2 2 2 2 2 2 2 2 2 2 2 2 2 2 2 2 2 2 2 2 2 2 2 2 2 2 2 2 2 2 2 2 2 2 2 2 2 2 2 2 2 2 2 2 2 2 2 2 2 2 2 2 2 2 2 2 2 2 2 2 2 2 2 2 2 2 2 2 2 2 2 2 2 2 2 2 2 2 2 2 2 2 2 2 2 2 2 2 2 2 2 2 2 2 2 2 2 2 2 2 2 2 2 2 2 2 2 2 2 2 2 2 2 2 2 } Deriv vars vector = { 1 2 3 4 5 6 7 }
 [  0.0000000000e+00  1.1653237074e-05  0.0000000000e+00  0.0000000000e+00 
    0.0000000000e+00  0.0000000000e+00  0.0000000000e+00 ] stress_1 gradient
 [ -1.9957096745e-05 -1.2110527899e-03 -1.0874035782e-03  2.4594286602e-03 
   -2.8642594270e-02  6.8894781193e-02  0.0000000000e+00 ] stress_2 gradient
 [ -9.9810961603e-01 -7.0258794055e-05 -2.2761676753e+02  2.2094633721e-01 
   -2.5619614815e+00 -4.6318760636e+02  0.0000000000e+00 ] stress_3 gradient
 [ -1.0006233778e+00 -7.1846020025e-05 -3.0614736054e+02  5.5716402718e-02 
   -6.4582665000e-01 -4.6961828524e+02  0.0000000000e+00 ] stress_4 gradient
 [ -9.8330215782e-01  1.4705054169e-03 -3.0517685362e+02 -2.3508414455e+01 
    3.0033858214e+01 -4.6499684325e+02  5.8266026801e+00 ] stress_5 gradient
 [ -2.9388225434e-01  1.8942251784e-03 -2.2915924828e+02 -5.2285681336e+02 
    6.8541582361e+02 -2.9129961872e+02  2.2480782322e+02 ] stress_6 gradient
 [  4.6015625186e-01  8.6517397906e-04 -2.6739232777e+01 -6.2753434980e+02 
    8.2295044670e+02 -1.1173834993e+02  4.5118351773e+02 ] stress_7 gradient
 [  4.6532064487e-01  8.5743699221e-04 -2.4294751471e+01 -6.2638909501e+02 
    8.2143968668e+02 -1.1055166227e+02  4.5267910560e+02 ] stress_8 gradient
 [  4.5824334645e-01 -3.2729100854e-04 -2.4621515987e+01 -6.1487956645e+02 
    8.0609400626e+02 -1.1243878021e+02  4.5090556602e+02 ] stress_9 gradient
 [  9.4071802119e-03 -1.1345352091e-03 -6.8424272176e+01 -7.9041153044e+01 
    8.6480566916e+01 -2.4187909519e+02  3.2921303537e+02 ] stress_10 gradient
 [ -8.3944499519e-01 -1.7731766448e-04 -3.6642209307e+02  4.0020984061e+02 
   -5.4957950568e+02 -5.1537091050e+02  7.2092127660e+01 ] stress_11 gradient
 [ -9.9620039404e-01 -5.1696395868e-05 -7.7925670884e+02  2.4368257151e+02 
   -3.3155353689e+02 -5.7941909424e+02  1.1877643381e+01 ] stress_12 gradient
 [ -1.0099759934e+00 -8.6404869363e-05 -1.0691011842e+03  1.5978294355e+02 
   -2.1670238904e+02 -5.8892407795e+02  2.9416556098e+00 ] stress_13 gradient
 [ -1.0103005511e+00 -9.0403847402e-05 -1.0959681868e+03  1.5375326342e+02 
   -2.0847375479e+02 -5.8937189404e+02  2.5207344838e+00 ] stress_14 gradient
 [ -9.7836503431e-01  1.4268626929e-03 -1.0917985411e+03  3.9560220444e+01 
   -1.6343081226e+02 -5.8076304173e+02  1.5165141207e+01 ] stress_15 gradient
 [ -9.7836536727e-01  6.1872550032e-04 -1.0917985411e+03  3.9562886740e+01 
   -1.6344796133e+02 -5.8075006155e+02  1.5165939918e+01 ] stress_16 gradient
 [ -9.9069138213e-01 -1.6300876631e-04 -1.1172546386e+03  3.1449622311e+01 
   -1.6660886318e+02 -6.7651880074e+02  1.0112889629e+01 ] stress_17 gradient
 [ -9.8664951857e-01  7.6486047018e-04 -1.1167663948e+03  1.2851572120e+01 
   -1.5951224994e+02 -6.7528967789e+02  1.1688348683e+01 ] stress_18 gradient
 [ -7.9908816003e-01  1.9487735628e-03 -1.0872403120e+03 -4.5574756587e+02 
    2.7671355002e+01 -6.1517378863e+02  8.8734606173e+01 ] stress_19 gradient
 [ -6.1210892024e-02  1.5743672700e-03 -8.8645558705e+02 -1.1675530909e+03 
    3.4846124210e+02 -3.6983417844e+02  4.0317135318e+02 ] stress_20 gradient
 [  5.2158479901e-01  8.0565158582e-04 -4.9578115122e+02 -1.0011044980e+03 
    3.3174983900e+02 -1.7034734057e+02  6.5884379702e+02 ] stress_21 gradient
 [  7.5523955299e-01  4.8273258157e-04 -8.4907122539e+01 -7.0485497160e+02 
    2.4022014825e+02 -8.8550263453e+01  7.6367951484e+02 ] stress_22 gradient
 [  8.3971253266e-01  3.7717322566e-04  2.2008867853e+02 -5.4163370080e+02 
    1.8650506736e+02 -5.8530610342e+01  8.0215466097e+02 ] stress_23 gradient
 [  8.6418482365e-01  3.5018244539e-04  3.5040736958e+02 -4.8574791927e+02 
    1.6779342601e+02 -4.9764498203e+01  8.1338934134e+02 ] stress_24 gradient
 [  8.3104915490e-01 -1.1640448427e-03  3.4547056125e+02 -3.4451321673e+02 
    1.2799080119e+02 -6.4500492964e+01  8.0068942415e+02 ] stress_25 gradient
 [  8.3104855140e-01 -5.4764545191e-04  3.4547056125e+02 -3.4451531989e+02 
    1.2799353774e+02 -6.4500992203e+01  8.0068822608e+02 ] stress_26 gradient
 [  8.2846438832e-01  1.5059420446e-04  3.4622739354e+02 -3.5695499517e+02 
    1.5114459877e+02 -6.6425552955e+01  7.9493430618e+02 ] stress_27 gradient
 [  8.3097783793e-01  3.1697868271e-04  3.4988106666e+02 -3.6784263305e+02 
    1.9917458078e+02 -6.7522377853e+01  7.9165439611e+02 ] stress_28 gradient
 [  8.3012900580e-01 -2.7222919708e-04  3.4977341379e+02 -3.6262276003e+02 
    1.9769738915e+02 -6.7873841089e+01  7.9135408047e+02 ] stress_29 gradient
 [  7.9311283671e-01 -1.2142413873e-03  3.4420264968e+02 -2.1255993829e+02 
    1.5416557151e+02 -8.4410086451e+01  7.7721688137e+02 ] stress_30 gradient
 [  5.2198554334e-01 -1.8067584376e-03  2.9090414928e+02  4.3935100429e+02 
   -4.2021787358e+01 -2.1267220081e+02  6.6756453196e+02 ] stress_31 gradient
 [ -4.7865192304e-02 -1.4294880221e-03  1.0269159395e+02  1.0349921037e+03 
   -2.3883818868e+02 -4.9467451863e+02  4.2647736455e+02 ] stress_32 gradient
 [ -5.1591151044e-01 -8.4766224181e-04 -2.3850112501e+02  9.7449369820e+02 
   -2.4640676620e+02 -7.3516922809e+02  2.2087536560e+02 ] stress_33 gradient
 [ -7.5600965968e-01 -5.3301332526e-04 -6.7558319024e+02  6.9749623460e+02 
   -1.8152180325e+02 -8.6252971943e+02  1.1199337374e+02 ] stress_34 gradient
 [ -8.6579487647e-01 -4.0932801140e-04 -1.1564636620e+03  4.7403867131e+02 
   -1.2494629409e+02 -9.2233937638e+02  6.0861840205e+01 ] stress_35 gradient
 [ -9.1753278605e-01 -3.7405420081e-04 -1.6463239055e+03  3.2970066398e+02 
   -8.7486706458e+01 -9.5115886242e+02  3.6223178175e+01 ] stress_36 gradient
 [ -9.4360206098e-01 -3.7643111850e-04 -2.1188982516e+03  2.4025562199e+02 
   -6.4002698069e+01 -9.6595177026e+02  2.3576774675e+01 ] stress_37 gradient
 [ -9.5762952759e-01 -3.9368549506e-04 -2.5521124254e+03  1.8458895947e+02 
   -4.9293175152e+01 -9.7403292847e+02  1.6667917486e+01 ] stress_38 gradient
 [ -9.6556604250e-01 -4.1500534293e-04 -2.9269135001e+03  1.4961174644e+02 
   -4.0014981383e+01 -9.7866235827e+02  1.2710300446e+01 ] stress_39 gradient
 [ -9.7015923386e-01 -4.3474696211e-04 -3.2270279504e+03  1.2779418919e+02 
   -3.4213487748e+01 -9.8136672808e+02  1.0398429107e+01 ] stress_40 gradient
 [ -9.7274447908e-01 -4.4975962076e-04 -3.4398353803e+03  1.1487243141e+02 
   -3.0772362814e+01 -9.8289888813e+02  9.0885417281e+00 ] stress_41 gradient
 [ -9.7397218390e-01 -4.5825704614e-04 -3.5562962112e+03  1.0854647057e+02 
   -2.9086280922e+01 -9.8362977190e+02  8.4635497330e+00 ] stress_42 gradient
 [ -9.7397174688e-01 -3.8384136457e-04 -3.5562962112e+03  1.0854043693e+02 
   -2.9085551174e+01 -9.8362927266e+02  8.4639490892e+00 ] stress_43 gradient
 [ -9.0790707667e-01  1.3251992553e-03 -3.5438514308e+03 -1.9325119366e+02 
    3.5421949820e+00 -9.5245488310e+02  6.3099031994e+01 ] stress_44 gradient
 [ -5.5236007805e-01  1.7865788867e-03 -3.4566966468e+03 -1.0204605120e+03 
    9.5109832606e+01 -7.7998328675e+02  3.6536632626e+02 ] stress_45 gradient
 [ -5.5265475842e-01  7.9513756697e-04 -3.4567045849e+03 -1.0197580957e+03 
    9.4438154647e+01 -7.8046684824e+02  3.6518070564e+02 ] stress_46 gradient
 [ -8.0183789626e-01 -3.2685601172e-04 -3.4803791906e+03 -4.4476587323e+02 
   -3.3245696445e+02 -1.2220321768e+03  1.9578023977e+02 ] stress_47 gradient
 [ -7.7225076163e-01  1.0306833636e-03 -3.4751025689e+03 -5.8762509736e+02 
   -3.1111731947e+02 -1.2031834631e+03  2.1948041542e+02 ] stress_48 gradient
 [ -7.7225929386e-01  5.3543859731e-04 -3.4751025689e+03 -5.8760385893e+02 
   -3.1113355635e+02 -1.2031969425e+03  2.1947482444e+02 ] stress_49 gradient
 [ -7.8624801165e-01 -2.0090679948e-04 -3.4759779281e+03 -5.5317430550e+02 
   -3.3064591328e+02 -1.2272806611e+03  2.0948573514e+02 ] stress_50 gradient
 [ -1.0150390401e+00 -3.8909558340e-04 -3.5665139908e+03  3.0502236597e+01 
   -2.3986530847e+02 -1.7152933539e+03  7.0885673491e+00 ] stress_51 gradient
 [ -1.0122227795e+00  4.2217203698e-04 -3.5660393395e+03  1.0110343494e+01 
   -2.3741846467e+02 -1.7130992049e+03  9.3005997149e+00 ] stress_52 gradient
 [ -8.6081809681e-01  1.6954028466e-03 -3.5359877149e+03 -5.3609103236e+02 
   -1.6232987850e+02 -1.5896276742e+03  1.3380455601e+02 ] stress_53 gradient
 [ -2.3204553356e-01  1.6231608644e-03 -3.3430755682e+03 -1.4391796680e+03 
    6.7653078134e+00 -1.0632157259e+03  6.6462167828e+02 ] stress_54 gradient
 [  3.2110071675e-01  9.7864925703e-04 -2.9942177475e+03 -1.4075527139e+03 
    6.8227207083e+01 -5.9192249868e+02  1.1398619965e+03 ] stress_55 gradient
 [  5.6613721732e-01  6.5126202090e-04 -2.6786083522e+03 -1.1565982440e+03 
    7.0438524830e+01 -3.8078295715e+02  1.3527714098e+03 ] stress_56 gradient
 [  6.4043836239e-01  5.5217613549e-04 -2.5311266404e+03 -1.0439568476e+03 
    6.7268501137e+01 -3.1639279569e+02  1.4177014886e+03 ] stress_57 gradient
 [  6.4027435626e-01  1.3700234616e-04 -2.5311440388e+03 -1.0429211638e+03 
    6.6892133800e+01 -3.1649863404e+02  1.4175956593e+03 ] stress_58 gradient
 [  5.8068744124e-01 -1.2395433012e-03 -2.5401568675e+03 -8.0777025729e+02 
   -1.5009741093e+01 -3.6038391117e+02  1.3737928258e+03 ] stress_59 gradient
 [  5.2040782976e-02 -1.6394015315e-03 -2.6723090283e+03  3.4461563929e+02 
   -3.6841108273e+02 -7.8650332915e+02  9.4847227555e+02 ] stress_60 gradient
 [ -5.1143481525e-01 -1.0847702453e-03 -2.9982509242e+03  7.5029578942e+02 
   -4.1070707275e+02 -1.2735415102e+03  4.6234351855e+02 ] stress_61 gradient
 [ -7.2473520351e-01 -8.3219178040e-04 -3.2994506023e+03  6.5987825026e+02 
   -3.2706923772e+02 -1.4677429202e+03  2.6850374913e+02 ] stress_62 gradient
 [ -7.7023442893e-01 -7.8009377869e-04 -3.4054201718e+03  6.1370756825e+02 
   -2.9827795728e+02 -1.5102544952e+03  2.2607098595e+02 ] stress_63 gradient
 [ -7.5527524269e-01  4.7691547946e-04 -3.4025662834e+03  5.1623167567e+02 
   -2.8574983245e+02 -1.4984630036e+03  2.3786556330e+02 ] stress_64 gradient
 [ -4.0269488001e-01  1.4751282865e-03 -3.3126000197e+03 -5.6217615920e+02 
   -1.2157285324e+02 -1.2076950728e+03  5.2871207735e+02 ] stress_65 gradient
 [ -1.9079979184e-01  1.4033694006e-03 -3.2375268236e+03 -9.0299202717e+02 
   -5.6443242401e+01 -1.0297153886e+03  7.0674014835e+02 ] stress_66 gradient
 [ -2.0362294027e-01  1.2289514101e-04 -3.2386597341e+03 -8.6578998739e+02 
   -8.8018491797e+01 -1.0377661432e+03  6.9869304696e+02 ] stress_67 gradient
 [ -6.6122943266e-01 -5.9188430584e-04 -3.3478693831e+03  6.3251069341e+01 
   -6.5877255531e+02 -1.3797013798e+03  3.5689958168e+02 ] stress_68 gradient
 [ -9.2234311229e-01 -4.4140696979e-04 -3.5819029140e+03  2.9659201912e+02 
   -5.5526296264e+02 -1.6172880305e+03  1.1940981228e+02 ] stress_69 gradient
 [ -9.2502564575e-01 -4.4039532914e-04 -3.5875889428e+03  2.9626363942e+02 
   -5.5022496746e+02 -1.6201236998e+03  1.1657518406e+02 ] stress_70 gradient
 [ -9.2466000843e-01  1.7753124162e-05 -3.5875285920e+03  2.9293168821e+02 
   -5.4979003787e+02 -1.6198486199e+03  1.1685073963e+02 ] stress_71 gradient
 [ -9.0901366543e-01  8.1019299878e-04 -3.5847421225e+03  2.0131361457e+02 
   -5.3622932016e+02 -1.6075573914e+03  1.2914171638e+02 ] stress_72 gradient
 [ -7.7775242334e-01  1.5811487265e-03 -3.5580477995e+03 -2.7192127868e+02 
   -4.5221431506e+02 -1.5015245279e+03  2.3517642044e+02 ] stress_73 gradient
 [ -3.8443754942e-01  1.6887681612e-03 -3.4499340894e+03 -1.0276787167e+03 
   -2.6807461518e+02 -1.1772825198e+03  5.5942534208e+02 ] stress_74 gradient
 [  1.2511992525e-01  1.2055453963e-03 -3.2126236703e+03 -1.3334238904e+03 
   -9.8995556284e+01 -7.5062761958e+02  9.8609240068e+02 ] stress_75 gradient
 [  5.0130514235e-01  7.2466875620e-04 -2.8598707731e+03 -1.1546914627e+03 
   -1.6006649327e+01 -4.3168122383e+02  1.3050495770e+03 ] stress_76 gradient
 [  7.1590867284e-01  4.4214484294e-04 -2.4311519221e+03 -8.6248958122e+02 
    1.1747294864e+01 -2.4784947704e+02  1.4888874777e+03 ] stress_77 gradient
 [  8.3044671695e-01  3.0694806315e-04 -1.9585384295e+03 -6.2202140253e+02 
    1.7909466265e+01 -1.4889360534e+02  1.5878474721e+03 ] stress_78 gradient
 [  8.9253374425e-01  2.5331744463e-04 -1.4647472252e+03 -4.5313976814e+02 
    1.7325120851e+01 -9.4867615408e+01  1.6418755340e+03 ] stress_79 gradient
 [  9.2763401124e-01  2.4195479466e-04 -9.6759920879e+02 -3.3920231037e+02 
    1.5121283018e+01 -6.4140043452e+01  1.6726039743e+03 ] stress_80 gradient
 [  9.4841950435e-01  2.5201842029e-04 -4.8253930465e+02 -2.6244249578e+02 
    1.2876579317e+01 -4.5850975052e+01  1.6908940755e+03 ] stress_81 gradient
 [  9.6125855602e-01  2.7231835194e-04 -2.3597182632e+01 -2.1016870705e+02 
    1.0999303546e+01 -3.4505302499e+01  1.7022401761e+03 ] stress_82 gradient
 [  9.6946512645e-01  2.9650073002e-04  3.9638982451e+02 -1.7414931686e+02 
    9.5367068636e+00 -2.7227417496e+01  1.7095184375e+03 ] stress_83 gradient
 [  9.7483533353e-01  3.2071086976e-04  7.6594635590e+02 -1.4917161214e+02 
    8.4378893736e+00 -2.2450712616e+01  1.7142955329e+03 ] stress_84 gradient
 [  9.7837670890e-01  3.4245936342e-04  1.0749709840e+03 -1.3195515175e+02 
    7.6386332856e+00 -1.9293035117e+01  1.7174532400e+03 ] stress_85 gradient
 [  9.8067108828e-01  3.6008729549e-04  1.3151380100e+03 -1.2043052184e+02 
    7.0834777797e+00 -1.7243664972e+01  1.7195023352e+03 ] stress_86 gradient
 [  9.8205572372e-01  3.7249035815e-04  1.4800105534e+03 -1.1331696920e+02 
    6.7324691706e+00 -1.6005555848e+01  1.7207407379e+03 ] stress_87 gradient
 [  9.8271661785e-01  3.7897104571e-04  1.5650372903e+03 -1.0987611356e+02 
    6.5604311679e+00 -1.5413959348e+01  1.7213325833e+03 ] stress_88 gradient
 [  9.8258990382e-01  2.4530962522e-05  1.5650149985e+03 -1.0852940398e+02 
    6.4538880138e+00 -1.5533776361e+01  1.7212327444e+03 ] stress_89 gradient
 [  8.3934870376e-01 -1.7295915804e-03  1.5350846737e+03  4.6559872465e+02 
   -3.9680665752e+01 -1.5983958831e+02  1.6011646338e+03 ] stress_90 gradient
 [  4.9769147194e-01 -1.9158133088e-03  1.4412049564e+03  1.1663698414e+03 
   -9.6105208370e+01 -5.1024473934e+02  1.3096138157e+03 ] stress_91 gradient
 [  5.0298699078e-01 -5.3177526110e-04  1.4414365732e+03  1.1530066047e+03 
   -8.3441897797e+01 -5.0625233665e+02  1.3156740416e+03 ] stress_92 gradient
 [  9.3487906165e-01  1.3888167098e-04  1.5163662321e+03  1.1398965742e+02 
    5.7979853736e+02 -1.3880151827e+02  1.8735059536e+03 ] stress_93 gradient
 [  9.5210761328e-01  1.2957290268e-04  1.5240123043e+03  7.4063683154e+01 
    5.8915153026e+02 -1.2215144674e+02  1.8987831857e+03 ] stress_94 gradient
 [  9.5203261288e-01 -1.5992125600e-04  1.5240003429e+03  7.4850700328e+01 
    5.8906815659e+02 -1.2221984229e+02  1.8987172920e+03 ] stress_95 gradient
 [  9.4890369806e-01 -6.7314018124e-04  1.5234577289e+03  9.7353001590e+01 
    5.8636352945e+02 -1.2516284764e+02  1.8958690856e+03 ] stress_96 gradient
 [  9.1912600333e-01 -1.3290785743e-03  1.5179886370e+03  2.4382826393e+02 
    5.6580927535e+02 -1.5378513485e+02  1.8681705586e+03 ] stress_97 gradient
 [  7.8943760375e-01 -1.8730243785e-03  1.4911503418e+03  6.5808323038e+02 
    4.9363099569e+02 -2.8046746190e+02  1.7455759629e+03 ] stress_98 gradient
 [  4.8529332851e-01 -1.9730894133e-03  1.4111437084e+03  1.2142135555e+03 
    3.5691591567e+02 -5.8128474497e+02  1.4544637973e+03 ] stress_99 gradient
 [  7.1478141944e-02 -1.6352281890e-03  1.2497802135e+03  1.5100229017e+03 
    2.0735304488e+02 -9.9465143928e+02  1.0544317809e+03 ] stress_100 gradient
 [ -3.0011026280e-01 -1.1835025905e-03  1.0040897254e+03  1.4298171632e+03 
    1.0049007942e+02 -1.3688883937e+03  6.9226549351e+02 ] stress_101 gradient
 [ -5.6009656416e-01 -8.3421583151e-04  6.8934644641e+02  1.1680379316e+03 
    4.1992962326e+01 -1.6325562125e+03  4.3710063103e+02 ] stress_102 gradient
 [ -7.2242725580e-01 -6.1811127962e-04  3.2263292941e+02  8.9402643280e+02 
    1.4168597491e+01 -1.7981782696e+03  2.7681953717e+02 ] stress_103 gradient
 [ -8.2046744024e-01 -5.0005619389e-04 -8.3235240863e+01  6.7032165096e+02 
    1.9206957547e+00 -1.8987336985e+03  1.7950688593e+02 ] stress_104 gradient
 [ -8.8001820981e-01 -4.4389878321e-04 -5.1901459764e+02  5.0324984577e+02 
   -3.0879270841e+00 -1.9600959842e+03  1.2012266258e+02 ] stress_105 gradient
 [ -9.1701277778e-01 -4.2525112738e-04 -9.7763158625e+02  3.8220006507e+02 
   -4.8590245738e+00 -1.9983740248e+03  8.3079207370e+01 ] stress_106 gradient
 [ -9.4065190680e-01 -4.2934493771e-04 -1.4530549275e+03  2.9495112049e+02 
   -5.2238983885e+00 -2.0229235321e+03  5.9321125115e+01 ] stress_107 gradient
 [ -9.5620173155e-01 -4.4739064186e-04 -1.9397546350e+03  2.3168172036e+02 
   -5.0098998972e+00 -2.0391257876e+03  4.3641214146e+01 ] stress_108 gradient
 [ -9.6671824748e-01 -4.7405468135e-04 -2.4324464751e+03  1.8529211472e+02 
   -4.5877408960e+00 -2.0501170015e+03  3.3004768921e+01 ] stress_109 gradient
 [ -9.7401557341e-01 -5.0597765482e-04 -2.9260028003e+03  1.5083566847e+02 
   -4.1201551022e+00 -2.0577643222e+03  2.5604304611e+01 ] stress_110 gradient
 [ -9.7919815465e-01 -5.4093959178e-04 -3.4153932858e+03  1.2490239526e+02 
   -3.6757387974e+00 -2.0632085077e+03  2.0335202777e+01 ] stress_111 gradient
 [ -9.8295577005e-01 -5.7738973653e-04 -3.8956463262e+03  1.0513747258e+02 
   -3.2796682738e+00 -2.0671649653e+03  1.6506577694e+01 ] stress_112 gradient
 [ -9.8573063890e-01 -6.1419149689e-04 -4.3619724564e+03  8.9898185977e+01 
   -2.9379639481e+00 -2.0700919951e+03  1.3673546895e+01 ] stress_113 gradient
 [ -9.8781250330e-01 -6.5046766215e-04 -4.8097404281e+03  7.8028580977e+01 
   -2.6478892664e+00 -2.0722921350e+03  1.1544580556e+01 ] stress_114 gradient
 [ -9.8939533622e-01 -6.8551086332e-04 -5.2344913465e+03  6.8706220041e+01 
   -2.4047008697e+00 -2.0739675762e+03  9.9231955727e+00 ] stress_115 gradient
 [ -9.9061157455e-01 -7.1873531493e-04 -5.6320185943e+03  6.1338576235e+01 
   -2.2023783372e+00 -2.0752571068e+03  8.6748090073e+00 ] stress_116 gradient
 [ -9.9155297099e-01 -7.4964101844e-04 -5.9983471707e+03  5.5495238048e+01 
   -2.0349012567e+00 -2.0762565803e+03  7.7079683617e+00 ] stress_117 gradient
 [ -9.9228451616e-01 -7.7780678569e-04 -6.3298995209e+03  5.0859146051e+01 
   -1.8975262668e+00 -2.0770338932e+03  6.9555818311e+00 ] stress_118 gradient
 [ -9.9285226331e-01 -8.0286868394e-04 -6.6234020190e+03  4.7196757954e+01 
   -1.7860573175e+00 -2.0776374714e+03  6.3713241389e+00 ] stress_119 gradient
 [ -9.9328930084e-01 -8.2451142348e-04 -6.8758936673e+03  4.4335936735e+01 
   -1.6970281069e+00 -2.0781027608e+03  5.9212500290e+00 ] stress_120 gradient
 [ -9.9361949818e-01 -8.4248130029e-04 -7.0849430335e+03  4.2148424338e+01 
   -1.6277020834e+00 -2.0784547233e+03  5.5809987943e+00 ] stress_121 gradient
 [ -9.9385977413e-01 -8.5656637309e-04 -7.2484617606e+03  4.0541670394e+01 
   -1.5760724372e+00 -2.0787108321e+03  5.3329987792e+00 ] stress_122 gradient
 [ -9.9402184490e-01 -8.6660286253e-04 -7.3648138511e+03  3.9450339147e+01 
   -1.5408621132e+00 -2.0788835683e+03  5.1656686577e+00 ] stress_123 gradient
 [ -9.9411345193e-01 -8.7248068425e-04 -7.4328939603e+03  3.8830838946e+01 
   -1.5207940541e+00 -2.0789814189e+03  5.0710213054e+00 ] stress_124 gradient
 [ -9.9413765433e-01 -8.7406045258e-04 -7.4511846177e+03  3.8666735292e+01 
   -1.5153209468e+00 -2.0790068800e+03  5.0462612376e+00 ] stress_125 gradient
 [ -9.9374284095e-01 -3.8144294002e-04 -7.4511090432e+03  3.4515702390e+01 
   -1.3272284960e+00 -2.0786199709e+03  5.6201356770e+00 ] stress_126 gradient
 [ -9.5912651794e-01  7.4547061095e-04 -7.4440365760e+03 -1.6517425254e+02 
    7.8212526300e+00 -2.0438011472e+03  5.7236087926e+01 ] stress_127 gradient
 [ -6.5936978483e-01  1.5269380392e-03 -7.3684744287e+03 -1.0454489723e+03 
    4.8424559287e+01 -1.7378564734e+03  5.1078287171e+02 ] stress_128 gradient
 [ -6.5927717494e-02  1.2062836543e-03 -7.1266171989e+03 -1.6555481350e+03 
    7.6567492713e+01 -1.1264246913e+03  1.4172222615e+03 ] stress_129 gradient
 [  3.9035706570e-01  6.7634850530e-04 -6.7543992493e+03 -1.4980567239e+03 
    6.9131911704e+01 -6.5318194147e+02  2.1188159103e+03 ] stress_130 gradient
 [  6.2714920430e-01  3.7415778981e-04 -6.3649057328e+03 -1.1868453895e+03 
    5.4658279705e+01 -4.0642829085e+02  2.4846394991e+03 ] stress_131 gradient
 [  7.3831171049e-01  2.3701216077e-04 -6.0461113350e+03 -9.6888960266e+02 
    4.4557113051e+01 -2.9021876942e+02  2.6569264296e+03 ] stress_132 gradient
 [  7.8517255514e-01  1.8312442213e-04 -5.8538694089e+03 -8.5901502911e+02 
    3.9474055955e+01 -2.4113672895e+02  2.7296934687e+03 ] stress_133 gradient
 [  7.8768893901e-01  1.8034387782e-04 -5.8420558658e+03 -8.5276182829e+02 
    3.9184893458e+01 -2.3849975621e+02  2.7336035624e+03 ] stress_134 gradient
 [  7.3615229644e-01 -1.6483870087e-03 -5.8510243285e+03 -6.1170915833e+02 
   -1.7934295927e+01 -3.1023734647e+02  2.6647653867e+03 ] stress_135 gradient
 [  7.2498924341e-01 -1.7278330549e-03 -5.8531341072e+03 -5.6857962422e+02 
   -2.7995746066e+01 -3.2619322818e+02  2.6494544406e+03 ] stress_136 gradient
 [  7.3610277828e-01 -8.6285176676e-04 -5.8466474238e+03 -7.0198235891e+02 
   -1.8437985982e+01 -3.1473882168e+02  2.6648260888e+03 ] stress_137 gradient
 [  7.3608891861e-01 -1.0367033616e-03 -5.8466485112e+03 -7.0187259254e+02 
   -1.8464256897e+01 -3.1475579576e+02  2.6648093158e+03 ] stress_138 gradient
 [  7.2571415633e-01 -1.8419321282e-03 -5.8480346234e+03 -6.5206956998e+02 
   -3.0153208438e+01 -3.2914716684e+02  2.6509771048e+03 ] stress_139 gradient
 [  4.6956170481e-01 -2.6290886703e-03 -5.8932442613e+03  2.1027850789e+01 
   -1.7633165569e+02 -7.1005208772e+02  2.2848668983e+03 ] stress_140 gradient
 [ -2.2837097215e-01 -2.0196844960e-03 -6.1257217189e+03  7.5864684842e+02 
   -2.8896072201e+02 -1.7985207466e+03  1.2386598523e+03 ] stress_141 gradient
 [ -6.6992304781e-01 -1.4026514465e-03 -6.5234903701e+03  6.6466029900e+02 
   -2.1282250334e+02 -2.5132347146e+03  5.5168742203e+02 ] stress_142 gradient
 [ -8.3683983449e-01 -1.1738087194e-03 -6.9352615060e+03  4.6738208971e+02 
   -1.4165076458e+02 -2.7909985056e+03  2.8470282277e+02 ] stress_143 gradient
 [ -8.9833539088e-01 -1.1031099728e-03 -7.2568228000e+03  3.5415348755e+02 
   -1.0486199746e+02 -2.8952393060e+03  1.8450762059e+02 ] stress_144 gradient
 [ -9.1920922380e-01 -1.0843648865e-03 -7.4262412305e+03  3.0784552575e+02 
   -9.0329255901e+01 -2.9309922031e+03  1.5014184674e+02 ] stress_145 gradient
 [ -9.1920818328e-01 -9.8621135024e-04 -7.4262417742e+03  3.0782724093e+02 
   -9.0328526153e+01 -2.9309912047e+03  1.5014304481e+02 ] stress_146 gradient
 [ -9.0864754947e-01  1.3461335192e-04 -7.4240517452e+03  2.2844188280e+02 
   -8.6292109592e+01 -2.9155702560e+03  1.6559532291e+02 ] stress_147 gradient
 [ -6.8420816907e-01  1.3023670465e-03 -7.3685681090e+03 -6.1560070427e+02 
   -3.8597428374e+01 -2.5813296680e+03  5.0052054549e+02 ] stress_148 gradient
 [ -1.0836830454e-01  1.1827994555e-03 -7.1457109031e+03 -1.4816739523e+03 
    2.4112503531e+01 -1.7139723714e+03  1.3696641647e+03 ] stress_149 gradient
 [  3.1966969510e-01  7.3398527082e-04 -6.8314922960e+03 -1.4909124169e+03 
    4.1332175850e+01 -1.0645392046e+03  2.0204417711e+03 ] stress_150 gradient
 [  5.0187505377e-01  5.1312885622e-04 -6.6014174546e+03 -1.3373195220e+03 
    4.1370122726e+01 -7.8691520013e+02  2.2986418816e+03 ] stress_151 gradient
 [  5.2481632953e-01  4.8484723096e-04 -6.5645659203e+03 -1.3103730906e+03 
    4.1023857478e+01 -7.5190267229e+02  2.3337272948e+03 ] stress_152 gradient
 [  5.2018520096e-01 -5.4583671003e-04 -6.5651324571e+03 -1.2868617915e+03 
    3.1536408578e+01 -7.5733886997e+02  2.3282944571e+03 ] stress_153 gradient
 [  3.1495411825e-01 -1.8426257319e-03 -6.6024994203e+03 -6.1210807766e+02 
   -2.1602354131e+02 -1.0282371462e+03  2.0575826691e+03 ] stress_154 gradient
 [ -2.9214213701e-01 -1.6978241877e-03 -6.8148055576e+03  4.8076080704e+02 
   -5.1301367646e+02 -1.9047714774e+03  1.1816414134e+03 ] stress_155 gradient
 [ -6.4937456344e-01 -1.3380615160e-03 -7.1165326261e+03  6.5589984856e+02 
   -4.5909353648e+02 -2.4601073522e+03  6.2667448066e+02 ] stress_156 gradient
 [ -7.5346247654e-01 -1.2276313120e-03 -7.2891208355e+03  6.1613218566e+02 
   -3.9892803387e+02 -2.6296454287e+03  4.5724853589e+02 ] stress_157 gradient
 [ -7.5269838403e-01 -6.3891683914e-04 -7.2889598999e+03  6.0781271997e+02 
   -3.9839221667e+02 -2.6285700710e+03  4.5832400134e+02 ] stress_158 gradient
 [ -6.0305312228e-01  9.6313144684e-04 -7.2522027521e+03 -9.7665080102e+01 
   -3.3470135801e+02 -2.4108390462e+03  6.7607572485e+02 ] stress_159 gradient
 [ -3.1400666393e-01  1.1758362636e-03 -7.1592135089e+03 -8.3405258894e+02 
   -2.4016507055e+02 -1.9855096717e+03  1.1014485109e+03 ] stress_160 gradient
 [ -3.1509660859e-01  3.7574872055e-04 -7.1592856581e+03 -8.3083817773e+02 
   -2.4311637063e+02 -1.9866650571e+03  1.1002934139e+03 ] stress_161 gradient
 [ -5.7522762284e-01 -9.2377879413e-04 -7.2038603071e+03 -2.4030145471e+02 
   -6.5063532196e+02 -2.3134138868e+03  7.7361748658e+02 ] stress_162 gradient
 [ -9.4022756357e-01 -8.2824370676e-04 -7.4245823977e+03  2.7118199511e+02 
   -6.5747871276e+02 -2.8698660568e+03  2.1728275987e+02 ] stress_163 gradient
 [ -9.6437042719e-01 -8.2516504938e-04 -7.4717120625e+03  2.7544256453e+02 
   -6.0439504600e+02 -2.9160090858e+03  1.7114916551e+02 ] stress_164 gradient
 [ -9.6435417433e-01 -6.2426411979e-04 -7.4717093440e+03  2.7521922772e+02 
   -6.0438045105e+02 -2.9159866201e+03  1.7117152944e+02 ] stress_165 gradient
 [ -9.6352735952e-01 -2.3025366416e-04 -7.4715505832e+03  2.6720985691e+02 
   -6.0378224043e+02 -2.9148258928e+03  1.7233245706e+02 ] stress_166 gradient
 [ -9.5445233282e-01  3.2985099921e-04 -7.4697618057e+03  2.0385775562e+02 
   -5.9827136879e+02 -2.9019041273e+03  1.8525401678e+02 ] stress_167 gradient
 [ -9.0720966042e-01  9.5266468054e-04 -7.4598996068e+03 -3.0191934849e+01 
   -5.7374692272e+02 -2.8339179578e+03  2.5323956765e+02 ] stress_168 gradient
 [ -7.6178669811e-01  1.4162348368e-03 -7.4255768818e+03 -5.1843764298e+02 
   -5.0845138551e+02 -2.6229174539e+03  4.6423858213e+02 ] stress_169 gradient
 [ -4.7920971245e-01  1.5070727428e-03 -7.3419563198e+03 -1.1011148169e+03 
   -3.9780929427e+02 -2.2102536361e+03  8.7690206612e+02 ] stress_170 gradient
 [ -1.1505376545e-01  1.2543410596e-03 -7.1894756002e+03 -1.4609794346e+03 
   -2.7271562765e+02 -1.6756698681e+03  1.4114895075e+03 ] stress_171 gradient
 [  2.2539611612e-01  8.8019448026e-04 -6.9654412810e+03 -1.4887512686e+03 
   -1.6962162625e+02 -1.1737029865e+03  1.9134635088e+03 ] stress_172 gradient
 [  4.8409011744e-01  5.5525344568e-04 -6.6797028383e+03 -1.3088229610e+03 
   -1.0029450706e+02 -7.9084270194e+02  2.2963312083e+03 ] stress_173 gradient
 [  6.6025935960e-01  3.2909214844e-04 -6.3448197736e+03 -1.0674492528e+03 
   -5.8386195458e+01 -5.2925570524e+02  2.5579249022e+03 ] stress_174 gradient
 [  7.7500762956e-01  1.8956907246e-04 -5.9710533626e+03 -8.4222981920e+02 
   -3.4108221652e+01 -3.5836918811e+02  2.7288156845e+03 ] stress_175 gradient
 [  8.4912730864e-01  1.1176738260e-04 -5.5659925888e+03 -6.5773775432e+02 
   -2.0150886100e+01 -2.4769820807e+02  2.8394899856e+03 ] stress_176 gradient
 [  8.9747461362e-01  7.4925784018e-05 -5.1353756764e+03 -5.1457134296e+02 
   -1.2051964498e+01 -1.7533771911e+02  2.9118520779e+03 ] stress_177 gradient
 [  9.2958714300e-01  6.4780076263e-05 -4.6838164751e+03 -4.0577373484e+02 
   -7.2743067831e+00 -1.2717277802e+02  2.9600187932e+03 ] stress_178 gradient
 [  9.5137115687e-01  7.2108769458e-05 -4.2153900266e+03 -3.2351030501e+02 
   -4.4038444933e+00 -9.4435275691e+01  2.9927571917e+03 ] stress_179 gradient
 [  9.6647247760e-01  9.1008589687e-05 -3.7338587443e+03 -2.6112188602e+02 
   -2.6482541385e+00 -7.1700996146e+01  3.0154925235e+03 ] stress_180 gradient
 [  9.7716371697e-01  1.1765126665e-04 -3.2428061638e+03 -2.1347063944e+02 
   -1.5572814364e+00 -5.5578618712e+01  3.0316149208e+03 ] stress_181 gradient
 [  9.8488336754e-01  1.4948470035e-04 -2.7457842861e+03 -1.7675078328e+02 
   -8.7004160895e-01 -4.3920423448e+01  3.0432737171e+03 ] stress_182 gradient
 [  9.9056044360e-01  1.8474951365e-04 -2.2462651880e+03 -1.4817960044e+02 
   -4.3274034392e-01 -3.5334536069e+01  3.0518594698e+03 ] stress_183 gradient
 [  9.9480587370e-01  2.2218127604e-04 -1.7477165969e+03 -1.2573261333e+02 
   -1.5288212678e-01 -2.8906353369e+01  3.0582883012e+03 ] stress_184 gradient
 [  9.9802964197e-01  2.6083493635e-04 -1.2535393647e+03 -1.0793055608e+02 
    2.7000662880e-02 -2.4019316999e+01  3.0631756187e+03 ] stress_185 gradient
 [  1.0005116264e+00  2.9997218841e-04 -7.6710172130e+02 -9.3687498982e+01 
    1.4211834904e-01 -2.0252070450e+01  3.0669427430e+03 ] stress_186 gradient
 [  1.0024463618e+00  3.3899473719e-04 -2.9170502138e+02 -8.2199530654e+01 
    2.1527555069e-01 -1.7313058990e+01  3.0698820025e+03 ] stress_187 gradient
 [  1.0039711548e+00  3.7740287281e-04  1.6944996517e+02 -7.2866320650e+01 
    2.6070234125e-01 -1.4994599808e+01  3.0722002635e+03 ] stress_188 gradient
 [  1.0051844380e+00  4.1476487019e-04  6.1323532444e+02 -6.5236437388e+01 
    2.8825031321e-01 -1.3148419349e+01  3.0740468852e+03 ] stress_189 gradient
 [  1.0061576951e+00  4.5070404644e-04  1.0366704856e+03 -5.8966790570e+01 
    3.0393988720e-01 -1.1666183062e+01  3.0755292944e+03 ] stress_190 gradient
 [  1.0069435552e+00  4.8488615502e-04  1.4369140653e+03 -5.3794922381e+01 
    3.1160223714e-01 -1.0468512184e+01  3.0767265634e+03 ] stress_191 gradient
 [  1.0075810377e+00  5.1700759789e-04  1.8112307021e+03 -4.9519182655e+01 
    3.1452122789e-01 -9.4964966691e+00  3.0776989950e+03 ] stress_192 gradient
 [  1.0080996517e+00  5.4680394164e-04  2.1571579725e+03 -4.5982248405e+01 
    3.1452122789e-01 -8.7052051549e+00  3.0784901191e+03 ] stress_193 gradient
 [  1.0085215809e+00  5.7403336633e-04  2.4723579606e+03 -4.3062308956e+01 
    3.1269685737e-01 -8.0606894776e+00  3.0791342801e+03 ] stress_194 gradient
 [  1.0088637026e+00  5.9847806082e-04  2.7546705411e+03 -4.0664480931e+01 
    3.0977786870e-01 -7.5384870006e+00  3.0796566377e+03 ] stress_195 gradient
 [  1.0091389815e+00  6.1995447098e-04  3.0022525661e+03 -3.8713935636e+01 
    3.0649400177e-01 -7.1181289850e+00  3.0800771594e+03 ] stress_196 gradient
 [  1.0093572609e+00  6.3829540137e-04  3.2133886581e+03 -3.7153324711e+01 
    3.0339257604e-01 -6.7841390660e+00  3.0804110210e+03 ] stress_197 gradient
 [  1.0095259910e+00  6.5336714376e-04  3.3867016214e+03 -3.5937861272e+01 
    3.0047358529e-01 -6.5265324902e+00  3.0806686055e+03 ] stress_198 gradient
 [  1.0096507281e+00  6.6505817037e-04  3.5210295663e+03 -3.5034090192e+01 
    2.9810190570e-01 -6.3358237425e+00  3.0808594977e+03 ] stress_199 gradient
 [  1.0097353844e+00  6.7327870086e-04  3.6154280834e+03 -3.4418072266e+01 
    2.9627753726e-01 -6.2065212166e+00  3.0809888890e+03 ] stress_200 gradient
 [  1.0097826447e+00  6.7797162416e-04  3.6692985577e+03 -3.4073350010e+01 
    2.9554778905e-01 -6.1336325390e+00  3.0810615717e+03 ] stress_201 gradient
 [  1.0097849338e+00  6.7820151187e-04  3.6719371404e+03 -3.4056593715e+01 
    2.9536535200e-01 -6.1306371113e+00  3.0810647666e+03 ] stress_202 gradient
 [  9.7495060189e-01 -9.8270852165e-04  3.6645982594e+03  1.7606959050e+02 
   -7.4875755273e+00 -6.6623750263e+01  3.0292471396e+03 ] stress_203 gradient
 [  6.2194580234e-01 -1.8204870064e-03  3.5704172228e+03  1.1889507639e+03 
   -4.5208175640e+01 -6.8773586970e+02  2.4972071496e+03 ] stress_204 gradient
 [  6.2194860757e-01 -1.2964029231e-03  3.5704172772e+03  1.1889423605e+03 
   -4.5200878164e+01 -6.8773237504e+02  2.4972127805e+03 ] stress_205 gradient
 [  7.8677457518e-01  4.3338062657e-04  3.5857322027e+03  7.1277333205e+02 
    2.8140345559e+02 -4.6364690491e+02  2.8574949467e+03 ] stress_206 gradient
 [  8.2215459530e-01  4.4370656860e-04  3.5908832293e+03  6.1061788225e+02 
    3.4008647589e+02 -4.1333424388e+02  2.9383928721e+03 ] stress_207 gradient
 [  8.2205410226e-01  1.3203031474e-04  3.5908636561e+03  6.1177803153e+02 
    3.4002462978e+02 -4.1350098921e+02  2.9382395194e+03 ] stress_208 gradient
 [  8.1793730074e-01 -4.2188325799e-04  3.5900562596e+03  6.4285154514e+02 
    3.3807857529e+02 -4.2043290260e+02  2.9318534191e+03 ] stress_209 gradient
 [  7.7992762618e-01 -1.1128755816e-03  3.5821921631e+03  8.2879727026e+02 
    3.2374049392e+02 -4.8516653950e+02  2.8722203970e+03 ] stress_210 gradient
 [  6.2453465815e-01 -1.6349819619e-03  3.5453966844e+03  1.2847614831e+03 
    2.7619323997e+02 -7.5198539595e+02  2.6264238251e+03 ] stress_211 gradient
 [  2.9507200113e-01 -1.6698483256e-03  3.4425250709e+03  1.7525445424e+03 
    1.9374434625e+02 -1.3211448091e+03  2.1021052618e+03 ] stress_212 gradient
 [ -1.0549737525e-01 -1.3226377731e-03  3.2482420900e+03  1.8347143875e+03 
    1.1153955312e+02 -2.0164119768e+03  1.4616102712e+03 ] stress_213 gradient
 [ -4.3408639424e-01 -9.2847248725e-04  2.9671049919e+03  1.5729840687e+03 
    5.6311340518e+01 -2.5889435898e+03  9.3417892828e+02 ] stress_214 gradient
 [ -6.5174646126e-01 -6.4818682772e-04  2.6183135027e+03  1.2166143486e+03 
    2.6479622396e+01 -2.9694379876e+03  5.8365546301e+02 ] stress_215 gradient
 [ -7.8416337949e-01 -4.8468104591e-04  2.2196020734e+03  9.0501380396e+02 
    1.1806404422e+01 -3.2015774574e+03  3.6980117361e+02 ] stress_216 gradient
 [ -8.6343939799e-01 -4.0137662947e-04  1.7838564261e+03  6.6946133362e+02 
    4.8086719880e+00 -3.3409026759e+03  2.4145018193e+02 ] stress_217 gradient
 [ -9.1162921047e-01 -3.6737720897e-04  1.3205076046e+03  5.0023517235e+02 
    1.5005435580e+00 -3.4257805479e+03  1.6325749343e+02 ] stress_218 gradient
 [ -9.4173090107e-01 -3.6297599961e-04  8.3718319521e+02  3.8016488785e+02 
   -4.5974099643e-02 -3.4789029179e+03  1.1431922254e+02 ] stress_219 gradient
 [ -9.6111529778e-01 -3.7641798343e-04  3.4066750345e+02  2.9461566132e+02 
   -7.4507232719e-01 -3.5131715818e+03  8.2750138105e+01 ] stress_220 gradient
 [ -9.7397840618e-01 -4.0067936436e-04 -1.6269936911e+02  2.3296489854e+02 
   -1.0331402034e+00 -3.5359467988e+03  6.1768777467e+01 ] stress_221 gradient
 [ -9.8275584531e-01 -4.3142802445e-04 -6.6678229636e+02  1.8790877443e+02 
   -1.1223518510e+00 -3.5515095310e+03  4.7431900411e+01 ] stress_222 gradient
 [ -9.8889882280e-01 -4.6586422198e-04 -1.1656146996e+03  1.5449853926e+02 
   -1.1174260548e+00 -3.5624148760e+03  3.7385703216e+01 ] stress_223 gradient
 [ -9.9329564798e-01 -5.0207567419e-04 -1.6533615759e+03  1.2937946336e+02 
   -1.0705397699e+00 -3.5702289421e+03  3.0186913640e+01 ] stress_224 gradient
 [ -9.9650501551e-01 -5.3868430578e-04 -2.1243956161e+03  1.1025615276e+02 
   -1.0083287830e+00 -3.5759382227e+03  2.4926996996e+01 ] stress_225 gradient
 [ -9.9888686066e-01 -5.7464215018e-04 -2.5732928555e+03  9.5541632375e+01 
   -9.4356368159e-01 -3.5801797450e+03  2.1019698804e+01 ] stress_226 gradient
 [ -1.0006785043e+00 -6.0911775291e-04 -2.9948941120e+03  8.4124608221e+01 
   -8.8226487999e-01 -3.5833723691e+03  1.8078442546e+01 ] stress_227 gradient
 [ -1.0020399363e+00 -6.4143545195e-04 -3.3844213379e+03  7.5215925485e+01 
   -8.2735137312e-01 -3.5858001613e+03  1.5842049469e+01 ] stress_228 gradient
 [ -1.0030803274e+00 -6.7102264503e-04 -3.7373547440e+03  6.8252673812e+01 
   -7.7973533794e-01 -3.5876563265e+03  1.4132007477e+01 ] stress_229 gradient
 [ -1.0038759267e+00 -6.9740666224e-04 -4.0497171548e+03  6.2825955947e+01 
   -7.3996409390e-01 -3.5890766573e+03  1.2823318167e+01 ] stress_230 gradient
 [ -1.0044800503e+00 -7.2018854398e-04 -4.3179516760e+03  5.8639950889e+01 
   -7.0730788657e-01 -3.5901555097e+03  1.1829720673e+01 ] stress_231 gradient
 [ -1.0049301567e+00 -7.3903192673e-04 -4.5389276751e+03  5.5481527308e+01 
   -6.8158428305e-01 -3.5909597814e+03  1.1088516112e+01 ] stress_232 gradient
 [ -1.0052526334e+00 -7.5367935357e-04 -4.7102088264e+03  5.3196315831e+01 
   -6.6224597219e-01 -3.5915359015e+03  1.0557772108e+01 ] stress_233 gradient
 [ -1.0054653357e+00 -7.6392855409e-04 -4.8298269311e+03  5.1678515056e+01 
   -6.4929295190e-01 -3.5919168198e+03  1.0207137621e+01 ] stress_234 gradient
 [ -1.0055794387e+00 -7.6963658223e-04 -4.8963672780e+03  5.0860571141e+01 
   -6.4217791104e-01 -3.5921205087e+03  1.0019440350e+01 ] stress_235 gradient
 [ -1.0055794179e+00 -7.3839764258e-04 -4.8963672780e+03  5.0860260839e+01 
   -6.4217791311e-01 -3.5921205087e+03  1.0019440345e+01 ] stress_236 gradient
 [ -9.6911503444e-01  9.3141147028e-04 -4.8887070696e+03 -1.6617706734e+02 
    9.7647529975e+00 -3.5294407351e+03  7.2712726739e+01 ] stress_237 gradient
 [ -7.0338557177e-01  1.7353443399e-03 -4.8210472415e+03 -1.0004050331e+03 
    4.9945222899e+01 -3.0656138051e+03  5.3663997100e+02 ] stress_238 gradient
 [ -7.1012469417e-01  6.9205674507e-04 -4.8248547822e+03 -8.7847258067e+02 
    3.2506790485e+01 -3.0740552131e+03  5.2821048633e+02 ] stress_239 gradient
 [ -8.0035557718e-01 -3.0171756443e-04 -4.9084189623e+03  5.8481984314e+01 
   -8.8548489254e+01 -3.2098253610e+03  3.9262835724e+02 ] stress_240 gradient
 [ -7.5715990849e-01  1.1905416868e-03 -4.8999644062e+03 -1.6646553304e+02 
   -7.5755648478e+01 -3.1356696138e+03  4.6679434013e+02 ] stress_241 gradient
 [ -5.9735092192e-01  1.6702016637e-03 -4.8637845062e+03 -6.6088939494e+02 
   -4.4432070795e+01 -2.8581639286e+03  7.4434026576e+02 ] stress_242 gradient
 [ -6.2791937343e-01  1.4135779931e-04 -4.8800671113e+03 -3.0325363451e+02 
   -9.2739977187e+01 -2.9026939211e+03  6.9984047635e+02 ] stress_243 gradient
 [ -6.9108701821e-01 -3.0791726743e-04 -4.9256869175e+03  1.7261754102e+02 
   -1.4904821628e+02 -3.0035104511e+03  5.9909096817e+02 ] stress_244 gradient
 [ -7.9320689936e-01 -5.9330611658e-04 -5.0415322784e+03  6.0669426605e+02 
   -1.8386283363e+02 -3.1778501944e+03  4.2486716153e+02 ] stress_245 gradient
 [ -7.8894879577e-01  2.8700807080e-04 -5.0406933472e+03  5.7132695775e+02 
   -1.8185091943e+02 -3.1706921264e+03  4.3202521681e+02 ] stress_246 gradient
 [ -6.1403622431e-01  1.4913872464e-03 -5.0003119405e+03 -1.4727960010e+02 
   -1.3303080317e+02 -2.8698992561e+03  7.3283729809e+02 ] stress_247 gradient
 [ -2.2773107563e-02  1.3799467393e-03 -4.7831420140e+03 -1.1512453779e+03 
   -3.4867524059e+01 -1.8403209082e+03  1.7624949954e+03 ] stress_248 gradient
 [  4.3956573064e-01  8.6166807119e-04 -4.4285204152e+03 -1.1908397315e+03 
    6.5352548745e+00 -1.0286784722e+03  2.5742118342e+03 ] stress_249 gradient
 [  6.3800488683e-01  6.1018482064e-04 -4.1245951621e+03 -1.0091312572e+03 
    1.4887946215e+01 -6.7854620442e+02  2.9243786746e+03 ] stress_250 gradient
 [  6.9479614556e-01  5.3874468859e-04 -3.9951387814e+03 -9.2951768941e+02 
    1.5975087742e+01 -5.7809212083e+02  3.0248430427e+03 ] stress_251 gradient
 [  6.9443874913e-01  3.2343824832e-05 -3.9952072878e+03 -9.2568067038e+02 
    1.5538881098e+01 -5.7863878595e+02  3.0242963244e+03 ] stress_252 gradient
 [  6.3490350405e-01 -1.3767850279e-03 -4.0084611501e+03 -5.8302279952e+02 
   -2.2380520513e+01 -6.7674046221e+02  2.9261991385e+03 ] stress_253 gradient
 [  2.0675751966e-01 -1.9910991765e-03 -4.1437165951e+03  6.5634807369e+02 
   -1.4857424519e+02 -1.4115058071e+03  2.1914599479e+03 ] stress_254 gradient
 [ -2.9942154526e-01 -1.6370495848e-03 -4.4426996029e+03  1.1533158376e+03 
   -1.8027138069e+02 -2.3033802105e+03  1.2996051579e+03 ] stress_255 gradient
 [ -5.3662002617e-01 -1.3843866322e-03 -4.7115985271e+03  1.0976356482e+03 
   -1.5993805768e+02 -2.7282633166e+03  8.7472801250e+02 ] stress_256 gradient
 [ -5.8628572734e-01 -1.3289645927e-03 -4.7916672513e+03  1.0592639639e+03 
   -1.5242913703e+02 -2.8178734614e+03  7.8511933605e+02 ] stress_257 gradient
 [ -5.7292997624e-01 -2.5784423099e-05 -4.7884822487e+03  9.4553604027e+02 
   -1.4610806309e+02 -2.7954242465e+03  8.0756753093e+02 ] stress_258 gradient
 [ -2.8589686639e-01  1.1337426450e-03 -4.7008087193e+03 -2.4307268722e+02 
   -7.0213397687e+01 -2.3010191164e+03  1.3019647922e+03 ] stress_259 gradient
 [ -4.3833296891e-02  1.1418572626e-03 -4.5969933490e+03 -7.7865070344e+02 
   -2.8833240931e+01 -1.8796832928e+03  1.7232978137e+03 ] stress_260 gradient
 [ -5.0325676536e-02  1.2416679582e-04 -4.5987372494e+03 -7.1503974430e+02 
   -3.7202913497e+01 -1.8895214976e+03  1.7134595692e+03 ] stress_261 gradient
 [ -2.8488501661e-01 -1.0911168397e-03 -4.6910781505e+03  3.5673257777e+02 
   -1.6123792064e+02 -2.2809080307e+03  1.3220817071e+03 ] stress_262 gradient
 [ -6.0572306550e-01 -1.1074257802e-03 -4.9360862933e+03  8.7398113526e+02 
   -1.9033751945e+02 -2.8444179219e+03  7.5857814249e+02 ] stress_263 gradient
 [ -6.6378591802e-01 -1.0782249890e-03 -5.0108599100e+03  8.8235320283e+02 
   -1.8288150551e+02 -2.9489442862e+03  6.5405192549e+02 ] stress_264 gradient
 [ -6.6376989407e-01 -8.7596503714e-04 -5.0108566478e+03  8.8210282380e+02 
   -1.8286873493e+02 -2.9489188251e+03  6.5407788363e+02 ] stress_265 gradient
 [ -6.6264813459e-01 -4.2524448768e-04 -5.0106136133e+03  8.7001882328e+02 
   -1.8221159719e+02 -2.9470586660e+03  6.5593768408e+02 ] stress_266 gradient
 [ -6.4852285948e-01  2.2860254307e-04 -5.0074280670e+03  7.6307305002e+02 
   -1.7600783018e+02 -2.9232190745e+03  6.7977683559e+02 ] stress_267 gradient
 [ -5.7318154595e-01  9.0741099121e-04 -4.9888774660e+03  3.7161163623e+02 
   -1.5120996592e+02 -2.7944060016e+03  8.0858696676e+02 ] stress_268 gradient
 [ -3.6134998544e-01  1.2885167353e-03 -4.9256420077e+03 -3.3762688656e+02 
   -9.9812052660e+01 -2.4286388618e+03  1.1743477768e+03 ] stress_269 gradient
 [ -2.3521529905e-02  1.2239831797e-03 -4.7838461072e+03 -9.6853877780e+02 
   -4.1502024611e+01 -1.8407911900e+03  1.7621906862e+03 ] stress_270 gradient
 [  3.1684910598e-01  9.2908160789e-04 -4.5517470657e+03 -1.1900153058e+03 
   -2.4758512617e+00 -1.2447984075e+03  2.3581830518e+03 ] stress_271 gradient
 [  5.7152423914e-01  6.4832664641e-04 -4.2415697907e+03 -1.0960208954e+03 
    1.4349757339e+01 -7.9651204355e+02  2.8064724373e+03 ] stress_272 gradient
 [  7.3569608220e-01  4.6139425800e-04 -3.8720812220e+03 -8.9305145321e+02 
    1.8435249429e+01 -5.0622987096e+02  3.0967582557e+03 ] stress_273 gradient
 [  8.3608841546e-01  3.5744031508e-04 -3.4585522996e+03 -6.9388745975e+02 
    1.7386419652e+01 -3.2802552983e+02  3.2749652381e+03 ] stress_274 gradient
 [  8.9726996494e-01  3.0932858937e-04 -3.0120381032e+03 -5.3258340554e+02 
    1.4867878153e+01 -2.1905195746e+02  3.3839402799e+03 ] stress_275 gradient
 [  9.3524671757e-01  2.9595709225e-04 -2.5410111311e+03 -4.1058528523e+02 
    1.2279098448e+01 -1.5120507519e+02  3.4517888517e+03 ] stress_276 gradient
 [  9.5945892118e-01  3.0384905364e-04 -2.0525221025e+03 -3.2039461113e+02 
    1.0048077515e+01 -1.0783281458e+02  3.4951620980e+03 ] stress_277 gradient
 [  9.7534447882e-01  3.2478509777e-04 -1.5529644016e+03 -2.5393053958e+02 
    8.2445062545e+00 -7.9307878691e+01  3.5236872917e+03 ] stress_278 gradient
 [  9.8606154380e-01  3.5370370156e-04 -1.0483883373e+03 -2.0467034395e+02 
    6.8218632532e+00 -6.0021832905e+01  3.5429733866e+03 ] stress_279 gradient
 [  9.9348135928e-01  3.8737666997e-04 -5.4464631075e+02 -1.6780878333e+02 
    5.7089981247e+00 -4.6643764278e+01  3.5563518094e+03 ] stress_280 gradient
 [  9.9874016872e-01  4.2364273134e-04 -4.7442836778e+01 -1.3992189629e+02 
    4.8384092057e+00 -3.7146269133e+01  3.5658496910e+03 ] stress_281 gradient
 [  1.0025458976e+00  4.6097494628e-04  4.3767361231e+02 -1.1859319072e+02 
    4.1553654262e+00 -3.0261284081e+01  3.5727345868e+03 ] stress_282 gradient
 [  1.0053503795e+00  4.9823354712e-04  9.0531767456e+02 -1.0211606446e+02 
    3.6168116774e+00 -2.5181042774e+01  3.5778151926e+03 ] stress_283 gradient
 [  1.0074492251e+00  5.3453006452e-04  1.3503568092e+03 -8.9276318289e+01 
    3.1904566262e+00 -2.1374356461e+01  3.5816218532e+03 ] stress_284 gradient
 [  1.0090394665e+00  5.6913951983e-04  1.7678748684e+03 -7.9205015353e+01 
    2.8513064171e+00 -1.8486766470e+01  3.5845091964e+03 ] stress_285 gradient
 [  1.0102554759e+00  6.0146140477e-04  2.1533194409e+03 -7.1272610872e+01 
    2.5814822315e+00 -1.6276641837e+01  3.5867196313e+03 ] stress_286 gradient
 [  1.0111900674e+00  6.3098619426e-04  2.5024779285e+03 -6.5020766181e+01 
    2.3669364291e+00 -1.4576238744e+01  3.5884196894e+03 ] stress_287 gradient
 [  1.0119082107e+00  6.5727658202e-04  2.8114900515e+03 -6.0114194493e+01 
    2.1972701039e+00 -1.3269234835e+01  3.5897271806e+03 ] stress_288 gradient
 [  1.0124560008e+00  6.7996921268e-04  3.0770169399e+03 -5.6305355464e+01 
    2.0648209103e+00 -1.2271258976e+01  3.5907247717e+03 ] stress_289 gradient
 [  1.0128660889e+00  6.9875918912e-04  3.2961546847e+03 -5.3413573026e+01 
    1.9639332996e+00 -1.1523900367e+01  3.5914727653e+03 ] stress_290 gradient
 [  1.0131613250e+00  7.1339838849e-04  3.4664805528e+03 -5.1308669850e+01 
    1.8900463539e+00 -1.0985722287e+01  3.5920106977e+03 ] stress_291 gradient
 [  1.0133575038e+00  7.2370267931e-04  3.5861774941e+03 -4.9898854082e+01 
    1.8406059524e+00 -1.0627768958e+01  3.5923685206e+03 ] stress_292 gradient
 [  1.0134646354e+00  7.2953917128e-04  3.6539085470e+03 -4.9125237347e+01 
    1.8134228545e+00 -1.0432067842e+01  3.5925642050e+03 ] stress_293 gradient
 [  1.0134661753e+00  7.2962539120e-04  3.6549084138e+03 -4.9113940065e+01 
    1.8128755434e+00 -1.0429571652e+01  3.5925666011e+03 ] stress_294 gradient
 [  9.7582399020e-01 -9.8190949586e-04  3.6468850129e+03  1.7709027638e+02 
   -6.5971009862e+00 -7.5606032259e+01  3.5273921165e+03 ] stress_295 gradient
 [  6.3259225583e-01 -1.8050066480e-03  3.5546968049e+03  1.1761698406e+03 
   -4.4024160116e+01 -6.7760059858e+02  2.9254097716e+03 ] stress_296 gradient
 [  6.3261449582e-01 -1.1765760228e-03  3.5546975117e+03  1.1761013536e+03 
   -4.3960106517e+01 -6.7757383945e+02  2.9254365684e+03 ] stress_297 gradient
 [  8.2630723218e-01  4.1635113388e-04  3.5778126487e+03  5.9720176781e+02 
    3.6613062139e+02 -4.1642352583e+02  3.1865793895e+03 ] stress_298 gradient
 [  8.5447042068e-01  4.2276465459e-04  3.5833855876e+03  5.1321601388e+02 
    4.1323801996e+02 -3.7596681251e+02  3.2270353409e+03 ] stress_299 gradient
 [  8.5444725880e-01  2.1342793339e-04  3.5833812380e+03  5.1351828226e+02 
    4.1322178308e+02 -3.7600525380e+02  3.2269974021e+03 ] stress_300 gradient
 [  8.5350594560e-01 -1.6137020292e-04  3.5832001855e+03  5.2210405580e+02 
    4.1269326336e+02 -3.7757036352e+02  3.2254319269e+03 ] stress_301 gradient
 [  8.4435340046e-01 -6.7603109859e-04  3.5813902036e+03  5.8148577727e+02 
    4.0841110428e+02 -3.9296635032e+02  3.2100363574e+03 ] stress_302 gradient
 [  8.0007072553e-01 -1.2376262792e-03  3.5721418435e+03  7.8157968761e+02 
    3.9082929470e+02 -4.6808263054e+02  3.1349223035e+03 ] stress_303 gradient
 [  6.6895470617e-01 -1.6565984313e-03  3.5413483385e+03  1.1703088462e+03 
    3.4616881290e+02 -6.9193540605e+02  2.9110742923e+03 ] stress_304 gradient
 [  4.1673089966e-01 -1.7496861912e-03  3.4679447405e+03  1.5993362608e+03 
    2.7194045323e+02 -1.1247527448e+03  2.4782633827e+03 ] stress_305 gradient
 [  8.7001350288e-02 -1.5319436052e-03  3.3347036547e+03  1.8136802732e+03 
    1.8769747498e+02 -1.6928945620e+03  1.9101244941e+03 ] stress_306 gradient
 [ -2.2996568777e-01 -1.1890714735e-03  3.1379326963e+03  1.7374786110e+03 
    1.1716317077e+02 -2.2409166067e+03  1.3621007632e+03 ] stress_307 gradient
 [ -4.7807427018e-01 -8.7813723063e-04  2.8849636781e+03  1.4877872645e+03 
    6.8970090167e+01 -2.6711545348e+03  9.3185867047e+02 ] stress_308 gradient
 [ -6.5143570076e-01 -6.5351822107e-04  2.5860257976e+03  1.1976499125e+03 
    3.9546300969e+01 -2.9725627154e+03  6.3044639719e+02 ] stress_309 gradient
 [ -7.6658948061e-01 -5.0998712166e-04  2.2498677532e+03  9.3721309231e+02 
    2.2477503973e+01 -3.1732392364e+03  4.2976645980e+02 ] stress_310 gradient
 [ -8.4203887669e-01 -4.2651012104e-04  1.8829362120e+03  7.2704106388e+02 
    1.2732089286e+01 -3.3050015052e+03  2.9800137447e+02 ] stress_311 gradient
 [ -8.9175572963e-01 -3.8394601208e-04  1.4899434335e+03  5.6510895894e+02 
    7.1602837162e+00 -3.3919921506e+03  2.1100967728e+02 ] stress_312 gradient
 [ -9.2500458571e-01 -3.6859448797e-04  1.0746208404e+03  4.4258946274e+02 
    3.9481170975e+00 -3.4502696475e+03  1.5273047173e+02 ] stress_313 gradient
 [ -9.4766227924e-01 -3.7137921818e-04  6.4008166638e+02  3.5024065147e+02 
    2.0783212417e+00 -3.4900463992e+03  1.1295262662e+02 ] stress_314 gradient
 [ -9.6341300681e-01 -3.8641800261e-04  1.8913739133e+02  2.8038683213e+02 
    9.8187543129e-01 -3.5177391061e+03  8.5259690621e+01 ] stress_315 gradient
 [ -9.7457926255e-01 -4.0987751904e-04 -2.7553534300e+02  2.2716457737e+02 
    3.3732584066e-01 -3.5373980824e+03  6.5600198039e+01 ] stress_316 gradient
 [ -9.8264536332e-01 -4.3921163357e-04 -7.5134797445e+02  1.8624371824e+02 
   -3.9406372012e-02 -3.5516163678e+03  5.1381530330e+01 ] stress_317 gradient
 [ -9.8857524314e-01 -4.7267987778e-04 -1.2357287956e+03  1.5447133614e+02 
   -2.5595897999e-01 -3.5620813853e+03  4.0916408793e+01 ] stress_318 gradient
 [ -9.9300630130e-01 -5.0905164516e-04 -1.7261147982e+03  1.2955594460e+02 
   -3.7600246654e-01 -3.5699099293e+03  3.3087435591e+01 ] stress_319 gradient
 [ -9.9636762577e-01 -5.4742422468e-04 -2.2199614600e+03  1.0982629289e+02 
   -4.3748370311e-01 -3.5758543508e+03  2.7143022919e+01 ] stress_320 gradient
 [ -9.9895297505e-01 -5.8710626924e-04 -2.7147052291e+03  9.4057160305e+01 
   -4.6357218074e-01 -3.5804308615e+03  2.2566004872e+01 ] stress_321 gradient
 [ -1.0009668521e+00 -6.2754981082e-04 -3.2078151755e+03  8.1341833638e+01 
   -4.6849797698e-01 -3.5839989122e+03  1.8998159203e+01 ] stress_322 gradient
 [ -1.0025538471e+00 -6.6830099201e-04 -3.6967511266e+03  7.1004625088e+01 
   -4.6120050114e-01 -3.5868126151e+03  1.6184297480e+01 ] stress_323 gradient
 [ -1.0038177619e+00 -7.0897446942e-04 -4.1790169495e+03  6.2536720240e+01 
   -4.4697042150e-01 -3.5890556894e+03  1.3941115352e+01 ] stress_324 gradient
 [ -1.0048340963e+00 -7.4923479368e-04 -4.6521763183e+03  5.5551494606e+01 
   -4.2927404202e-01 -3.5908604331e+03  1.2136426007e+01 ] stress_325 gradient
 [ -1.0056583514e+00 -7.8877793371e-04 -5.1137885577e+03  4.9753632864e+01 
   -4.1030060318e-01 -3.5923251961e+03  1.0671588546e+01 ] stress_326 gradient
 [ -1.0063320231e+00 -8.2733329754e-04 -5.5615402184e+03  4.4914293222e+01 
   -3.9096229232e-01 -3.5935228670e+03  9.4743195314e+00 ] stress_327 gradient
 [ -1.0068862644e+00 -8.6464530469e-04 -5.9931009963e+03  4.0856270396e+01 
   -3.7253616463e-01 -3.5945083619e+03  8.4883098007e+00 ] stress_328 gradient
 [ -1.0073449238e+00 -9.0048589577e-04 -6.4063210964e+03  3.7439779195e+01 
   -3.5538709424e-01 -3.5953251145e+03  7.6716269680e+00 ] stress_329 gradient
 [ -1.0077261897e+00 -9.3464029081e-04 -6.7991012876e+03  3.4554880859e+01 
   -3.3933264615e-01 -3.5960040776e+03  6.9927219281e+00 ] stress_330 gradient
 [ -1.0080441922e+00 -9.6690713357e-04 -7.1694184572e+03  3.2114495523e+01 
   -3.2473769448e-01 -3.5965707122e+03  6.4264352524e+00 ] stress_331 gradient
 [ -1.0083100232e+00 -9.9710517939e-04 -7.5154223894e+03  3.0048747831e+01 
   -3.1160223714e-01 -3.5970439894e+03  5.9523997918e+00 ] stress_332 gradient
 [ -1.0085322566e+00 -1.0250627582e-03 -7.8353275691e+03  2.8302001828e+01 
   -3.0010871119e-01 -3.5974403840e+03  5.5562387357e+00 ] stress_333 gradient
 [ -1.0087177598e+00 -1.0506266758e-03 -8.1275262713e+03  2.6829332718e+01 
   -2.8989224460e-01 -3.5977713785e+03  5.2251726896e+00 ] stress_334 gradient
 [ -1.0088719226e+00 -1.0736597597e-03 -8.3905651823e+03  2.5594561614e+01 
   -2.8095283530e-01 -3.5980459592e+03  4.9504158212e+00 ] stress_335 gradient
 [ -1.0089989905e+00 -1.0940302262e-03 -8.6230306786e+03  2.4569117771e+01 
   -2.7329048744e-01 -3.5982726130e+03  4.7239810194e+00 ] stress_336 gradient
 [ -1.0091023553e+00 -1.1116346787e-03 -8.8238152404e+03  2.3729521690e+01 
   -2.6690519478e-01 -3.5984573309e+03  4.5390792377e+00 ] stress_337 gradient
 [ -1.0091845977e+00 -1.1263758793e-03 -8.9918668057e+03  2.3057637957e+01 
   -2.6179696149e-01 -3.5986041067e+03  4.3925156216e+00 ] stress_338 gradient
 [ -1.0092477986e+00 -1.1381744884e-03 -9.1263246952e+03  2.2539261648e+01 
   -2.5760091138e-01 -3.5987169344e+03  4.2798972574e+00 ] stress_339 gradient
 [ -1.0092934565e+00 -1.1469701231e-03 -9.2265342924e+03  2.2163566680e+01 
   -2.5468192063e-01 -3.5987988094e+03  4.1980292951e+00 ] stress_340 gradient
 [ -1.0093226117e+00 -1.1527148620e-03 -9.2919731004e+03  2.1922990884e+01 
   -2.5285755219e-01 -3.5988507301e+03  4.1461130269e+00 ] stress_341 gradient
 [ -1.0093359512e+00 -1.1553772388e-03 -9.3222975000e+03  2.1812753315e+01 
   -2.5194536693e-01 -3.5988746935e+03  4.1221516716e+00 ] stress_342 gradient



---------------------
Begin Evaluation  126
---------------------
Parameters for evaluation 126:
                      4.8052881127e+02 fy
                      2.0784048829e+05 E
                      1.8392572734e-02 b
                      8.7011905975e-01 cR1
                      5.4811655195e-02 cR2
                      2.0030877617e-02 a1
                      2.5040670578e-02 a3

blocking fork: workflow_driver1 paramsDakota.in results.out

Active response data for evaluation 126:
Active set vector = { 1 1 1 1 1 1 1 1 1 1 1 1 1 1 1 1 1 1 1 1 1 1 1 1 1 1 1 1 1 1 1 1 1 1 1 1 1 1 1 1 1 1 1 1 1 1 1 1 1 1 1 1 1 1 1 1 1 1 1 1 1 1 1 1 1 1 1 1 1 1 1 1 1 1 1 1 1 1 1 1 1 1 1 1 1 1 1 1 1 1 1 1 1 1 1 1 1 1 1 1 1 1 1 1 1 1 1 1 1 1 1 1 1 1 1 1 1 1 1 1 1 1 1 1 1 1 1 1 1 1 1 1 1 1 1 1 1 1 1 1 1 1 1 1 1 1 1 1 1 1 1 1 1 1 1 1 1 1 1 1 1 1 1 1 1 1 1 1 1 1 1 1 1 1 1 1 1 1 1 1 1 1 1 1 1 1 1 1 1 1 1 1 1 1 1 1 1 1 1 1 1 1 1 1 1 1 1 1 1 1 1 1 1 1 1 1 1 1 1 1 1 1 1 1 1 1 1 1 1 1 1 1 1 1 1 1 1 1 1 1 1 1 1 1 1 1 1 1 1 1 1 1 1 1 1 1 1 1 1 1 1 1 1 1 1 1 1 1 1 1 1 1 1 1 1 1 1 1 1 1 1 1 1 1 1 1 1 1 1 1 1 1 1 1 1 1 1 1 1 1 1 1 1 1 1 1 1 1 1 1 1 1 1 1 1 1 1 1 1 1 1 1 1 1 1 1 1 1 1 1 1 1 1 1 1 1 1 1 1 1 1 1 }
                      2.4220144682e+00 stress_1
                     -2.5171554319e+02 stress_2
                     -4.9424616604e+02 stress_3
                     -4.9576578118e+02 stress_4
                     -1.6682234784e+02 stress_5
                      2.5329574796e+02 stress_6
                      4.0135460074e+02 stress_7
                      4.0222284293e+02 stress_8
                      1.5256157801e+02 stress_9
                     -2.3138378233e+02 stress_10
                     -4.3993808743e+02 stress_11
                     -4.8922609816e+02 stress_12
                     -5.0314261626e+02 stress_13
                     -5.0413588218e+02 stress_14
                     -1.7338149745e+02 stress_15
                     -3.4134528487e+02 stress_16
                     -5.0981021607e+02 stress_17
                     -3.1501113168e+02 stress_18
                      2.1458691002e+01 stress_19
                      2.9856996065e+02 stress_20
                      4.1856449603e+02 stress_21
                      4.6350603535e+02 stress_22
                      4.8206787581e+02 stress_23
                      4.8819092374e+02 stress_24
                      1.5749344520e+02 stress_25
                      2.8560590244e+02 stress_26
                      4.2948141497e+02 stress_27
                      4.6525800897e+02 stress_28
                      3.4238723197e+02 stress_29
                      1.2874950144e+02 stress_30
                     -1.2500492482e+02 stress_31
                     -3.2064226074e+02 stress_32
                     -4.2446398669e+02 stress_33
                     -4.7426594772e+02 stress_34
                     -5.0121957539e+02 stress_35
                     -5.1870432207e+02 stress_36
                     -5.3170304256e+02 stress_37
                     -5.4201825734e+02 stress_38
                     -5.5025683631e+02 stress_39
                     -5.5656361225e+02 stress_40
                     -5.6092424041e+02 stress_41
                     -5.6327941542e+02 stress_42
                     -5.4781261357e+02 stress_43
                     -1.6075577251e+02 stress_44
                      1.0636287323e+02 stress_45
                     -9.9842719360e+01 stress_46
                     -4.5322207915e+02 stress_47
                     -1.5680423456e+02 stress_48
                     -2.5974032186e+02 stress_49
                     -4.1954843689e+02 stress_50
                     -5.6864167875e+02 stress_51
                     -3.9866919011e+02 stress_52
                     -6.1066452536e+01 stress_53
                      2.2649863741e+02 stress_54
                      3.5826854517e+02 stress_55
                      4.0782180863e+02 stress_56
                      4.2287350159e+02 stress_57
                      3.3650441460e+02 stress_58
                      2.1673054911e+01 stress_59
                     -3.1591319415e+02 stress_60
                     -4.7141240956e+02 stress_61
                     -5.2133100143e+02 stress_62
                     -5.3234547867e+02 stress_63
                     -2.6387604625e+02 stress_64
                      1.1339852248e+02 stress_65
                      2.0042418682e+02 stress_66
                     -7.1901100478e+01 stress_67
                     -4.4065312714e+02 stress_68
                     -5.3484646651e+02 stress_69
                     -5.3592574606e+02 stress_70
                     -4.4052762831e+02 stress_71
                     -2.6828283990e+02 stress_72
                     -4.4795394935e+01 stress_73
                      1.6688333771e+02 stress_74
                      3.1135224113e+02 stress_75
                      3.9199226390e+02 stress_76
                      4.3621902745e+02 stress_77
                      4.6304472875e+02 stress_78
                      4.8166596322e+02 stress_79
                      4.9613196190e+02 stress_80
                      5.0818810819e+02 stress_81
                      5.1856220645e+02 stress_82
                      5.2752244234e+02 stress_83
                      5.3512874114e+02 stress_84
                      5.4134667253e+02 stress_85
                      5.4611039518e+02 stress_86
                      5.4935206146e+02 stress_87
                      5.5101584060e+02 stress_88
                      4.7728773044e+02 stress_89
                      4.3675621201e+01 stress_90
                     -1.5951566902e+02 stress_91
                      1.3071327065e+02 stress_92
                      4.7802966349e+02 stress_93
                      4.8437029888e+02 stress_94
                      4.2416551201e+02 stress_95
                      3.1598893928e+02 stress_96
                      1.6530143487e+02 stress_97
                     -1.0247298730e+01 stress_98
                     -1.7746645579e+02 stress_99
                     -3.0622099451e+02 stress_100
                     -3.9080436769e+02 stress_101
                     -4.4297602836e+02 stress_102
                     -4.7592429002e+02 stress_103
                     -4.9839996651e+02 stress_104
                     -5.1527933455e+02 stress_105
                     -5.2913873234e+02 stress_106
                     -5.4132158419e+02 stress_107
                     -5.5252621541e+02 stress_108
                     -5.6310922705e+02 stress_109
                     -5.7324214090e+02 stress_110
                     -5.8299295506e+02 stress_111
                     -5.9237003358e+02 stress_112
                     -6.0134911531e+02 stress_113
                     -6.0988678848e+02 stress_114
                     -6.1792897887e+02 stress_115
                     -6.2541739466e+02 stress_116
                     -6.3229217574e+02 stress_117
                     -6.3849686843e+02 stress_118
                     -6.4397794996e+02 stress_119
                     -6.4868571262e+02 stress_120
                     -6.5257889811e+02 stress_121
                     -6.5562153594e+02 stress_122
                     -6.5778523520e+02 stress_123
                     -6.5905079768e+02 stress_124
                     -6.5939075339e+02 stress_125
                     -5.5681451413e+02 stress_126
                     -3.0590902255e+02 stress_127
                      8.9145928675e-01 stress_128
                      2.1966122943e+02 stress_129
                      3.2866851857e+02 stress_130
                      3.7949990402e+02 stress_131
                      4.0432360386e+02 stress_132
                      4.1560049828e+02 stress_133
                      4.1622952072e+02 stress_134
                      1.1301059368e+01 stress_135
                     -1.0590935681e+01 stress_136
                      1.7452864255e+02 stress_137
                      1.3838854405e+02 stress_138
                     -3.3976901970e+01 stress_139
                     -3.2104241389e+02 stress_140
                     -5.3004932326e+02 stress_141
                     -6.1376421780e+02 stress_142
                     -6.4626463845e+02 stress_143
                     -6.6106151256e+02 stress_144
                     -6.6717545623e+02 stress_145
                     -6.4677465805e+02 stress_146
                     -4.0873073477e+02 stress_147
                     -5.7897988909e+01 stress_148
                      1.9428253327e+02 stress_149
                      3.0664946491e+02 stress_150
                      3.4822389477e+02 stress_151
                      3.5335750654e+02 stress_152
                      1.3690573467e+02 stress_153
                     -2.3149445388e+02 stress_154
                     -4.9339720345e+02 stress_155
                     -5.9023291126e+02 stress_156
                     -6.1726629883e+02 stress_157
                     -4.9453926990e+02 stress_158
                     -8.9472700770e+01 stress_159
                      9.3864372984e+01 stress_160
                     -7.2953319853e+01 stress_161
                     -4.6829914121e+02 stress_162
                     -6.2385008139e+02 stress_163
                     -6.3481548978e+02 stress_164
                     -5.9305229665e+02 stress_165
                     -5.1076235140e+02 stress_166
                     -3.8997506071e+02 stress_167
                     -2.3776001754e+02 stress_168
                     -7.1359272234e+01 stress_169
                      8.3528347926e+01 stress_170
                      2.0609691985e+02 stress_171
                      2.9187769127e+02 stress_172
                      3.4852168469e+02 stress_173
                      3.8604037610e+02 stress_174
                      4.1207950130e+02 stress_175
                      4.3145280834e+02 stress_176
                      4.4697745139e+02 stress_177
                      4.6026507832e+02 stress_178
                      4.7223210582e+02 stress_179
                      4.8340001124e+02 stress_180
                      4.9406285522e+02 stress_181
                      5.0437992374e+02 stress_182
                      5.1443095586e+02 stress_183
                      5.2424605307e+02 stress_184
                      5.3382532995e+02 stress_185
                      5.4314951900e+02 stress_186
                      5.5218751084e+02 stress_187
                      5.6090129790e+02 stress_188
                      5.6924830374e+02 stress_189
                      5.7718453310e+02 stress_190
                      5.8466573855e+02 stress_191
                      5.9164752523e+02 stress_192
                      5.9808906704e+02 stress_193
                      6.0395074617e+02 stress_194
                      6.0919538584e+02 stress_195
                      6.1379106425e+02 stress_196
                      6.1770771145e+02 stress_197
                      6.2092113497e+02 stress_198
                      6.2341081441e+02 stress_199
                      6.2515997997e+02 stress_200
                      6.2615800348e+02 stress_201
                      6.2620688840e+02 stress_202
                      2.6421135134e+02 stress_203
                     -7.9916207303e+01 stress_204
                      2.9011060293e+01 stress_205
                      4.6806974758e+02 stress_206
                      4.8724530453e+02 stress_207
                      4.2241791883e+02 stress_208
                      3.0530743615e+02 stress_209
                      1.4336989621e+02 stress_210
                     -4.0004456136e+01 stress_211
                     -2.0580992586e+02 stress_212
                     -3.2619842492e+02 stress_213
                     -4.0206737021e+02 stress_214
                     -4.4826361150e+02 stress_215
                     -4.7779835263e+02 stress_216
                     -4.9850234081e+02 stress_217
                     -5.1454281671e+02 stress_218
                     -5.2806059951e+02 stress_219
                     -5.4014795164e+02 stress_220
                     -5.5135731466e+02 stress_221
                     -5.6195617457e+02 stress_222
                     -5.7205843706e+02 stress_223
                     -5.8169254766e+02 stress_224
                     -5.9083990590e+02 stress_225
                     -5.9945530052e+02 stress_226
                     -6.0747968222e+02 stress_227
                     -6.1484932820e+02 stress_228
                     -6.2149754829e+02 stress_229
                     -6.2736265502e+02 stress_230
                     -6.3238730163e+02 stress_231
                     -6.3651951915e+02 stress_232
                     -6.3971847076e+02 stress_233
                     -6.4195064012e+02 stress_234
                     -6.4319171121e+02 stress_235
                     -6.3669898499e+02 stress_236
                     -2.7206847151e+02 stress_237
                      2.3011968288e+01 stress_238
                     -1.9707225401e+02 stress_239
                     -4.4708480234e+02 stress_240
                     -1.1611254846e+02 stress_241
                      6.0559202490e+01 stress_242
                     -2.7192857034e+02 stress_243
                     -3.9574319311e+02 stress_244
                     -5.0425108988e+02 stress_245
                     -3.1923372076e+02 stress_246
                      1.5340171285e+01 stress_247
                      2.7655873427e+02 stress_248
                      3.9086360833e+02 stress_249
                      4.3380936930e+02 stress_250
                      4.4620224536e+02 stress_251
                      3.4077931802e+02 stress_252
                      1.9208764907e+01 stress_253
                     -3.1461866024e+02 stress_254
                     -4.8440945023e+02 stress_255
                     -5.4583997858e+02 stress_256
                     -5.5817166349e+02 stress_257
                     -2.8088087928e+02 stress_258
                      9.8348742769e+01 stress_259
                      2.1650018381e+02 stress_260
                      1.8550603575e+00 stress_261
                     -3.6364306402e+02 stress_262
                     -5.2130982830e+02 stress_263
                     -5.4314422285e+02 stress_264
                     -5.0109868754e+02 stress_265
                     -4.0687998951e+02 stress_266
                     -2.6417627612e+02 stress_267
                     -8.6792617701e+01 stress_268
                      9.4409817273e+01 stress_269
                      2.4350054822e+02 stress_270
                      3.4577544340e+02 stress_271
                      4.0971694892e+02 stress_272
                      4.4966081040e+02 stress_273
                      4.7622520664e+02 stress_274
                      4.9557679926e+02 stress_275
                      5.1101476648e+02 stress_276
                      5.2426875001e+02 stress_277
                      5.3623959452e+02 stress_278
                      5.4739037831e+02 stress_279
                      5.5794778937e+02 stress_280
                      5.6800768100e+02 stress_281
                      5.7759217774e+02 stress_282
                      5.8668117966e+02 stress_283
                      5.9523176487e+02 stress_284
                      6.0318779028e+02 stress_285
                      6.1048884741e+02 stress_286
                      6.1707358140e+02 stress_287
                      6.2288226535e+02 stress_288
                      6.2786148996e+02 stress_289
                      6.3196350790e+02 stress_290
                      6.3514775453e+02 stress_291
                      6.3738351961e+02 stress_292
                      6.3864795318e+02 stress_293
                      6.3866662324e+02 stress_294
                      2.6479636082e+02 stress_295
                     -7.1571520443e+01 stress_296
                      5.9052660716e+01 stress_297
                      4.8352266906e+02 stress_298
                      4.9840503975e+02 stress_299
                      4.5488524081e+02 stress_300
                      3.7653313837e+02 stress_301
                      2.6515332530e+02 stress_302
                      1.2708747305e+02 stress_303
                     -2.3156401154e+01 stress_304
                     -1.6391397474e+02 stress_305
                     -2.7722117156e+02 stress_306
                     -3.5824137647e+02 stress_307
                     -4.1272918079e+02 stress_308
                     -4.4922893971e+02 stress_309
                     -4.7463337770e+02 stress_310
                     -4.9346659116e+02 stress_311
                     -5.0845939540e+02 stress_312
                     -5.2121023452e+02 stress_313
                     -5.3265188623e+02 stress_314
                     -5.4332871762e+02 stress_315
                     -5.5355771555e+02 stress_316
                     -5.6352142178e+02 stress_317
                     -5.7332025926e+02 stress_318
                     -5.8300402029e+02 stress_319
                     -5.9259081844e+02 stress_320
                     -6.0207775450e+02 stress_321
                     -6.1144903667e+02 stress_322
                     -6.2067962562e+02 stress_323
                     -6.2973916922e+02 stress_324
                     -6.3859415449e+02 stress_325
                     -6.4720800332e+02 stress_326
                     -6.5554437694e+02 stress_327
                     -6.6356507185e+02 stress_328
                     -6.7123410131e+02 stress_329
                     -6.7851559656e+02 stress_330
                     -6.8537445375e+02 stress_331
                     -6.9177829728e+02 stress_332
                     -6.9769558106e+02 stress_333
                     -7.0309775986e+02 stress_334
                     -7.0795891191e+02 stress_335
                     -7.1225365930e+02 stress_336
                     -7.1596214663e+02 stress_337
                     -7.1906542287e+02 stress_338
                     -7.2154796313e+02 stress_339
                     -7.2339794267e+02 stress_340
                     -7.2460592287e+02 stress_341
                     -7.2516567537e+02 stress_342



------------------------------------------
Begin Dakota derivative estimation routine
------------------------------------------

>>>>> map at X performed previously and results retrieved

>>>>> Dakota finite difference gradient evaluation for x[1] + h:

---------------------
Begin Evaluation  127
---------------------
Parameters for evaluation 127:
                      4.8100934008e+02 fy
                      2.0784048829e+05 E
                      1.8392572734e-02 b
                      8.7011905975e-01 cR1
                      5.4811655195e-02 cR2
                      2.0030877617e-02 a1
                      2.5040670578e-02 a3

(Asynchronous job 127 added to queue)


>>>>> Dakota finite difference gradient evaluation for x[2] + h:

---------------------
Begin Evaluation  128
---------------------
Parameters for evaluation 128:
                      4.8052881127e+02 fy
                      2.0804832877e+05 E
                      1.8392572734e-02 b
                      8.7011905975e-01 cR1
                      5.4811655195e-02 cR2
                      2.0030877617e-02 a1
                      2.5040670578e-02 a3

(Asynchronous job 128 added to queue)


>>>>> Dakota finite difference gradient evaluation for x[3] + h:

---------------------
Begin Evaluation  129
---------------------
Parameters for evaluation 129:
                      4.8052881127e+02 fy
                      2.0784048829e+05 E
                      1.8410965307e-02 b
                      8.7011905975e-01 cR1
                      5.4811655195e-02 cR2
                      2.0030877617e-02 a1
                      2.5040670578e-02 a3

(Asynchronous job 129 added to queue)


>>>>> Dakota finite difference gradient evaluation for x[4] + h:

---------------------
Begin Evaluation  130
---------------------
Parameters for evaluation 130:
                      4.8052881127e+02 fy
                      2.0784048829e+05 E
                      1.8392572734e-02 b
                      8.7098917881e-01 cR1
                      5.4811655195e-02 cR2
                      2.0030877617e-02 a1
                      2.5040670578e-02 a3

(Asynchronous job 130 added to queue)


>>>>> Dakota finite difference gradient evaluation for x[5] + h:

---------------------
Begin Evaluation  131
---------------------
Parameters for evaluation 131:
                      4.8052881127e+02 fy
                      2.0784048829e+05 E
                      1.8392572734e-02 b
                      8.7011905975e-01 cR1
                      5.4866466850e-02 cR2
                      2.0030877617e-02 a1
                      2.5040670578e-02 a3

(Asynchronous job 131 added to queue)


>>>>> Dakota finite difference gradient evaluation for x[6] + h:

---------------------
Begin Evaluation  132
---------------------
Parameters for evaluation 132:
                      4.8052881127e+02 fy
                      2.0784048829e+05 E
                      1.8392572734e-02 b
                      8.7011905975e-01 cR1
                      5.4811655195e-02 cR2
                      2.0050908494e-02 a1
                      2.5040670578e-02 a3

(Asynchronous job 132 added to queue)


>>>>> Dakota finite difference gradient evaluation for x[7] + h:

---------------------
Begin Evaluation  133
---------------------
Parameters for evaluation 133:
                      4.8052881127e+02 fy
                      2.0784048829e+05 E
                      1.8392572734e-02 b
                      8.7011905975e-01 cR1
                      5.4811655195e-02 cR2
                      2.0030877617e-02 a1
                      2.5065711248e-02 a3

(Asynchronous job 133 added to queue)



Blocking synchronize of 7 asynchronous evaluations
First pass: initiating 7 local asynchronous jobs
Initiating evaluation 127
nonblocking fork: workflow_driver1 paramsDakota.in results.out
Initiating evaluation 128
nonblocking fork: workflow_driver1 paramsDakota.in results.out
Initiating evaluation 129
nonblocking fork: workflow_driver1 paramsDakota.in results.out
Initiating evaluation 130
nonblocking fork: workflow_driver1 paramsDakota.in results.out
Initiating evaluation 131
nonblocking fork: workflow_driver1 paramsDakota.in results.out
Initiating evaluation 132
nonblocking fork: workflow_driver1 paramsDakota.in results.out
Initiating evaluation 133
nonblocking fork: workflow_driver1 paramsDakota.in results.out
Waiting on completed jobs
Evaluation 127 has completed
Evaluation 128 has completed
Evaluation 129 has completed
Evaluation 130 has completed
Evaluation 131 has completed
Waiting on completed jobs
Evaluation 132 has completed
Waiting on completed jobs
Evaluation 133 has completed

Active response data for evaluation 127:
Active set vector = { 1 1 1 1 1 1 1 1 1 1 1 1 1 1 1 1 1 1 1 1 1 1 1 1 1 1 1 1 1 1 1 1 1 1 1 1 1 1 1 1 1 1 1 1 1 1 1 1 1 1 1 1 1 1 1 1 1 1 1 1 1 1 1 1 1 1 1 1 1 1 1 1 1 1 1 1 1 1 1 1 1 1 1 1 1 1 1 1 1 1 1 1 1 1 1 1 1 1 1 1 1 1 1 1 1 1 1 1 1 1 1 1 1 1 1 1 1 1 1 1 1 1 1 1 1 1 1 1 1 1 1 1 1 1 1 1 1 1 1 1 1 1 1 1 1 1 1 1 1 1 1 1 1 1 1 1 1 1 1 1 1 1 1 1 1 1 1 1 1 1 1 1 1 1 1 1 1 1 1 1 1 1 1 1 1 1 1 1 1 1 1 1 1 1 1 1 1 1 1 1 1 1 1 1 1 1 1 1 1 1 1 1 1 1 1 1 1 1 1 1 1 1 1 1 1 1 1 1 1 1 1 1 1 1 1 1 1 1 1 1 1 1 1 1 1 1 1 1 1 1 1 1 1 1 1 1 1 1 1 1 1 1 1 1 1 1 1 1 1 1 1 1 1 1 1 1 1 1 1 1 1 1 1 1 1 1 1 1 1 1 1 1 1 1 1 1 1 1 1 1 1 1 1 1 1 1 1 1 1 1 1 1 1 1 1 1 1 1 1 1 1 1 1 1 1 1 1 1 1 1 1 1 1 1 1 1 1 1 1 1 1 1 }
                      2.4220144682e+00 stress_1
                     -2.5171555278e+02 stress_2
                     -4.9472578656e+02 stress_3
                     -4.9624660963e+02 stress_4
                     -1.6729485277e+02 stress_5
                      2.5315452961e+02 stress_6
                      4.0157571699e+02 stress_7
                      4.0244644080e+02 stress_8
                      1.5278177495e+02 stress_9
                     -2.3137926311e+02 stress_10
                     -4.4034146087e+02 stress_11
                     -4.8970479868e+02 stress_12
                     -5.0362793733e+02 stress_13
                     -5.0462135927e+02 stress_14
                     -1.7385162889e+02 stress_15
                     -3.4181541647e+02 stress_16
                     -5.1028627114e+02 stress_17
                     -3.1548524459e+02 stress_18
                      2.1074706284e+01 stress_19
                      2.9854054899e+02 stress_20
                      4.1881513490e+02 stress_21
                      4.6386895145e+02 stress_22
                      4.8247138319e+02 stress_23
                      4.8860619061e+02 stress_24
                      1.5789278982e+02 stress_25
                      2.8600524677e+02 stress_26
                      4.2987951744e+02 stress_27
                      4.6565731904e+02 stress_28
                      3.4278613418e+02 stress_29
                      1.2913061667e+02 stress_30
                     -1.2475409395e+02 stress_31
                     -3.2066526172e+02 stress_32
                     -4.2471189862e+02 stress_33
                     -4.7462923356e+02 stress_34
                     -5.0163561578e+02 stress_35
                     -5.1914522370e+02 stress_36
                     -5.3215647103e+02 stress_37
                     -5.4247842630e+02 stress_38
                     -5.5072081891e+02 stress_39
                     -5.5702980197e+02 stress_40
                     -5.6139167239e+02 stress_41
                     -5.6374743734e+02 stress_42
                     -5.4828063528e+02 stress_43
                     -1.6119204884e+02 stress_44
                      1.0609744821e+02 stress_45
                     -1.0010828600e+02 stress_46
                     -4.5360738590e+02 stress_47
                     -1.5717532414e+02 stress_48
                     -2.6011141554e+02 stress_49
                     -4.1992625249e+02 stress_50
                     -5.6912943479e+02 stress_51
                     -3.9915559292e+02 stress_52
                     -6.1480101624e+01 stress_53
                      2.2638713475e+02 stress_54
                      3.5842284758e+02 stress_55
                      4.0809385811e+02 stress_56
                      4.2318125468e+02 stress_57
                      3.3681208888e+02 stress_58
                      2.1952096555e+01 stress_59
                     -3.1588818270e+02 stress_60
                     -4.7165816694e+02 stress_61
                     -5.2167925676e+02 stress_62
                     -5.3271559788e+02 stress_63
                     -2.6423897740e+02 stress_64
                      1.1320501612e+02 stress_65
                      2.0033250310e+02 stress_66
                     -7.1998946049e+01 stress_67
                     -4.4097086423e+02 stress_68
                     -5.3528967691e+02 stress_69
                     -5.3637024552e+02 stress_70
                     -4.4097195209e+02 stress_71
                     -2.6871964541e+02 stress_72
                     -4.5169126158e+01 stress_73
                      1.6669860687e+02 stress_74
                      3.1141236950e+02 stress_75
                      3.9223316037e+02 stress_76
                      4.3656304617e+02 stress_77
                      4.6344378530e+02 stress_78
                      4.8209485361e+02 stress_79
                      4.9657771846e+02 stress_80
                      5.0864385240e+02 stress_81
                      5.1902411996e+02 stress_82
                      5.2798829917e+02 stress_83
                      5.3559717839e+02 stress_84
                      5.4181681143e+02 stress_85
                      5.4658163654e+02 stress_86
                      5.4982396814e+02 stress_87
                      5.5148806485e+02 stress_88
                      4.7775989379e+02 stress_89
                      4.4078953824e+01 stress_90
                     -1.5927651376e+02 stress_91
                      1.3095497061e+02 stress_92
                      4.7847889973e+02 stress_93
                      4.8482781393e+02 stress_94
                      4.2462299103e+02 stress_95
                      3.1644491482e+02 stress_96
                      1.6574310166e+02 stress_97
                     -9.8679508334e+00 stress_98
                     -1.7723325945e+02 stress_99
                     -3.0618665086e+02 stress_100
                     -3.9094858437e+02 stress_101
                     -4.4324517581e+02 stress_102
                     -4.7627144125e+02 stress_103
                     -4.9879422801e+02 stress_104
                     -5.1570221118e+02 stress_105
                     -5.2957938537e+02 stress_106
                     -5.4177359607e+02 stress_107
                     -5.5298569913e+02 stress_108
                     -5.6357376403e+02 stress_109
                     -5.7371018428e+02 stress_110
                     -5.8346348870e+02 stress_111
                     -5.9284237275e+02 stress_112
                     -6.0182278782e+02 stress_113
                     -6.1036146134e+02 stress_114
                     -6.1840441228e+02 stress_115
                     -6.2589341245e+02 stress_116
                     -6.3276864589e+02 stress_117
                     -6.3897369007e+02 stress_118
                     -6.4445504441e+02 stress_119
                     -6.4916301707e+02 stress_120
                     -6.5305636121e+02 stress_121
                     -6.5609911450e+02 stress_122
                     -6.5826289163e+02 stress_123
                     -6.5952849812e+02 stress_124
                     -6.5986846547e+02 stress_125
                     -5.5729203651e+02 stress_126
                     -3.0636991126e+02 stress_127
                      5.7461238750e-01 stress_128
                      2.1962955205e+02 stress_129
                      3.2885610100e+02 stress_130
                      3.7980127175e+02 stress_131
                      4.0467838787e+02 stress_132
                      4.1597779996e+02 stress_133
                      4.1660803158e+02 stress_134
                      1.1654806027e+01 stress_135
                     -1.0242553108e+01 stress_136
                      1.7488236525e+02 stress_137
                      1.3874226009e+02 stress_138
                     -3.3628171128e+01 stress_139
                     -3.2081677101e+02 stress_140
                     -5.3015906055e+02 stress_141
                     -6.1408613566e+02 stress_142
                     -6.4666676490e+02 stress_143
                     -6.6149318935e+02 stress_144
                     -6.6761716345e+02 stress_145
                     -6.4721636477e+02 stress_146
                     -4.0916736702e+02 stress_147
                     -5.8226772227e+01 stress_148
                      1.9423046069e+02 stress_149
                      3.0680307911e+02 stress_150
                      3.4846506426e+02 stress_151
                      3.5360969998e+02 stress_152
                      1.3715570281e+02 stress_153
                     -2.3134310386e+02 stress_154
                     -4.9353758180e+02 stress_155
                     -5.9054495209e+02 stress_156
                     -6.1762835756e+02 stress_157
                     -4.9490096148e+02 stress_158
                     -8.9762484548e+01 stress_159
                      9.3713484994e+01 stress_160
                     -7.3104731592e+01 stress_161
                     -4.6857555238e+02 stress_162
                     -6.2430188590e+02 stress_163
                     -6.3527889588e+02 stress_164
                     -5.9351569494e+02 stress_165
                     -5.1122535241e+02 stress_166
                     -3.9043370109e+02 stress_167
                     -2.3819595689e+02 stress_168
                     -7.1725331903e+01 stress_169
                      8.3298075665e+01 stress_170
                      2.0604163698e+02 stress_171
                      2.9198600576e+02 stress_172
                      3.4875430931e+02 stress_173
                      3.8635765459e+02 stress_174
                      4.1245191887e+02 stress_175
                      4.3186084179e+02 stress_176
                      4.4740871648e+02 stress_177
                      4.6071177390e+02 stress_178
                      4.7268926886e+02 stress_179
                      4.8386443061e+02 stress_180
                      4.9453241180e+02 stress_181
                      5.0485318965e+02 stress_182
                      5.1490694963e+02 stress_183
                      5.2472408677e+02 stress_184
                      5.3430491268e+02 stress_185
                      5.4363029433e+02 stress_186
                      5.5266921580e+02 stress_187
                      5.6138373552e+02 stress_188
                      5.6973132434e+02 stress_189
                      5.7766802134e+02 stress_190
                      5.8514960440e+02 stress_191
                      5.9213169740e+02 stress_192
                      5.9857348839e+02 stress_193
                      6.0443537026e+02 stress_194
                      6.0968017431e+02 stress_195
                      6.1427598500e+02 stress_196
                      6.1819273708e+02 stress_197
                      6.2140624167e+02 stress_198
                      6.2389598105e+02 stress_199
                      6.2564518728e+02 stress_200
                      6.2664323349e+02 stress_201
                      6.2669211952e+02 stress_202
                      2.6467984408e+02 stress_203
                     -7.9617343680e+01 stress_204
                      2.9309925263e+01 stress_205
                      4.6844781602e+02 stress_206
                      4.8764037405e+02 stress_207
                      4.2281294007e+02 stress_208
                      3.0570047923e+02 stress_209
                      1.4374467488e+02 stress_210
                     -3.9704348358e+01 stress_211
                     -2.0566813638e+02 stress_212
                     -3.2624912325e+02 stress_213
                     -4.0227596616e+02 stress_214
                     -4.4857679913e+02 stress_215
                     -4.7817516960e+02 stress_216
                     -4.9891725141e+02 stress_217
                     -5.1498088325e+02 stress_218
                     -5.2851313028e+02 stress_219
                     -5.4060979680e+02 stress_220
                     -5.5182534065e+02 stress_221
                     -5.6242841815e+02 stress_222
                     -5.7253363239e+02 stress_223
                     -5.8216985567e+02 stress_224
                     -5.9131875601e+02 stress_225
                     -5.9993529510e+02 stress_226
                     -6.0796053769e+02 stress_227
                     -6.1533083784e+02 stress_228
                     -6.2197955783e+02 stress_229
                     -6.2784504684e+02 stress_230
                     -6.3286998374e+02 stress_231
                     -6.3700241753e+02 stress_232
                     -6.4020152409e+02 stress_233
                     -6.4243379564e+02 stress_234
                     -6.4367492156e+02 stress_235
                     -6.3718219533e+02 stress_236
                     -2.7253416019e+02 stress_237
                      2.2673969970e+01 stress_238
                     -1.9741349049e+02 stress_239
                     -4.4746939664e+02 stress_240
                     -1.1647638655e+02 stress_241
                      6.0272156962e+01 stress_242
                     -2.7223030440e+02 stress_243
                     -3.9607528068e+02 stress_244
                     -5.0463224900e+02 stress_245
                     -3.1961283385e+02 stress_246
                      1.5045107764e+01 stress_247
                      2.7654779242e+02 stress_248
                      3.9107483579e+02 stress_249
                      4.3411595265e+02 stress_250
                      4.4653611846e+02 stress_251
                      3.4111301939e+02 stress_252
                      1.9513858585e+01 stress_253
                     -3.1451930379e+02 stress_254
                     -4.8455333076e+02 stress_255
                     -5.4609784110e+02 stress_256
                     -5.5845339199e+02 stress_257
                     -2.8115619025e+02 stress_258
                      9.8211358923e+01 stress_259
                      2.1647911973e+02 stress_260
                      1.8308766568e+00 stress_261
                     -3.6377995925e+02 stress_262
                     -5.2160089646e+02 stress_263
                     -5.4346319207e+02 stress_264
                     -5.0141764906e+02 stress_265
                     -4.0719841203e+02 stress_266
                     -2.6448791131e+02 stress_267
                     -8.7068049827e+01 stress_268
                      9.4236176397e+01 stress_269
                      2.4348924544e+02 stress_270
                      3.4592770056e+02 stress_271
                      4.0999158572e+02 stress_272
                      4.5001433651e+02 stress_273
                      4.7662697378e+02 stress_274
                      4.9600796547e+02 stress_275
                      5.1146418123e+02 stress_276
                      5.2472979912e+02 stress_277
                      5.3670827685e+02 stress_278
                      5.4786421033e+02 stress_279
                      5.5842518668e+02 stress_280
                      5.6848760522e+02 stress_281
                      5.7807393063e+02 stress_282
                      5.8716428013e+02 stress_283
                      5.9571587384e+02 stress_284
                      6.0367266337e+02 stress_285
                      6.1097430480e+02 stress_286
                      6.1755948786e+02 stress_287
                      6.2336851688e+02 stress_288
                      6.2834800471e+02 stress_289
                      6.3245021969e+02 stress_290
                      6.3563460819e+02 stress_291
                      6.3787046754e+02 stress_292
                      6.3913495257e+02 stress_293
                      6.3915362338e+02 stress_294
                      2.6526527335e+02 stress_295
                     -7.1267540710e+01 stress_296
                      5.9356651135e+01 stress_297
                      4.8391973410e+02 stress_298
                      4.9881563793e+02 stress_299
                      4.5529582787e+02 stress_300
                      3.7694327312e+02 stress_301
                      2.6555906215e+02 stress_302
                      1.2747193111e+02 stress_303
                     -2.2834948188e+01 stress_304
                     -1.6371372395e+02 stress_305
                     -2.7717936763e+02 stress_306
                     -3.5835188606e+02 stress_307
                     -4.1295891425e+02 stress_308
                     -4.4954197801e+02 stress_309
                     -4.7500175006e+02 stress_310
                     -4.9387121843e+02 stress_311
                     -5.0888791244e+02 stress_312
                     -5.2165472810e+02 stress_313
                     -5.3310726710e+02 stress_314
                     -5.4379166685e+02 stress_315
                     -5.5402603024e+02 stress_316
                     -5.6399361229e+02 stress_317
                     -5.7379529911e+02 stress_318
                     -5.8348118927e+02 stress_319
                     -5.9306960254e+02 stress_320
                     -6.0255778084e+02 stress_321
                     -6.1193003068e+02 stress_322
                     -6.2116138220e+02 stress_323
                     -6.3022153310e+02 stress_324
                     -6.3907700671e+02 stress_325
                     -6.4769125159e+02 stress_326
                     -6.5602794892e+02 stress_327
                     -6.6404891014e+02 stress_328
                     -6.7171815997e+02 stress_329
                     -6.7899983841e+02 stress_330
                     -6.8585884841e+02 stress_331
                     -6.9226281966e+02 stress_332
                     -6.9818021022e+02 stress_333
                     -7.0358247816e+02 stress_334
                     -7.0844370428e+02 stress_335
                     -7.1273851272e+02 stress_336
                     -7.1644704972e+02 stress_337
                     -7.1955036548e+02 stress_338
                     -7.2203293610e+02 stress_339
                     -7.2388293757e+02 stress_340
                     -7.2509093178e+02 stress_341
                     -7.2565069069e+02 stress_342


Active response data for evaluation 128:
Active set vector = { 1 1 1 1 1 1 1 1 1 1 1 1 1 1 1 1 1 1 1 1 1 1 1 1 1 1 1 1 1 1 1 1 1 1 1 1 1 1 1 1 1 1 1 1 1 1 1 1 1 1 1 1 1 1 1 1 1 1 1 1 1 1 1 1 1 1 1 1 1 1 1 1 1 1 1 1 1 1 1 1 1 1 1 1 1 1 1 1 1 1 1 1 1 1 1 1 1 1 1 1 1 1 1 1 1 1 1 1 1 1 1 1 1 1 1 1 1 1 1 1 1 1 1 1 1 1 1 1 1 1 1 1 1 1 1 1 1 1 1 1 1 1 1 1 1 1 1 1 1 1 1 1 1 1 1 1 1 1 1 1 1 1 1 1 1 1 1 1 1 1 1 1 1 1 1 1 1 1 1 1 1 1 1 1 1 1 1 1 1 1 1 1 1 1 1 1 1 1 1 1 1 1 1 1 1 1 1 1 1 1 1 1 1 1 1 1 1 1 1 1 1 1 1 1 1 1 1 1 1 1 1 1 1 1 1 1 1 1 1 1 1 1 1 1 1 1 1 1 1 1 1 1 1 1 1 1 1 1 1 1 1 1 1 1 1 1 1 1 1 1 1 1 1 1 1 1 1 1 1 1 1 1 1 1 1 1 1 1 1 1 1 1 1 1 1 1 1 1 1 1 1 1 1 1 1 1 1 1 1 1 1 1 1 1 1 1 1 1 1 1 1 1 1 1 1 1 1 1 1 1 1 1 1 1 1 1 1 1 1 1 1 1 }
                      2.4244364827e+00 stress_1
                     -2.5196724899e+02 stress_2
                     -4.9426076877e+02 stress_3
                     -4.9578071380e+02 stress_4
                     -1.6651671757e+02 stress_5
                      2.5368944373e+02 stress_6
                      4.0153442071e+02 stress_7
                      4.0240105485e+02 stress_8
                      1.5249355558e+02 stress_9
                     -2.3161958350e+02 stress_10
                     -4.3997494514e+02 stress_11
                     -4.8923684532e+02 stress_12
                     -5.0316057640e+02 stress_13
                     -5.0415467340e+02 stress_14
                     -1.7308493886e+02 stress_15
                     -3.4121668990e+02 stress_16
                     -5.0984409667e+02 stress_17
                     -3.1485216341e+02 stress_18
                      2.1863725305e+01 stress_19
                      2.9889717725e+02 stress_20
                      4.1873194190e+02 stress_21
                      4.6360636599e+02 stress_22
                      4.8214626723e+02 stress_23
                      4.8826370548e+02 stress_24
                      1.5725150866e+02 stress_25
                      2.8549207864e+02 stress_26
                      4.2951271372e+02 stress_27
                      4.6532388925e+02 stress_28
                      3.4233065097e+02 stress_29
                      1.2849713161e+02 stress_30
                     -1.2538044462e+02 stress_31
                     -3.2093936720e+02 stress_32
                     -4.2464016504e+02 stress_33
                     -4.7437672925e+02 stress_34
                     -5.0130465032e+02 stress_35
                     -5.1878206587e+02 stress_36
                     -5.3178128054e+02 stress_37
                     -5.4210008160e+02 stress_38
                     -5.5034309178e+02 stress_39
                     -5.5665397088e+02 stress_40
                     -5.6101771932e+02 stress_41
                     -5.6337466047e+02 stress_42
                     -5.4789239202e+02 stress_43
                     -1.6048034203e+02 stress_44
                      1.0673419778e+02 stress_45
                     -9.9677456461e+01 stress_46
                     -4.5329001191e+02 stress_47
                     -1.5659001517e+02 stress_48
                     -2.5962903438e+02 stress_49
                     -4.1959019188e+02 stress_50
                     -5.6872254866e+02 stress_51
                     -3.9858144566e+02 stress_52
                     -6.0714077697e+01 stress_53
                      2.2683599595e+02 stress_54
                      3.5847194597e+02 stress_55
                      4.0795716489e+02 stress_56
                      4.2298826388e+02 stress_57
                      3.3653288696e+02 stress_58
                      2.1415424486e+01 stress_59
                     -3.1625393270e+02 stress_60
                     -4.7163787167e+02 stress_61
                     -5.2150396672e+02 stress_62
                     -5.3250761572e+02 stress_63
                     -2.6377692547e+02 stress_64
                      1.1370511429e+02 stress_65
                      2.0071586388e+02 stress_66
                     -7.1875557865e+01 stress_67
                     -4.4077614704e+02 stress_68
                     -5.3493821123e+02 stress_69
                     -5.3601728050e+02 stress_70
                     -4.4052394093e+02 stress_71
                     -2.6811445105e+02 stress_72
                     -4.4466769006e+01 stress_73
                      1.6723433126e+02 stress_74
                      3.1160279979e+02 stress_75
                      3.9214287649e+02 stress_76
                      4.3631092066e+02 stress_77
                      4.6310852329e+02 stress_78
                      4.8171861172e+02 stress_79
                      4.9618224923e+02 stress_80
                      5.0824048744e+02 stress_81
                      5.1861880509e+02 stress_82
                      5.2758406721e+02 stress_83
                      5.3519539799e+02 stress_84
                      5.4141784970e+02 stress_85
                      5.4618523621e+02 stress_86
                      5.4942948039e+02 stress_87
                      5.5109460650e+02 stress_88
                      4.7729282933e+02 stress_89
                      4.3316140626e+01 stress_90
                     -1.5991385410e+02 stress_91
                      1.3060274465e+02 stress_92
                      4.7805852838e+02 stress_93
                      4.8439722908e+02 stress_94
                      4.2413227360e+02 stress_95
                      3.1584903310e+02 stress_96
                      1.6502519761e+02 stress_97
                     -1.0636590729e+01 stress_98
                     -1.7787654478e+02 stress_99
                     -3.0656086025e+02 stress_100
                     -3.9105034512e+02 stress_101
                     -4.4314940964e+02 stress_102
                     -4.7605275647e+02 stress_103
                     -4.9850389692e+02 stress_104
                     -5.1537159371e+02 stress_105
                     -5.2922711619e+02 stress_106
                     -5.4141081924e+02 stress_107
                     -5.5261920136e+02 stress_108
                     -5.6320775507e+02 stress_109
                     -5.7334730399e+02 stress_110
                     -5.8310538479e+02 stress_111
                     -5.9249003925e+02 stress_112
                     -6.0147677000e+02 stress_113
                     -6.1002198293e+02 stress_114
                     -6.1807145680e+02 stress_115
                     -6.2556677803e+02 stress_116
                     -6.3244798264e+02 stress_117
                     -6.3865852937e+02 stress_118
                     -6.4414481983e+02 stress_119
                     -6.4885708077e+02 stress_120
                     -6.5275400117e+02 stress_121
                     -6.5579956647e+02 stress_122
                     -6.5796535173e+02 stress_123
                     -6.5923213587e+02 stress_124
                     -6.5957241992e+02 stress_125
                     -5.5689379478e+02 stress_126
                     -3.0575408411e+02 stress_127
                      1.2088199497e+00 stress_128
                      2.1991194316e+02 stress_129
                      3.2880908869e+02 stress_130
                      3.7957766657e+02 stress_131
                      4.0437286227e+02 stress_132
                      4.1563855685e+02 stress_133
                      4.1626700139e+02 stress_134
                      1.0958454726e+01 stress_135
                     -1.0950052579e+01 stress_136
                      1.7434930426e+02 stress_137
                      1.3817307236e+02 stress_138
                     -3.4359733054e+01 stress_139
                     -3.2158884979e+02 stress_140
                     -5.3046909870e+02 stress_141
                     -6.1405574721e+02 stress_142
                     -6.4650860485e+02 stress_143
                     -6.6129078493e+02 stress_144
                     -6.6740083266e+02 stress_145
                     -6.4697963420e+02 stress_146
                     -4.0870275781e+02 stress_147
                     -5.7627303191e+01 stress_148
                      1.9452836691e+02 stress_149
                      3.0680201505e+02 stress_150
                      3.4833054159e+02 stress_151
                      3.5345827528e+02 stress_152
                      1.3679228544e+02 stress_153
                     -2.3187743060e+02 stress_154
                     -4.9375008535e+02 stress_155
                     -5.9051101874e+02 stress_156
                     -6.1752145396e+02 stress_157
                     -4.9467206628e+02 stress_158
                     -8.9272524361e+01 stress_159
                      9.4108758820e+01 stress_160
                     -7.2875224604e+01 stress_161
                     -4.6849114193e+02 stress_162
                     -6.2402222695e+02 stress_163
                     -6.3498699537e+02 stress_164
                     -5.9318204689e+02 stress_165
                     -5.1081021028e+02 stress_166
                     -3.8990650689e+02 stress_167
                     -2.3756201695e+02 stress_168
                     -7.1064921896e+01 stress_169
                      8.3841578120e+01 stress_170
                      2.0635762096e+02 stress_171
                      2.9206062844e+02 stress_172
                      3.4863708561e+02 stress_173
                      3.8610877182e+02 stress_174
                      4.1211889898e+02 stress_175
                      4.3147603620e+02 stress_176
                      4.4699302255e+02 stress_177
                      4.6027854118e+02 stress_178
                      4.7224709221e+02 stress_179
                      4.8341892605e+02 stress_180
                      4.9408730768e+02 stress_181
                      5.0441099265e+02 stress_182
                      5.1446935439e+02 stress_183
                      5.2429223158e+02 stress_184
                      5.3387954237e+02 stress_185
                      5.4321186584e+02 stress_186
                      5.5225796824e+02 stress_187
                      5.6097973815e+02 stress_188
                      5.6933450940e+02 stress_189
                      5.7727820845e+02 stress_190
                      5.8476651840e+02 stress_191
                      5.9175498127e+02 stress_192
                      5.9820271602e+02 stress_193
                      6.0407005458e+02 stress_194
                      6.0931977489e+02 stress_195
                      6.1391991702e+02 stress_196
                      6.1784037623e+02 stress_197
                      6.2105693229e+02 stress_198
                      6.2354904161e+02 stress_199
                      6.2529991575e+02 stress_200
                      6.2629891464e+02 stress_201
                      6.2634784734e+02 stress_202
                      2.6400710505e+02 stress_203
                     -8.0294579824e+01 stress_204
                      2.8741613663e+01 stress_205
                      4.6815982058e+02 stress_206
                      4.8733752383e+02 stress_207
                      4.2244535919e+02 stress_208
                      3.0521975070e+02 stress_209
                      1.4313859390e+02 stress_210
                     -4.0344274063e+01 stress_211
                     -2.0615698944e+02 stress_212
                     -3.2647332190e+02 stress_213
                     -4.0226034240e+02 stress_214
                     -4.4839832890e+02 stress_215
                     -4.7789908732e+02 stress_216
                     -4.9858576199e+02 stress_217
                     -5.1461917190e+02 stress_218
                     -5.2813604034e+02 stress_219
                     -5.4022618656e+02 stress_220
                     -5.5144059232e+02 stress_221
                     -5.6204584325e+02 stress_222
                     -5.7215526314e+02 stress_223
                     -5.8179690009e+02 stress_224
                     -5.9095186719e+02 stress_225
                     -5.9957473541e+02 stress_226
                     -6.0760628262e+02 stress_227
                     -6.1498264561e+02 stress_228
                     -6.2163701518e+02 stress_229
                     -6.2750760564e+02 stress_230
                     -6.3253698729e+02 stress_231
                     -6.3667312126e+02 stress_232
                     -6.3987511723e+02 stress_233
                     -6.4210941681e+02 stress_234
                     -6.4335167428e+02 stress_235
                     -6.3685245533e+02 stress_236
                     -2.7187488698e+02 stress_237
                      2.3372644583e+01 stress_238
                     -1.9692841548e+02 stress_239
                     -4.4714751256e+02 stress_240
                     -1.1586510583e+02 stress_241
                      6.0906339137e+01 stress_242
                     -2.7189919041e+02 stress_243
                     -3.9580719187e+02 stress_244
                     -5.0437440480e+02 stress_245
                     -3.1917407058e+02 stress_246
                      1.5650142535e+01 stress_247
                      2.7684554325e+02 stress_248
                      3.9104269642e+02 stress_249
                      4.3393618877e+02 stress_250
                      4.4631421673e+02 stress_251
                      3.4078603877e+02 stress_252
                      1.8922610329e+01 stress_253
                     -3.1503249583e+02 stress_254
                     -4.8474969806e+02 stress_255
                     -5.4612771180e+02 stress_256
                     -5.5844787760e+02 stress_257
                     -2.8088623932e+02 stress_258
                      9.8584382215e+01 stress_259
                      2.1673750971e+02 stress_260
                      1.8808687071e+00 stress_261
                     -3.6386984370e+02 stress_262
                     -5.2153999788e+02 stress_263
                     -5.4336832324e+02 stress_264
                     -5.0128075012e+02 stress_265
                     -4.0696837406e+02 stress_266
                     -2.6412876433e+02 stress_267
                     -8.6604020703e+01 stress_268
                      9.4677624770e+01 stress_269
                      2.4375494263e+02 stress_270
                      3.4596854404e+02 stress_271
                      4.0985169654e+02 stress_272
                      4.4975670580e+02 stress_273
                      4.7629949641e+02 stress_274
                      4.9564108976e+02 stress_275
                      5.1107627812e+02 stress_276
                      5.2433190216e+02 stress_277
                      5.3630709823e+02 stress_278
                      5.4746389266e+02 stress_279
                      5.5802830246e+02 stress_280
                      5.6809573179e+02 stress_281
                      5.7768798778e+02 stress_282
                      5.8678473364e+02 stress_283
                      5.9534286282e+02 stress_284
                      6.0330608156e+02 stress_285
                      6.1061385655e+02 stress_286
                      6.1720472703e+02 stress_287
                      6.2301887525e+02 stress_288
                      6.2800281636e+02 stress_289
                      6.3210873964e+02 stress_290
                      6.3529602892e+02 stress_291
                      6.3753393567e+02 stress_292
                      6.3879958229e+02 stress_293
                      6.3881827028e+02 stress_294
                      2.6459228065e+02 stress_295
                     -7.1946675531e+01 stress_296
                      5.8808118955e+01 stress_297
                      4.8360920282e+02 stress_298
                      4.9849290664e+02 stress_299
                      4.5492959907e+02 stress_300
                      3.7649959835e+02 stress_301
                      2.6501281765e+02 stress_302
                      1.2683024252e+02 stress_303
                     -2.3500711742e+01 stress_304
                     -1.6427763227e+02 stress_305
                     -2.7753957167e+02 stress_306
                     -3.5848851225e+02 stress_307
                     -4.1291169114e+02 stress_308
                     -4.4936476514e+02 stress_309
                     -4.7473937192e+02 stress_310
                     -4.9355523592e+02 stress_311
                     -5.0853919406e+02 stress_312
                     -5.2128684288e+02 stress_313
                     -5.3272907368e+02 stress_314
                     -5.4340903100e+02 stress_315
                     -5.5364290498e+02 stress_316
                     -5.6361270822e+02 stress_317
                     -5.7341850192e+02 stress_318
                     -5.8310982262e+02 stress_319
                     -5.9270459626e+02 stress_320
                     -6.0219977995e+02 stress_321
                     -6.1157946803e+02 stress_322
                     -6.2081852683e+02 stress_323
                     -6.2988652411e+02 stress_324
                     -6.3874987718e+02 stress_325
                     -6.4737194475e+02 stress_326
                     -6.5571633181e+02 stress_327
                     -6.6374478174e+02 stress_328
                     -6.7142126038e+02 stress_329
                     -6.7870985436e+02 stress_330
                     -6.8557541796e+02 stress_331
                     -6.9198553792e+02 stress_332
                     -6.9790863244e+02 stress_333
                     -7.0331612451e+02 stress_334
                     -7.0818206381e+02 stress_335
                     -7.1248104503e+02 stress_336
                     -7.1619319131e+02 stress_337
                     -7.1929953139e+02 stress_338
                     -7.2178452390e+02 stress_339
                     -7.2363633153e+02 stress_340
                     -7.2484550574e+02 stress_341
                     -7.2540581159e+02 stress_342


Active response data for evaluation 129:
Active set vector = { 1 1 1 1 1 1 1 1 1 1 1 1 1 1 1 1 1 1 1 1 1 1 1 1 1 1 1 1 1 1 1 1 1 1 1 1 1 1 1 1 1 1 1 1 1 1 1 1 1 1 1 1 1 1 1 1 1 1 1 1 1 1 1 1 1 1 1 1 1 1 1 1 1 1 1 1 1 1 1 1 1 1 1 1 1 1 1 1 1 1 1 1 1 1 1 1 1 1 1 1 1 1 1 1 1 1 1 1 1 1 1 1 1 1 1 1 1 1 1 1 1 1 1 1 1 1 1 1 1 1 1 1 1 1 1 1 1 1 1 1 1 1 1 1 1 1 1 1 1 1 1 1 1 1 1 1 1 1 1 1 1 1 1 1 1 1 1 1 1 1 1 1 1 1 1 1 1 1 1 1 1 1 1 1 1 1 1 1 1 1 1 1 1 1 1 1 1 1 1 1 1 1 1 1 1 1 1 1 1 1 1 1 1 1 1 1 1 1 1 1 1 1 1 1 1 1 1 1 1 1 1 1 1 1 1 1 1 1 1 1 1 1 1 1 1 1 1 1 1 1 1 1 1 1 1 1 1 1 1 1 1 1 1 1 1 1 1 1 1 1 1 1 1 1 1 1 1 1 1 1 1 1 1 1 1 1 1 1 1 1 1 1 1 1 1 1 1 1 1 1 1 1 1 1 1 1 1 1 1 1 1 1 1 1 1 1 1 1 1 1 1 1 1 1 1 1 1 1 1 1 1 1 1 1 1 1 1 1 1 1 1 1 }
                      2.4220144682e+00 stress_1
                     -2.5171554320e+02 stress_2
                     -4.9425035253e+02 stress_3
                     -4.9577141205e+02 stress_4
                     -1.6682796085e+02 stress_5
                      2.5329153314e+02 stress_6
                      4.0135410895e+02 stress_7
                      4.0222239611e+02 stress_8
                      1.5256112517e+02 stress_9
                     -2.3138504083e+02 stress_10
                     -4.3994482690e+02 stress_11
                     -4.8924043072e+02 stress_12
                     -5.0316227981e+02 stress_13
                     -5.0415603987e+02 stress_14
                     -1.7340157846e+02 stress_15
                     -3.4136536588e+02 stress_16
                     -5.0983076527e+02 stress_17
                     -3.1503167191e+02 stress_18
                      2.1438693831e+01 stress_19
                      2.9855365643e+02 stress_20
                      4.1855537733e+02 stress_21
                      4.6350447369e+02 stress_22
                      4.8207192382e+02 stress_23
                      4.8819736864e+02 stress_24
                      1.5749979931e+02 stress_25
                      2.8561225655e+02 stress_26
                      4.2948778300e+02 stress_27
                      4.6526444420e+02 stress_28
                      3.4239366522e+02 stress_29
                      1.2875583222e+02 stress_30
                     -1.2499957433e+02 stress_31
                     -3.2064037195e+02 stress_32
                     -4.2446837333e+02 stress_33
                     -4.7427837343e+02 stress_34
                     -5.0124084574e+02 stress_35
                     -5.1873460220e+02 stress_36
                     -5.3174201454e+02 stress_37
                     -5.4206519726e+02 stress_38
                     -5.5031066977e+02 stress_39
                     -5.5662296559e+02 stress_40
                     -5.6098750783e+02 stress_41
                     -5.6334482485e+02 stress_42
                     -5.4787802300e+02 stress_43
                     -1.6082095304e+02 stress_44
                      1.0629929568e+02 stress_45
                     -9.9906297061e+01 stress_46
                     -4.5328609229e+02 stress_47
                     -1.5686815065e+02 stress_48
                     -2.5980423795e+02 stress_49
                     -4.1961236907e+02 stress_50
                     -5.6870727611e+02 stress_51
                     -3.9873477873e+02 stress_52
                     -6.1131488454e+01 stress_53
                      2.2643714962e+02 stress_54
                      3.5821347380e+02 stress_55
                      4.0777254214e+02 stress_56
                      4.2282694767e+02 stress_57
                      3.3645786035e+02 stress_58
                      2.1626334903e+01 stress_59
                     -3.1596234476e+02 stress_60
                     -4.7146755508e+02 stress_61
                     -5.2139168678e+02 stress_62
                     -5.3240811309e+02 stress_63
                     -2.6393862818e+02 stress_64
                      1.1333759525e+02 stress_65
                      2.0036464038e+02 stress_66
                     -7.1960667766e+01 stress_67
                     -4.4071470307e+02 stress_68
                     -5.3491234691e+02 stress_69
                     -5.3599173105e+02 stress_70
                     -4.4059361218e+02 stress_71
                     -2.6834877252e+02 stress_72
                     -4.4860836594e+01 stress_73
                      1.6681988453e+02 stress_74
                      3.1129315270e+02 stress_75
                      3.9193966353e+02 stress_76
                      4.3617431232e+02 stress_77
                      4.6300870620e+02 stress_78
                      4.8163902277e+02 stress_79
                      4.9611416529e+02 stress_80
                      5.0817923306e+02 stress_81
                      5.1856177245e+02 stress_82
                      5.2752973298e+02 stress_83
                      5.3514282888e+02 stress_84
                      5.4136644402e+02 stress_85
                      5.4613458396e+02 stress_86
                      5.4937928267e+02 stress_87
                      5.5104462567e+02 stress_88
                      4.7731651509e+02 stress_89
                      4.3703855374e+01 stress_90
                     -1.5948916152e+02 stress_91
                      1.3073978241e+02 stress_92
                      4.7805755340e+02 stress_93
                      4.8439832942e+02 stress_94
                      4.2419354232e+02 stress_95
                      3.1601695961e+02 stress_96
                      1.6532935461e+02 stress_97
                     -1.0219872600e+01 stress_98
                     -1.7744050117e+02 stress_99
                     -3.0619800779e+02 stress_100
                     -3.9078589987e+02 stress_101
                     -4.4296334948e+02 stress_102
                     -4.7591835596e+02 stress_103
                     -4.9840149742e+02 stress_104
                     -5.1528888057e+02 stress_105
                     -5.2915671350e+02 stress_106
                     -5.4134830961e+02 stress_107
                     -5.5256189249e+02 stress_108
                     -5.6315396599e+02 stress_109
                     -5.7329595761e+02 stress_110
                     -5.8305577291e+02 stress_111
                     -5.9244168451e+02 stress_112
                     -6.0142934318e+02 stress_113
                     -6.0997525195e+02 stress_114
                     -6.1802525460e+02 stress_115
                     -6.2552098193e+02 stress_116
                     -6.3240250074e+02 stress_117
                     -6.3861329152e+02 stress_118
                     -6.4409977131e+02 stress_119
                     -6.4881217795e+02 stress_120
                     -6.5270920840e+02 stress_121
                     -6.5575485375e+02 stress_122
                     -6.5792069302e+02 stress_123
                     -6.5918750767e+02 stress_124
                     -6.5952779979e+02 stress_125
                     -5.5695155914e+02 stress_126
                     -3.0604593748e+02 stress_127
                      7.5593411259e-01 stress_128
                      2.1953015263e+02 stress_129
                      3.2854428781e+02 stress_130
                      3.7938283706e+02 stress_131
                      4.0421240035e+02 stress_132
                      4.1549283060e+02 stress_133
                      4.1612207032e+02 stress_134
                      1.1193444025e+01 stress_135
                     -1.0698589829e+01 stress_136
                      1.7442110770e+02 stress_137
                      1.3828100918e+02 stress_138
                     -3.4084462327e+01 stress_139
                     -3.2115080576e+02 stress_140
                     -5.3016199097e+02 stress_141
                     -6.1388420150e+02 stress_142
                     -6.4639219569e+02 stress_143
                     -6.6119498414e+02 stress_144
                     -6.6731204385e+02 stress_145
                     -6.4691124567e+02 stress_146
                     -4.0886728212e+02 stress_147
                     -5.8033515791e+01 stress_148
                      1.9415110529e+02 stress_149
                      3.0652381621e+02 stress_150
                      3.4810247775e+02 stress_151
                      3.5323676732e+02 stress_152
                      1.3678498503e+02 stress_153
                     -2.3161589079e+02 stress_154
                     -4.9352254520e+02 stress_155
                     -5.9036380253e+02 stress_156
                     -6.1740036444e+02 stress_157
                     -4.9467333256e+02 stress_158
                     -8.9606087388e+01 stress_159
                      9.3732696659e+01 stress_160
                     -7.3084997503e+01 stress_161
                     -4.6843163871e+02 stress_162
                     -6.2398663852e+02 stress_163
                     -6.3495291374e+02 stress_164
                     -5.9318972055e+02 stress_165
                     -5.1089977240e+02 stress_166
                     -3.9011244881e+02 stress_167
                     -2.3789722424e+02 stress_168
                     -7.1495847667e+01 stress_169
                      8.3393310477e+01 stress_170
                      2.0596468691e+02 stress_171
                      2.9174957891e+02 stress_172
                      3.4839882779e+02 stress_173
                      3.8592367858e+02 stress_174
                      4.1196967831e+02 stress_175
                      4.3135043546e+02 stress_176
                      4.4688299867e+02 stress_177
                      4.6017893093e+02 stress_178
                      4.7215457399e+02 stress_179
                      4.8333133602e+02 stress_180
                      4.9400321171e+02 stress_181
                      5.0432942174e+02 stress_182
                      5.1438964130e+02 stress_183
                      5.2421390810e+02 stress_184
                      5.3380227416e+02 stress_185
                      5.4313541004e+02 stress_186
                      5.5218214564e+02 stress_187
                      5.6090441452e+02 stress_188
                      5.6925958272e+02 stress_189
                      5.7720360013e+02 stress_190
                      5.8469216709e+02 stress_191
                      5.9168083842e+02 stress_192
                      5.9812874271e+02 stress_193
                      6.0399621918e+02 stress_194
                      6.0924605130e+02 stress_195
                      6.1384628339e+02 stress_196
                      6.1776681392e+02 stress_197
                      6.2098342510e+02 stress_198
                      6.2347557517e+02 stress_199
                      6.2522647697e+02 stress_200
                      6.2622549129e+02 stress_201
                      6.2627442474e+02 stress_202
                      2.6427875272e+02 stress_203
                     -7.9850538135e+01 stress_204
                      2.9076729462e+01 stress_205
                      4.6813569842e+02 stress_206
                      4.8731135012e+02 stress_207
                      4.2248396407e+02 stress_208
                      3.0537346653e+02 stress_209
                      1.4343578194e+02 stress_210
                     -3.9939247147e+01 stress_211
                     -2.0574660893e+02 stress_212
                     -3.2613868136e+02 stress_213
                     -4.0201279748e+02 stress_214
                     -4.4821545398e+02 stress_215
                     -4.7775752843e+02 stress_216
                     -4.9846953111e+02 stress_217
                     -5.1451852918e+02 stress_218
                     -5.2804520156e+02 stress_219
                     -5.4014168590e+02 stress_220
                     -5.5136030712e+02 stress_221
                     -5.6196843841e+02 stress_222
                     -5.7207987571e+02 stress_223
                     -5.8172295723e+02 stress_224
                     -5.9087897898e+02 stress_225
                     -5.9950262998e+02 stress_226
                     -6.0753476600e+02 stress_227
                     -6.1491157639e+02 stress_228
                     -6.2156628784e+02 stress_229
                     -6.2743713970e+02 stress_230
                     -6.3246671984e+02 stress_231
                     -6.3660300167e+02 stress_232
                     -6.3980510358e+02 stress_233
                     -6.4203947302e+02 stress_234
                     -6.4328176797e+02 stress_235
                     -6.3678904174e+02 stress_236
                     -2.7215838737e+02 stress_237
                      2.2923296836e+01 stress_238
                     -1.9716099549e+02 stress_239
                     -4.4717508075e+02 stress_240
                     -1.1620267139e+02 stress_241
                      6.0469744998e+01 stress_242
                     -2.7201832731e+02 stress_243
                     -3.9583378913e+02 stress_244
                     -5.0434381658e+02 stress_245
                     -3.1932643202e+02 stress_246
                      1.5248202718e+01 stress_247
                      2.7647076000e+02 stress_248
                      3.9078215646e+02 stress_249
                      4.3373350739e+02 stress_250
                      4.4612876450e+02 stress_251
                      3.4070583590e+02 stress_252
                      1.9135039020e+01 stress_253
                     -3.1469487379e+02 stress_254
                     -4.8449116284e+02 stress_255
                     -5.4592663693e+02 stress_256
                     -5.5825979450e+02 stress_257
                     -2.8096895172e+02 stress_258
                      9.8262282836e+01 stress_259
                      2.1641563330e+02 stress_260
                      1.7704777689e+00 stress_261
                     -3.6372934497e+02 stress_262
                     -5.2140061557e+02 stress_263
                     -5.4323638538e+02 stress_264
                     -5.0119085001e+02 stress_265
                     -4.0697214752e+02 stress_266
                     -2.6426837555e+02 stress_267
                     -8.6884375942e+01 stress_268
                      9.4319222074e+01 stress_269
                      2.4341256100e+02 stress_270
                      3.4569172507e+02 stress_271
                      4.0963893555e+02 stress_272
                      4.4958959288e+02 stress_273
                      4.7616159499e+02 stress_274
                      4.9552140016e+02 stress_275
                      5.1096803077e+02 stress_276
                      5.2423099888e+02 stress_277
                      5.3621103153e+02 stress_278
                      5.4737109577e+02 stress_279
                      5.5793777193e+02 stress_280
                      5.6800680841e+02 stress_281
                      5.7760022768e+02 stress_282
                      5.8669783078e+02 stress_283
                      5.9525660139e+02 stress_284
                      6.0322030603e+02 stress_285
                      6.1052845248e+02 stress_286
                      6.1711960839e+02 stress_287
                      6.2293397587e+02 stress_288
                      6.2791808420e+02 stress_289
                      6.3202413263e+02 stress_290
                      6.3521151201e+02 stress_291
                      6.3744947862e+02 stress_292
                      6.3871515792e+02 stress_293
                      6.3873384639e+02 stress_294
                      2.6486343639e+02 stress_295
                     -7.1506140417e+01 stress_296
                      5.9118040754e+01 stress_297
                      4.8358847425e+02 stress_298
                      4.9847094743e+02 stress_299
                      4.5495114842e+02 stress_300
                      3.7659904264e+02 stress_301
                      2.6521919629e+02 stress_302
                      1.2715317395e+02 stress_303
                     -2.3091266626e+01 stress_304
                     -1.6385019029e+02 stress_305
                     -2.7715983775e+02 stress_306
                     -3.5818366178e+02 stress_307
                     -4.1267611887e+02 stress_308
                     -4.4918137604e+02 stress_309
                     -4.7459199685e+02 stress_310
                     -4.9343195912e+02 stress_311
                     -5.0843199151e+02 stress_312
                     -5.2119046948e+02 stress_313
                     -5.3264011349e+02 stress_314
                     -5.4332523890e+02 stress_315
                     -5.5356278334e+02 stress_316
                     -5.6353524100e+02 stress_317
                     -5.7334298749e+02 stress_318
                     -5.8303576797e+02 stress_319
                     -5.9263164923e+02 stress_320
                     -6.0212768489e+02 stress_321
                     -6.1150803662e+02 stress_322
                     -6.2074761836e+02 stress_323
                     -6.2981603206e+02 stress_324
                     -6.3867971994e+02 stress_325
                     -6.4730205900e+02 stress_326
                     -6.5564666793e+02 stress_327
                     -6.6367530035e+02 stress_328
                     -6.7135192998e+02 stress_329
                     -6.7864064947e+02 stress_330
                     -6.8550631774e+02 stress_331
                     -6.9191652517e+02 stress_332
                     -6.9783969282e+02 stress_333
                     -7.0324724591e+02 stress_334
                     -7.0811323593e+02 stress_335
                     -7.1241225894e+02 stress_336
                     -7.1612443922e+02 stress_337
                     -7.1923080635e+02 stress_338
                     -7.2171581964e+02 stress_339
                     -7.2356764229e+02 stress_340
                     -7.2477682608e+02 stress_341
                     -7.2533713632e+02 stress_342


Active response data for evaluation 130:
Active set vector = { 1 1 1 1 1 1 1 1 1 1 1 1 1 1 1 1 1 1 1 1 1 1 1 1 1 1 1 1 1 1 1 1 1 1 1 1 1 1 1 1 1 1 1 1 1 1 1 1 1 1 1 1 1 1 1 1 1 1 1 1 1 1 1 1 1 1 1 1 1 1 1 1 1 1 1 1 1 1 1 1 1 1 1 1 1 1 1 1 1 1 1 1 1 1 1 1 1 1 1 1 1 1 1 1 1 1 1 1 1 1 1 1 1 1 1 1 1 1 1 1 1 1 1 1 1 1 1 1 1 1 1 1 1 1 1 1 1 1 1 1 1 1 1 1 1 1 1 1 1 1 1 1 1 1 1 1 1 1 1 1 1 1 1 1 1 1 1 1 1 1 1 1 1 1 1 1 1 1 1 1 1 1 1 1 1 1 1 1 1 1 1 1 1 1 1 1 1 1 1 1 1 1 1 1 1 1 1 1 1 1 1 1 1 1 1 1 1 1 1 1 1 1 1 1 1 1 1 1 1 1 1 1 1 1 1 1 1 1 1 1 1 1 1 1 1 1 1 1 1 1 1 1 1 1 1 1 1 1 1 1 1 1 1 1 1 1 1 1 1 1 1 1 1 1 1 1 1 1 1 1 1 1 1 1 1 1 1 1 1 1 1 1 1 1 1 1 1 1 1 1 1 1 1 1 1 1 1 1 1 1 1 1 1 1 1 1 1 1 1 1 1 1 1 1 1 1 1 1 1 1 1 1 1 1 1 1 1 1 1 1 1 1 }
                      2.4220144682e+00 stress_1
                     -2.5171554104e+02 stress_2
                     -4.9424597378e+02 stress_3
                     -4.9576573269e+02 stress_4
                     -1.6684280389e+02 stress_5
                      2.5284079262e+02 stress_6
                      4.0080856609e+02 stress_7
                      4.0167780481e+02 stress_8
                      1.5202655513e+02 stress_9
                     -2.3145255290e+02 stress_10
                     -4.3958985447e+02 stress_11
                     -4.8901406257e+02 stress_12
                     -5.0300358366e+02 stress_13
                     -5.0400209615e+02 stress_14
                     -1.7334707114e+02 stress_15
                     -3.4131085623e+02 stress_16
                     -5.0978284741e+02 stress_17
                     -3.1499994508e+02 stress_18
                      2.1062144850e+01 stress_19
                      2.9755406573e+02 stress_20
                      4.1769343542e+02 stress_21
                      4.6289274507e+02 stress_22
                      4.8159660508e+02 stress_23
                      4.8776827928e+02 stress_24
                      1.5719368819e+02 stress_25
                      2.8530614360e+02 stress_26
                      4.2917083177e+02 stress_27
                      4.6493795144e+02 stress_28
                      3.4207171612e+02 stress_29
                      1.2856455469e+02 stress_30
                     -1.2462263910e+02 stress_31
                     -3.1974170522e+02 stress_32
                     -4.2361607856e+02 stress_33
                     -4.7365906028e+02 stress_34
                     -5.0080711971e+02 stress_35
                     -5.1841745466e+02 stress_36
                     -5.3149400070e+02 stress_37
                     -5.4185765048e+02 stress_38
                     -5.5012666265e+02 stress_39
                     -5.5645242172e+02 stress_40
                     -5.6082429289e+02 stress_41
                     -5.6318497202e+02 stress_42
                     -5.4771817541e+02 stress_43
                     -1.6092391975e+02 stress_44
                      1.0547496762e+02 stress_45
                     -1.0073001376e+02 stress_46
                     -4.5360906650e+02 stress_47
                     -1.5731552184e+02 stress_48
                     -2.6025159066e+02 stress_49
                     -4.2002974865e+02 stress_50
                     -5.6861513556e+02 stress_51
                     -3.9866038923e+02 stress_52
                     -6.1532899602e+01 stress_53
                      2.2524640782e+02 stress_54
                      3.5704384244e+02 stress_55
                      4.0681546642e+02 stress_56
                      4.2196516979e+02 stress_57
                      3.3559698393e+02 stress_58
                      2.0970228172e+01 stress_59
                     -3.1561332447e+02 stress_60
                     -4.7075956279e+02 stress_61
                     -5.2075683324e+02 stress_62
                     -5.3181148523e+02 stress_63
                     -2.6342686442e+02 stress_64
                      1.1290937794e+02 stress_65
                      1.9963849516e+02 stress_66
                     -7.2654421898e+01 stress_67
                     -4.4059808131e+02 stress_68
                     -5.3458839148e+02 stress_69
                     -5.3566795681e+02 stress_70
                     -4.4027273805e+02 stress_71
                     -2.6810766478e+02 stress_72
                     -4.5031981389e+01 stress_73
                      1.6598915996e+02 stress_74
                      3.1019203555e+02 stress_75
                      3.9098757968e+02 stress_76
                      4.3546859081e+02 stress_77
                      4.6250352293e+02 stress_78
                      4.8127169955e+02 stress_79
                      4.9583683335e+02 stress_80
                      5.0795976669e+02 stress_81
                      5.1837934706e+02 stress_82
                      5.2737092240e+02 stress_83
                      5.3499895353e+02 stress_84
                      5.4123186440e+02 stress_85
                      5.4600561424e+02 stress_86
                      5.4925346978e+02 stress_87
                      5.5092024267e+02 stress_88
                      4.7719330420e+02 stress_89
                      4.4080739298e+01 stress_90
                     -1.5850080656e+02 stress_91
                      1.3171650532e+02 stress_92
                      4.7812884110e+02 stress_93
                      4.8443473662e+02 stress_94
                      4.2423063448e+02 stress_95
                      3.1607364029e+02 stress_96
                      1.6551358210e+02 stress_97
                     -9.6747079326e+00 stress_98
                     -1.7640997222e+02 stress_99
                     -3.0490712858e+02 stress_100
                     -3.8956029560e+02 stress_101
                     -4.4195973567e+02 stress_102
                     -4.7514641630e+02 stress_103
                     -4.9781673741e+02 stress_104
                     -5.1484147268e+02 stress_105
                     -5.2880619373e+02 stress_106
                     -5.4106495889e+02 stress_107
                     -5.5232463909e+02 stress_108
                     -5.6294801289e+02 stress_109
                     -5.7311090612e+02 stress_110
                     -5.8288428386e+02 stress_111
                     -5.9227855905e+02 stress_112
                     -6.0127089986e+02 stress_113
                     -6.0981890026e+02 stress_114
                     -6.1786920161e+02 stress_115
                     -6.2536402763e+02 stress_116
                     -6.3224389272e+02 stress_117
                     -6.3845261905e+02 stress_118
                     -6.4393688703e+02 stress_119
                     -6.4864713875e+02 stress_120
                     -6.5254222748e+02 stress_121
                     -6.5558626327e+02 stress_122
                     -6.5775091204e+02 stress_123
                     -6.5901701351e+02 stress_124
                     -6.5935711199e+02 stress_125
                     -5.5678448431e+02 stress_126
                     -3.0605273880e+02 stress_127
                     -1.8184466523e-02 stress_128
                      2.1822073801e+02 stress_129
                      3.2736507012e+02 stress_130
                      3.7846724613e+02 stress_131
                      4.0348059078e+02 stress_132
                      4.1485308718e+02 stress_133
                      4.1548755053e+02 stress_134
                      1.0768826359e+01 stress_135
                     -1.1085641851e+01 stress_136
                      1.7391786385e+02 stress_137
                      1.3777786085e+02 stress_138
                     -3.4544252544e+01 stress_139
                     -3.2102410288e+02 stress_140
                     -5.2938921008e+02 stress_141
                     -6.1318589203e+02 stress_142
                     -6.4585796928e+02 stress_143
                     -6.6075336510e+02 stress_144
                     -6.6690760171e+02 stress_145
                     -6.4650681944e+02 stress_146
                     -4.0853196681e+02 stress_147
                     -5.8433619268e+01 stress_148
                      1.9299332810e+02 stress_149
                      3.0535222813e+02 stress_150
                      3.4706030375e+02 stress_151
                      3.5221736219e+02 stress_152
                      1.3578604718e+02 stress_153
                     -2.3202703753e+02 stress_154
                     -4.9297887566e+02 stress_155
                     -5.8966219901e+02 stress_156
                     -6.1673019134e+02 stress_157
                     -4.9401040075e+02 stress_158
                     -8.9557662878e+01 stress_159
                      9.3138673618e+01 stress_160
                     -7.3676222288e+01 stress_161
                     -4.6850821410e+02 stress_162
                     -6.2361411380e+02 stress_163
                     -6.3457581575e+02 stress_164
                     -5.9281281693e+02 stress_165
                     -5.1052984026e+02 stress_166
                     -3.8979767048e+02 stress_167
                     -2.3778627137e+02 stress_168
                     -7.1810349569e+01 stress_169
                      8.2570277981e+01 stress_170
                      2.0482572963e+02 stress_171
                      2.9058234041e+02 stress_172
                      3.4738289416e+02 stress_173
                      3.8511160743e+02 stress_174
                      4.1134669636e+02 stress_175
                      4.3088052881e+02 stress_176
                      4.4652973921e+02 stress_177
                      4.5991202903e+02 stress_178
                      4.7195063213e+02 stress_179
                      4.8317282012e+02 stress_180
                      4.9387712405e+02 stress_181
                      5.0422614132e+02 stress_182
                      5.1430203222e+02 stress_183
                      5.2413665970e+02 stress_184
                      5.3373142543e+02 stress_185
                      5.4306800678e+02 stress_186
                      5.5211599378e+02 stress_187
                      5.6083790124e+02 stress_188
                      5.6919154548e+02 stress_189
                      5.7713322975e+02 stress_190
                      5.8461893499e+02 stress_191
                      5.9160444178e+02 stress_192
                      5.9804906088e+02 stress_193
                      6.0391328050e+02 stress_194
                      6.0916000639e+02 stress_195
                      6.1375738186e+02 stress_196
                      6.1767538687e+02 stress_197
                      6.2088986789e+02 stress_198
                      6.2338033365e+02 stress_199
                      6.2513003518e+02 stress_200
                      6.2612835860e+02 stress_201
                      6.2617725811e+02 stress_202
                      2.6436454702e+02 stress_203
                     -7.8881702916e+01 stress_204
                      3.0045557367e+01 stress_205
                      4.6868992807e+02 stress_206
                      4.8777659927e+02 stress_207
                      4.2295022295e+02 stress_208
                      3.0586677625e+02 stress_209
                      1.4409102509e+02 stress_210
                     -3.8886592514e+01 stress_211
                     -2.0428504205e+02 stress_212
                     -3.2460205005e+02 stress_213
                     -4.0069873486e+02 stress_214
                     -4.4720505766e+02 stress_215
                     -4.7701092252e+02 stress_216
                     -4.9791986290e+02 stress_217
                     -5.1410757983e+02 stress_218
                     -5.2772983319e+02 stress_219
                     -5.3989161943e+02 stress_220
                     -5.5115462288e+02 stress_221
                     -5.6179268457e+02 stress_222
                     -5.7192401605e+02 stress_223
                     -5.8157998175e+02 stress_224
                     -5.9074397835e+02 stress_225
                     -5.9937217540e+02 stress_226
                     -6.0740649052e+02 stress_227
                     -6.1478388752e+02 stress_228
                     -6.2143816598e+02 stress_229
                     -6.2730799422e+02 stress_230
                     -6.3233628286e+02 stress_231
                     -6.3647124835e+02 stress_232
                     -6.3967218820e+02 stress_233
                     -6.4190567812e+02 stress_234
                     -6.4314746085e+02 stress_235
                     -6.3665473491e+02 stress_236
                     -2.7221306076e+02 stress_237
                      2.2141517468e+01 stress_238
                     -1.9783661414e+02 stress_239
                     -4.4703391563e+02 stress_240
                     -1.1625738430e+02 stress_241
                      5.9984168513e+01 stress_242
                     -2.7219242936e+02 stress_243
                     -3.9559299448e+02 stress_244
                     -5.0372319756e+02 stress_245
                     -3.1873660013e+02 stress_246
                      1.5212036414e+01 stress_247
                      2.7555703949e+02 stress_248
                      3.8982746638e+02 stress_249
                      4.3293133553e+02 stress_250
                      4.4539348428e+02 stress_251
                      3.3997389532e+02 stress_252
                      1.8701483295e+01 stress_253
                     -3.1404756144e+02 stress_254
                     -4.8340594092e+02 stress_255
                     -5.4488492245e+02 stress_256
                     -5.5724999610e+02 stress_257
                     -2.8005816299e+02 stress_258
                      9.8137251666e+01 stress_259
                      2.1582268089e+02 stress_260
                      1.2329035645e+00 stress_261
                     -3.6333266981e+02 stress_262
                     -5.2054937226e+02 stress_263
                     -5.4237648320e+02 stress_264
                     -5.0033116572e+02 stress_265
                     -4.0612298138e+02 stress_266
                     -2.6351231857e+02 stress_267
                     -8.6469267134e+01 stress_268
                      9.4116056200e+01 stress_269
                      2.4265782435e+02 stress_270
                      3.4474001327e+02 stress_271
                      4.0876330798e+02 stress_272
                      4.4888377678e+02 stress_273
                      4.7562146700e+02 stress_274
                      4.9511341014e+02 stress_275
                      5.1065752705e+02 stress_276
                      5.2398998437e+02 stress_277
                      5.3601865813e+02 stress_278
                      5.4721230220e+02 stress_279
                      5.5780178560e+02 stress_280
                      5.6788594086e+02 stress_281
                      5.7748899507e+02 stress_282
                      5.8659233322e+02 stress_283
                      5.9515408984e+02 stress_284
                      6.0311887793e+02 stress_285
                      6.1042683676e+02 stress_286
                      6.1701701023e+02 stress_287
                      6.2282996319e+02 stress_288
                      6.2781250172e+02 stress_289
                      6.3191703567e+02 stress_290
                      6.3510311370e+02 stress_291
                      6.3734010540e+02 stress_292
                      6.3860521205e+02 stress_293
                      6.3862389195e+02 stress_294
                      2.6495044469e+02 stress_295
                     -7.0548136661e+01 stress_296
                      6.0075984905e+01 stress_297
                      4.8404228990e+02 stress_298
                      4.9885158440e+02 stress_299
                      4.5533204845e+02 stress_300
                      3.7698741608e+02 stress_301
                      2.6565926949e+02 stress_302
                      1.2776751684e+02 stress_303
                     -2.2138123738e+01 stress_304
                     -1.6252239803e+02 stress_305
                     -2.7564309539e+02 stress_306
                     -3.5672960931e+02 stress_307
                     -4.1143467602e+02 stress_308
                     -4.4818688648e+02 stress_309
                     -4.7381793081e+02 stress_310
                     -4.9283401355e+02 stress_311
                     -5.0796771280e+02 stress_312
                     -5.2082515387e+02 stress_313
                     -5.3234715614e+02 stress_314
                     -5.4308476541e+02 stress_315
                     -5.5336007036e+02 stress_316
                     -5.6335938042e+02 stress_317
                     -5.7318586188e+02 stress_318
                     -5.8289130078e+02 stress_319
                     -5.9249526486e+02 stress_320
                     -6.0199592092e+02 stress_321
                     -6.1137826611e+02 stress_322
                     -6.2061784896e+02 stress_323
                     -6.2968476006e+02 stress_324
                     -6.3854582280e+02 stress_325
                     -6.4716471604e+02 stress_326
                     -6.5550530011e+02 stress_327
                     -6.6352952567e+02 stress_328
                     -6.7120152762e+02 stress_329
                     -6.7848553284e+02 stress_330
                     -6.8534651327e+02 stress_331
                     -6.9175215409e+02 stress_332
                     -6.9767095759e+02 stress_333
                     -7.0307441768e+02 stress_334
                     -7.0793664402e+02 stress_335
                     -7.1223228358e+02 stress_336
                     -7.1594150140e+02 stress_337
                     -7.1904536219e+02 stress_338
                     -7.2152835346e+02 stress_339
                     -7.2337865987e+02 stress_340
                     -7.2458684938e+02 stress_341
                     -7.2514669778e+02 stress_342


Active response data for evaluation 131:
Active set vector = { 1 1 1 1 1 1 1 1 1 1 1 1 1 1 1 1 1 1 1 1 1 1 1 1 1 1 1 1 1 1 1 1 1 1 1 1 1 1 1 1 1 1 1 1 1 1 1 1 1 1 1 1 1 1 1 1 1 1 1 1 1 1 1 1 1 1 1 1 1 1 1 1 1 1 1 1 1 1 1 1 1 1 1 1 1 1 1 1 1 1 1 1 1 1 1 1 1 1 1 1 1 1 1 1 1 1 1 1 1 1 1 1 1 1 1 1 1 1 1 1 1 1 1 1 1 1 1 1 1 1 1 1 1 1 1 1 1 1 1 1 1 1 1 1 1 1 1 1 1 1 1 1 1 1 1 1 1 1 1 1 1 1 1 1 1 1 1 1 1 1 1 1 1 1 1 1 1 1 1 1 1 1 1 1 1 1 1 1 1 1 1 1 1 1 1 1 1 1 1 1 1 1 1 1 1 1 1 1 1 1 1 1 1 1 1 1 1 1 1 1 1 1 1 1 1 1 1 1 1 1 1 1 1 1 1 1 1 1 1 1 1 1 1 1 1 1 1 1 1 1 1 1 1 1 1 1 1 1 1 1 1 1 1 1 1 1 1 1 1 1 1 1 1 1 1 1 1 1 1 1 1 1 1 1 1 1 1 1 1 1 1 1 1 1 1 1 1 1 1 1 1 1 1 1 1 1 1 1 1 1 1 1 1 1 1 1 1 1 1 1 1 1 1 1 1 1 1 1 1 1 1 1 1 1 1 1 1 1 1 1 1 1 }
                      2.4220144682e+00 stress_1
                     -2.5171554476e+02 stress_2
                     -4.9424630649e+02 stress_3
                     -4.9576581658e+02 stress_4
                     -1.6682070157e+02 stress_5
                      2.5333331711e+02 stress_6
                      4.0139970811e+02 stress_7
                      4.0226786749e+02 stress_8
                      1.5260576141e+02 stress_9
                     -2.3137904252e+02 stress_10
                     -4.3996821067e+02 stress_11
                     -4.8924427119e+02 stress_12
                     -5.0315449416e+02 stress_13
                     -5.0414730905e+02 stress_14
                     -1.7339045550e+02 stress_15
                     -3.4135424386e+02 stress_16
                     -5.0981934870e+02 stress_17
                     -3.1501987536e+02 stress_18
                      2.1460207045e+01 stress_19
                      2.9858905966e+02 stress_20
                      4.1858267911e+02 stress_21
                      4.6351920167e+02 stress_22
                      4.8207809802e+02 stress_23
                      4.8820012036e+02 stress_24
                      1.5750046026e+02 stress_25
                      2.8561291765e+02 stress_26
                      4.2948969919e+02 stress_27
                      4.6526892591e+02 stress_28
                      3.4239806795e+02 stress_29
                      1.2875795144e+02 stress_30
                     -1.2500722798e+02 stress_31
                     -3.2065535155e+02 stress_32
                     -4.2447749224e+02 stress_33
                     -4.7427589687e+02 stress_34
                     -5.0122642361e+02 stress_35
                     -5.1870911712e+02 stress_36
                     -5.3170655047e+02 stress_37
                     -5.4202095904e+02 stress_38
                     -5.5025902947e+02 stress_39
                     -5.5656548744e+02 stress_40
                     -5.6092592699e+02 stress_41
                     -5.6328100960e+02 stress_42
                     -5.4781420771e+02 stress_43
                     -1.6075557833e+02 stress_44
                      1.0636808627e+02 stress_45
                     -9.9837543150e+01 stress_46
                     -4.5324030235e+02 stress_47
                     -1.5682128814e+02 stress_48
                     -2.5975737632e+02 stress_49
                     -4.1956656086e+02 stress_50
                     -5.6865482675e+02 stress_51
                     -3.9868220400e+02 stress_52
                     -6.1075350762e+01 stress_53
                      2.2649900767e+02 stress_54
                      3.5827228440e+02 stress_55
                      4.0782566914e+02 stress_56
                      4.2287718836e+02 stress_57
                      3.3650808075e+02 stress_58
                      2.1672232014e+01 stress_59
                     -3.1593338723e+02 stress_60
                     -4.7143492079e+02 stress_61
                     -5.2134892831e+02 stress_62
                     -5.3236182746e+02 stress_63
                     -2.6389170839e+02 stress_64
                      1.1339185895e+02 stress_65
                      2.0042109310e+02 stress_66
                     -7.1905924908e+01 stress_67
                     -4.4068923578e+02 stress_68
                     -5.3487690170e+02 stress_69
                     -5.3595590510e+02 stress_70
                     -4.4055776352e+02 stress_71
                     -2.6831223186e+02 stress_72
                     -4.4820181957e+01 stress_73
                      1.6686864372e+02 stress_74
                      3.1134681476e+02 stress_75
                      3.9199138635e+02 stress_76
                      4.3621967118e+02 stress_77
                      4.6304571026e+02 stress_78
                      4.8166691273e+02 stress_79
                      4.9613279064e+02 stress_80
                      5.0818881390e+02 stress_81
                      5.1856280928e+02 stress_82
                      5.2752296501e+02 stress_83
                      5.3512920359e+02 stress_84
                      5.4134709118e+02 stress_85
                      5.4611078340e+02 stress_86
                      5.4935243045e+02 stress_87
                      5.5101620016e+02 stress_88
                      4.7728808415e+02 stress_89
                      4.3673446294e+01 stress_90
                     -1.5952093657e+02 stress_91
                      1.3070869721e+02 stress_92
                      4.7806144417e+02 stress_93
                      4.8440259223e+02 stress_94
                      4.2419780079e+02 stress_95
                      3.1602107982e+02 stress_96
                      1.6533244882e+02 stress_97
                     -1.0220241000e+01 stress_98
                     -1.7744689178e+02 stress_99
                     -3.0620962854e+02 stress_100
                     -3.9079885927e+02 stress_101
                     -4.4297372638e+02 stress_102
                     -4.7592351322e+02 stress_103
                     -4.9839986109e+02 stress_104
                     -5.1527950370e+02 stress_105
                     -5.2913899859e+02 stress_106
                     -5.4132187045e+02 stress_107
                     -5.5252648996e+02 stress_108
                     -5.6310947846e+02 stress_109
                     -5.7324236669e+02 stress_110
                     -5.8299315650e+02 stress_111
                     -5.9237021331e+02 stress_112
                     -6.0134927631e+02 stress_113
                     -6.0988693360e+02 stress_114
                     -6.1792911066e+02 stress_115
                     -6.2541751536e+02 stress_116
                     -6.3229228726e+02 stress_117
                     -6.3849697242e+02 stress_118
                     -6.4397804784e+02 stress_119
                     -6.4868580562e+02 stress_120
                     -6.5257898732e+02 stress_121
                     -6.5562162232e+02 stress_122
                     -6.5778531965e+02 stress_123
                     -6.5905088102e+02 stress_124
                     -6.5939083643e+02 stress_125
                     -5.5681458687e+02 stress_126
                     -3.0590859387e+02 stress_127
                      8.9411344252e-01 stress_128
                      2.1966542610e+02 stress_129
                      3.2867230767e+02 stress_130
                      3.7950289980e+02 stress_131
                      4.0432604599e+02 stress_132
                      4.1560266180e+02 stress_133
                      4.1623166839e+02 stress_134
                      1.1300076366e+01 stress_135
                     -1.0592470155e+01 stress_136
                      1.7452763193e+02 stress_137
                      1.3838753199e+02 stress_138
                     -3.3978554688e+01 stress_139
                     -3.2105207871e+02 stress_140
                     -5.3006516136e+02 stress_141
                     -6.1377588264e+02 stress_142
                     -6.4627240231e+02 stress_143
                     -6.6106726001e+02 stress_144
                     -6.6718040714e+02 stress_145
                     -6.4677960892e+02 stress_146
                     -4.0873546442e+02 stress_147
                     -5.7900104412e+01 stress_148
                      1.9428385492e+02 stress_149
                      3.0665173035e+02 stress_150
                      3.4822616227e+02 stress_151
                      3.5335975506e+02 stress_152
                      1.3690746319e+02 stress_153
                     -2.3150629430e+02 stress_154
                     -4.9342532227e+02 stress_155
                     -5.9025807464e+02 stress_156
                     -6.1728816444e+02 stress_157
                     -4.9456110615e+02 stress_158
                     -8.9491046124e+01 stress_159
                      9.3851209264e+01 stress_160
                     -7.2966645341e+01 stress_161
                     -4.6833480381e+02 stress_162
                     -6.2388611943e+02 stress_163
                     -6.3484861821e+02 stress_164
                     -5.9308542429e+02 stress_165
                     -5.1079544625e+02 stress_166
                     -3.9000785352e+02 stress_167
                     -2.3779146613e+02 stress_168
                     -7.1387141872e+01 stress_169
                      8.3506542858e+01 stress_170
                      2.0608197152e+02 stress_171
                      2.9186839384e+02 stress_172
                      3.4851618727e+02 stress_173
                      3.8603717579e+02 stress_174
                      4.1207763173e+02 stress_175
                      4.3145170380e+02 stress_176
                      4.4697679078e+02 stress_177
                      4.6026467957e+02 stress_178
                      4.7223186441e+02 stress_179
                      4.8339986607e+02 stress_180
                      4.9406276986e+02 stress_181
                      5.0437987604e+02 stress_182
                      5.1443093213e+02 stress_183
                      5.2424604468e+02 stress_184
                      5.3382533141e+02 stress_185
                      5.4314952678e+02 stress_186
                      5.5218752263e+02 stress_187
                      5.6090131218e+02 stress_188
                      5.6924831953e+02 stress_189
                      5.7718454974e+02 stress_190
                      5.8466575563e+02 stress_191
                      5.9164754247e+02 stress_192
                      5.9808908427e+02 stress_193
                      6.0395076330e+02 stress_194
                      6.0919540281e+02 stress_195
                      6.1379108105e+02 stress_196
                      6.1770772807e+02 stress_197
                      6.2092115144e+02 stress_198
                      6.2341083075e+02 stress_199
                      6.2515999621e+02 stress_200
                      6.2615801967e+02 stress_201
                      6.2620690459e+02 stress_202
                      2.6421094096e+02 stress_203
                     -7.9918685164e+01 stress_204
                      2.9008582831e+01 stress_205
                      4.6808517219e+02 stress_206
                      4.8726394574e+02 stress_207
                      4.2243655666e+02 stress_208
                      3.0532596731e+02 stress_209
                      1.4338764149e+02 stress_210
                     -3.9989317018e+01 stress_211
                     -2.0579930600e+02 stress_212
                     -3.2619231099e+02 stress_213
                     -4.0206428352e+02 stress_214
                     -4.4826216001e+02 stress_215
                     -4.7779770543e+02 stress_216
                     -4.9850207718e+02 stress_217
                     -5.1454273441e+02 stress_218
                     -5.2806060200e+02 stress_219
                     -5.4014799245e+02 stress_220
                     -5.5135737127e+02 stress_221
                     -5.6195623606e+02 stress_222
                     -5.7205849829e+02 stress_223
                     -5.8169260633e+02 stress_224
                     -5.9083996116e+02 stress_225
                     -5.9945535222e+02 stress_226
                     -6.0747973056e+02 stress_227
                     -6.1484937354e+02 stress_228
                     -6.2149759103e+02 stress_229
                     -6.2736269557e+02 stress_230
                     -6.3238734039e+02 stress_231
                     -6.3651955650e+02 stress_232
                     -6.3971850706e+02 stress_233
                     -6.4195067571e+02 stress_234
                     -6.4319174641e+02 stress_235
                     -6.3669902018e+02 stress_236
                     -2.7206793630e+02 stress_237
                      2.3014705783e+01 stress_238
                     -1.9707047229e+02 stress_239
                     -4.4708965572e+02 stress_240
                     -1.1611670069e+02 stress_241
                      6.0556767120e+01 stress_242
                     -2.7193365345e+02 stress_243
                     -3.9575136251e+02 stress_244
                     -5.0426116750e+02 stress_245
                     -3.1924368811e+02 stress_246
                      1.5332879752e+01 stress_247
                      2.7655682316e+02 stress_248
                      3.9086396653e+02 stress_249
                      4.3381018529e+02 stress_250
                      4.4620312095e+02 stress_251
                      3.4078016970e+02 stress_252
                      1.9207538252e+01 stress_253
                     -3.1462680365e+02 stress_254
                     -4.8441933096e+02 stress_255
                     -5.4584874480e+02 stress_256
                     -5.5818001813e+02 stress_257
                     -2.8088888748e+02 stress_258
                      9.8344894357e+01 stress_259
                      2.1649860348e+02 stress_260
                      1.8530212897e+00 stress_261
                     -3.6365190151e+02 stress_262
                     -5.2132026076e+02 stress_263
                     -5.4315424663e+02 stress_264
                     -5.0110871062e+02 stress_265
                     -4.0688997658e+02 stress_266
                     -2.6418592317e+02 stress_267
                     -8.6800905590e+01 stress_268
                      9.4404346523e+01 stress_269
                      2.4349827349e+02 stress_270
                      3.4577530772e+02 stress_271
                      4.0971773544e+02 stress_272
                      4.4966182083e+02 stress_273
                      4.7622615958e+02 stress_274
                      4.9557761417e+02 stress_275
                      5.1101543948e+02 stress_276
                      5.2426930074e+02 stress_277
                      5.3624004638e+02 stress_278
                      5.4739075221e+02 stress_279
                      5.5794810227e+02 stress_280
                      5.6800794618e+02 stress_281
                      5.7759240548e+02 stress_282
                      5.8668137789e+02 stress_283
                      5.9523193972e+02 stress_284
                      6.0318794655e+02 stress_285
                      6.1048898890e+02 stress_286
                      6.1707371112e+02 stress_287
                      6.2288238577e+02 stress_288
                      6.2786160313e+02 stress_289
                      6.3196361554e+02 stress_290
                      6.3514785813e+02 stress_291
                      6.3738362049e+02 stress_292
                      6.3864805256e+02 stress_293
                      6.3866672261e+02 stress_294
                      2.6479599924e+02 stress_295
                     -7.1573933409e+01 stress_296
                      5.9050251260e+01 stress_297
                      4.8354273786e+02 stress_298
                      4.9842769063e+02 stress_299
                      4.5490789081e+02 stress_300
                      3.7655575940e+02 stress_301
                      2.6517571163e+02 stress_302
                      1.2710889571e+02 stress_303
                     -2.3137426441e+01 stress_304
                     -1.6389906870e+02 stress_305
                     -2.7721088317e+02 stress_306
                     -3.5823495430e+02 stress_307
                     -4.1272540027e+02 stress_308
                     -4.4922677200e+02 stress_309
                     -4.7463214560e+02 stress_310
                     -4.9346589323e+02 stress_311
                     -5.0845900289e+02 stress_312
                     -5.2121001809e+02 stress_313
                     -5.3265177229e+02 stress_314
                     -5.4332866377e+02 stress_315
                     -5.5355769703e+02 stress_316
                     -5.6352142393e+02 stress_317
                     -5.7332027329e+02 stress_318
                     -5.8300404089e+02 stress_319
                     -5.9259084240e+02 stress_320
                     -6.0207777989e+02 stress_321
                     -6.1144906234e+02 stress_322
                     -6.2067965089e+02 stress_323
                     -6.2973919371e+02 stress_324
                     -6.3859417801e+02 stress_325
                     -6.4720802579e+02 stress_326
                     -6.5554439837e+02 stress_327
                     -6.6356509227e+02 stress_328
                     -6.7123412078e+02 stress_329
                     -6.7851561515e+02 stress_330
                     -6.8537447154e+02 stress_331
                     -6.9177831436e+02 stress_332
                     -6.9769559750e+02 stress_333
                     -7.0309777574e+02 stress_334
                     -7.0795892731e+02 stress_335
                     -7.1225367427e+02 stress_336
                     -7.1596216126e+02 stress_337
                     -7.1906543721e+02 stress_338
                     -7.2154797725e+02 stress_339
                     -7.2339795662e+02 stress_340
                     -7.2460593672e+02 stress_341
                     -7.2516568917e+02 stress_342


Active response data for evaluation 132:
Active set vector = { 1 1 1 1 1 1 1 1 1 1 1 1 1 1 1 1 1 1 1 1 1 1 1 1 1 1 1 1 1 1 1 1 1 1 1 1 1 1 1 1 1 1 1 1 1 1 1 1 1 1 1 1 1 1 1 1 1 1 1 1 1 1 1 1 1 1 1 1 1 1 1 1 1 1 1 1 1 1 1 1 1 1 1 1 1 1 1 1 1 1 1 1 1 1 1 1 1 1 1 1 1 1 1 1 1 1 1 1 1 1 1 1 1 1 1 1 1 1 1 1 1 1 1 1 1 1 1 1 1 1 1 1 1 1 1 1 1 1 1 1 1 1 1 1 1 1 1 1 1 1 1 1 1 1 1 1 1 1 1 1 1 1 1 1 1 1 1 1 1 1 1 1 1 1 1 1 1 1 1 1 1 1 1 1 1 1 1 1 1 1 1 1 1 1 1 1 1 1 1 1 1 1 1 1 1 1 1 1 1 1 1 1 1 1 1 1 1 1 1 1 1 1 1 1 1 1 1 1 1 1 1 1 1 1 1 1 1 1 1 1 1 1 1 1 1 1 1 1 1 1 1 1 1 1 1 1 1 1 1 1 1 1 1 1 1 1 1 1 1 1 1 1 1 1 1 1 1 1 1 1 1 1 1 1 1 1 1 1 1 1 1 1 1 1 1 1 1 1 1 1 1 1 1 1 1 1 1 1 1 1 1 1 1 1 1 1 1 1 1 1 1 1 1 1 1 1 1 1 1 1 1 1 1 1 1 1 1 1 1 1 1 1 }
                      2.4220144682e+00 stress_1
                     -2.5171554181e+02 stress_2
                     -4.9425544406e+02 stress_3
                     -4.9577518801e+02 stress_4
                     -1.6683166209e+02 stress_5
                      2.5328991300e+02 stress_6
                      4.0135236249e+02 stress_7
                      4.0222062845e+02 stress_8
                      1.5255932574e+02 stress_9
                     -2.3138862740e+02 stress_10
                     -4.3994841069e+02 stress_11
                     -4.8923770437e+02 stress_12
                     -5.0315441288e+02 stress_13
                     -5.0414768777e+02 stress_14
                     -1.7339313060e+02 stress_15
                     -3.4135691776e+02 stress_16
                     -5.0982376720e+02 stress_17
                     -3.1502465819e+02 stress_18
                      2.1446368651e+01 stress_19
                      2.9856255265e+02 stress_20
                      4.1856108389e+02 stress_21
                      4.6350426165e+02 stress_22
                      4.8206670343e+02 stress_23
                      4.8818992693e+02 stress_24
                      1.5749215323e+02 stress_25
                      2.8560461047e+02 stress_26
                      4.2948008445e+02 stress_27
                      4.6525665646e+02 stress_28
                      3.4238587243e+02 stress_29
                      1.2874781066e+02 stress_30
                     -1.2500918480e+02 stress_31
                     -3.2065216952e+02 stress_32
                     -4.2447871281e+02 stress_33
                     -4.7428322497e+02 stress_34
                     -5.0123805066e+02 stress_35
                     -5.1872337461e+02 stress_36
                     -5.3172239140e+02 stress_37
                     -5.4203776807e+02 stress_38
                     -5.5027643975e+02 stress_39
                     -5.5658326987e+02 stress_40
                     -5.6094392872e+02 stress_41
                     -5.6329911837e+02 stress_42
                     -5.4783231651e+02 stress_43
                     -1.6077485100e+02 stress_44
                      1.0634724952e+02 stress_45
                     -9.9858352772e+01 stress_46
                     -4.5324655753e+02 stress_47
                     -1.5682833539e+02 stress_48
                     -2.5976442296e+02 stress_49
                     -4.1957302040e+02 stress_50
                     -5.6867603755e+02 stress_51
                     -3.9870350496e+02 stress_52
                     -6.1098294167e+01 stress_53
                      2.2647734038e+02 stress_54
                      3.5825668863e+02 stress_55
                      4.0781418139e+02 stress_56
                      4.2286716413e+02 stress_57
                      3.3649807502e+02 stress_58
                      2.1665836283e+01 stress_59
                     -3.1592894835e+02 stress_60
                     -4.7143791964e+02 stress_61
                     -5.2136040157e+02 stress_62
                     -5.3237573036e+02 stress_63
                     -2.6390606176e+02 stress_64
                      1.1337433132e+02 stress_65
                      2.0040356078e+02 stress_66
                     -7.1921887780e+01 stress_67
                     -4.4068076366e+02 stress_68
                     -5.3487886210e+02 stress_69
                     -5.3595819846e+02 stress_70
                     -4.4056007519e+02 stress_71
                     -2.6831504060e+02 stress_72
                     -4.4825471711e+01 stress_73
                      1.6685975583e+02 stress_74
                      3.1133720560e+02 stress_75
                      3.9198361715e+02 stress_76
                      4.3621406296e+02 stress_77
                      4.6304174639e+02 stress_78
                      4.8166406302e+02 stress_79
                      4.9613067719e+02 stress_80
                      5.0818718980e+02 stress_81
                      5.1856151532e+02 stress_82
                      5.2752189699e+02 stress_83
                      5.3512829147e+02 stress_84
                      5.4134628610e+02 stress_85
                      5.4611004980e+02 stress_86
                      5.4935174088e+02 stress_87
                      5.5101553187e+02 stress_88
                      4.7728741930e+02 stress_89
                      4.3672419527e+01 stress_90
                     -1.5952588966e+02 stress_91
                      1.3070312998e+02 stress_92
                      4.7802688317e+02 stress_93
                      4.8436785207e+02 stress_94
                      4.2416306383e+02 stress_95
                      3.1598643215e+02 stress_96
                      1.6529835442e+02 stress_97
                     -1.0252916728e+01 stress_98
                     -1.7747809948e+02 stress_99
                     -3.0624091839e+02 stress_100
                     -3.9083178792e+02 stress_101
                     -4.4300873006e+02 stress_102
                     -4.7596030924e+02 stress_103
                     -4.9843799991e+02 stress_104
                     -5.1531859706e+02 stress_105
                     -5.2917876156e+02 stress_106
                     -5.4136210513e+02 stress_107
                     -5.5256706089e+02 stress_108
                     -5.6315029268e+02 stress_109
                     -5.7328335970e+02 stress_110
                     -5.8303428291e+02 stress_111
                     -5.9241144066e+02 stress_112
                     -6.0139058103e+02 stress_113
                     -6.0992829828e+02 stress_114
                     -6.1797052223e+02 stress_115
                     -6.2545896384e+02 stress_116
                     -6.3233376493e+02 stress_117
                     -6.3853847320e+02 stress_118
                     -6.4401956682e+02 stress_119
                     -6.4872733880e+02 stress_120
                     -6.5262053134e+02 stress_121
                     -6.5566317430e+02 stress_122
                     -6.5782687702e+02 stress_123
                     -6.5909244145e+02 stress_124
                     -6.5943239768e+02 stress_125
                     -5.5685615067e+02 stress_126
                     -3.0594996166e+02 stress_127
                      8.5664852272e-01 stress_128
                      2.1963866632e+02 stress_129
                      3.2865543499e+02 stress_130
                      3.7949176311e+02 stress_131
                      4.0431779070e+02 stress_132
                      4.1559566826e+02 stress_133
                      4.1622474353e+02 stress_134
                      1.1294845239e+01 stress_135
                     -1.0597469417e+01 stress_136
                      1.7452233825e+02 stress_137
                      1.3838223941e+02 stress_138
                     -3.3983494876e+01 stress_139
                     -3.2105663661e+02 stress_140
                     -5.3008534914e+02 stress_141
                     -6.1381456011e+02 stress_142
                     -6.4632054461e+02 stress_143
                     -6.6111950673e+02 stress_144
                     -6.6723416656e+02 stress_145
                     -6.4683336836e+02 stress_146
                     -4.0878913620e+02 stress_147
                     -5.7949695244e+01 stress_148
                      1.9424820105e+02 stress_149
                      3.0662814152e+02 stress_150
                      3.4820813244e+02 stress_151
                      3.5334244555e+02 stress_152
                      1.3689056479e+02 stress_153
                     -2.3151505004e+02 stress_154
                     -4.9343535743e+02 stress_155
                     -5.9028218921e+02 stress_156
                     -6.1731897280e+02 stress_157
                     -4.9459192233e+02 stress_158
                     -8.9520991925e+01 stress_159
                      9.3824601588e+01 stress_160
                     -7.2993114392e+01 stress_161
                     -4.6834548077e+02 stress_162
                     -6.2390756715e+02 stress_163
                     -6.3487389983e+02 stress_164
                     -5.9311070625e+02 stress_165
                     -5.1082073776e+02 stress_166
                     -3.9003318824e+02 stress_167
                     -2.3781678326e+02 stress_168
                     -7.1411811455e+01 stress_169
                      8.3484074777e+01 stress_170
                      2.0606335498e+02 stress_171
                      2.9185418133e+02 stress_172
                      3.4850584377e+02 stress_173
                      3.8602977496e+02 stress_174
                      4.1207232311e+02 stress_175
                      4.3144784693e+02 stress_176
                      4.4697393938e+02 stress_177
                      4.6026253106e+02 stress_178
                      4.7223021430e+02 stress_179
                      4.8339857510e+02 stress_180
                      4.9406174200e+02 stress_181
                      5.0437904404e+02 stress_182
                      5.1443024812e+02 stress_183
                      5.2424547409e+02 stress_184
                      5.3382484886e+02 stress_185
                      5.4314911336e+02 stress_186
                      5.5218716407e+02 stress_187
                      5.6090099756e+02 stress_188
                      5.6924804038e+02 stress_189
                      5.7718429943e+02 stress_190
                      5.8466552887e+02 stress_191
                      5.9164733503e+02 stress_192
                      5.9808889268e+02 stress_193
                      6.0395058471e+02 stress_194
                      6.0919523485e+02 stress_195
                      6.1379092169e+02 stress_196
                      6.1770757557e+02 stress_197
                      6.2092100425e+02 stress_198
                      6.2341068751e+02 stress_199
                      6.2515985566e+02 stress_200
                      6.2615788062e+02 stress_201
                      6.2620676561e+02 stress_202
                      2.6421001687e+02 stress_203
                     -7.9929983203e+01 stress_204
                      2.8997284463e+01 stress_205
                      4.6806046037e+02 stress_206
                      4.8723702512e+02 stress_207
                      4.2240963610e+02 stress_208
                      3.0529901456e+02 stress_209
                      1.4336017797e+02 stress_210
                     -4.0019518994e+01 stress_211
                     -2.0583638960e+02 stress_212
                     -3.2623881565e+02 stress_213
                     -4.0211922930e+02 stress_214
                     -4.4832309221e+02 stress_215
                     -4.7786248323e+02 stress_216
                     -4.9856926215e+02 stress_217
                     -5.1461143817e+02 stress_218
                     -5.2813028502e+02 stress_219
                     -5.4021832355e+02 stress_220
                     -5.5142814276e+02 stress_221
                     -5.6202731438e+02 stress_222
                     -5.7212979531e+02 stress_223
                     -5.8176406242e+02 stress_224
                     -5.9091153502e+02 stress_225
                     -5.9952701459e+02 stress_226
                     -6.0755146024e+02 stress_227
                     -6.1492115485e+02 stress_228
                     -6.2156941212e+02 stress_229
                     -6.2743454730e+02 stress_230
                     -6.3245921552e+02 stress_231
                     -6.3659144915e+02 stress_232
                     -6.3979041230e+02 stress_233
                     -6.4202258928e+02 stress_234
                     -6.4326366446e+02 stress_235
                     -6.3677093823e+02 stress_236
                     -2.7213916925e+02 stress_237
                      2.2950561367e+01 stress_238
                     -1.9713383001e+02 stress_239
                     -4.4714909790e+02 stress_240
                     -1.1617535866e+02 stress_241
                      6.0501950951e+01 stress_242
                     -2.7198671383e+02 stress_243
                     -3.9580335603e+02 stress_244
                     -5.0431474497e+02 stress_245
                     -3.1929723247e+02 stress_246
                      1.5282684645e+01 stress_247
                      2.7652187117e+02 stress_248
                      3.9084300328e+02 stress_249
                      4.3379577770e+02 stress_250
                      4.4619066594e+02 stress_251
                      3.4076772764e+02 stress_252
                      1.9195209516e+01 stress_253
                     -3.1464693367e+02 stress_254
                     -4.8445558892e+02 stress_255
                     -5.4589462813e+02 stress_256
                     -5.5822810801e+02 stress_257
                     -2.8093687415e+02 stress_258
                      9.8302651228e+01 stress_259
                      2.1646253209e+02 stress_260
                      1.8172115694e+00 stress_261
                     -3.6368875256e+02 stress_262
                     -5.2136680450e+02 stress_263
                     -5.4320329281e+02 stress_264
                     -5.0115775699e+02 stress_265
                     -4.0693902171e+02 stress_266
                     -2.6423483081e+02 stress_267
                     -8.6848592189e+01 stress_268
                      9.4361169425e+01 stress_269
                      2.4346367560e+02 stress_270
                      3.4575050917e+02 stress_271
                      4.0970099431e+02 stress_272
                      4.4965067039e+02 stress_273
                      4.7621863619e+02 stress_274
                      4.9557241161e+02 stress_275
                      5.1101173784e+02 stress_276
                      5.2426659013e+02 stress_277
                      5.3623800599e+02 stress_278
                      5.4738917608e+02 stress_279
                      5.5794685510e+02 stress_280
                      5.6800693698e+02 stress_281
                      5.7759157161e+02 stress_282
                      5.8668067529e+02 stress_283
                      5.9523133675e+02 stress_284
                      6.0318741999e+02 stress_285
                      6.1048852140e+02 stress_286
                      6.1707328944e+02 stress_287
                      6.2288199957e+02 stress_288
                      6.2786124418e+02 stress_289
                      6.3196327708e+02 stress_290
                      6.3514753450e+02 stress_291
                      6.3738330674e+02 stress_292
                      6.3864774422e+02 stress_293
                      6.3866641434e+02 stress_294
                      2.6479484642e+02 stress_295
                     -7.1585093312e+01 stress_296
                      5.9039088383e+01 stress_297
                      4.8351432778e+02 stress_298
                      4.9839750883e+02 stress_299
                      4.5487770914e+02 stress_300
                      3.7652557534e+02 stress_301
                      2.6514545389e+02 stress_302
                      1.2707809703e+02 stress_303
                     -2.3170261154e+01 stress_304
                     -1.6393650454e+02 stress_305
                     -2.7725508189e+02 stress_306
                     -3.5828626426e+02 stress_307
                     -4.1278268665e+02 stress_308
                     -4.4928848301e+02 stress_309
                     -4.7469694067e+02 stress_310
                     -4.9353279338e+02 stress_311
                     -5.0852734007e+02 stress_312
                     -5.2127934650e+02 stress_313
                     -5.3272179496e+02 stress_314
                     -5.4339918102e+02 stress_315
                     -5.5362857271e+02 stress_316
                     -5.6359256374e+02 stress_317
                     -5.7339161084e+02 stress_318
                     -5.8307552867e+02 stress_319
                     -5.9266244588e+02 stress_320
                     -6.0214947360e+02 stress_321
                     -6.1152082724e+02 stress_322
                     -6.2075147256e+02 stress_323
                     -6.2981106108e+02 stress_324
                     -6.3866608249e+02 stress_325
                     -6.4727996066e+02 stress_326
                     -6.5561635828e+02 stress_327
                     -6.6363707293e+02 stress_328
                     -6.7130611874e+02 stress_329
                     -6.7858762759e+02 stress_330
                     -6.8544649613e+02 stress_331
                     -6.9185034915e+02 stress_332
                     -6.9776764085e+02 stress_333
                     -7.0316982629e+02 stress_334
                     -7.0803098385e+02 stress_335
                     -7.1232573577e+02 stress_336
                     -7.1603422680e+02 stress_337
                     -7.1913750598e+02 stress_338
                     -7.2162004850e+02 stress_339
                     -7.2347002967e+02 stress_340
                     -7.2467801091e+02 stress_341
                     -7.2523776389e+02 stress_342


Active response data for evaluation 133:
Active set vector = { 1 1 1 1 1 1 1 1 1 1 1 1 1 1 1 1 1 1 1 1 1 1 1 1 1 1 1 1 1 1 1 1 1 1 1 1 1 1 1 1 1 1 1 1 1 1 1 1 1 1 1 1 1 1 1 1 1 1 1 1 1 1 1 1 1 1 1 1 1 1 1 1 1 1 1 1 1 1 1 1 1 1 1 1 1 1 1 1 1 1 1 1 1 1 1 1 1 1 1 1 1 1 1 1 1 1 1 1 1 1 1 1 1 1 1 1 1 1 1 1 1 1 1 1 1 1 1 1 1 1 1 1 1 1 1 1 1 1 1 1 1 1 1 1 1 1 1 1 1 1 1 1 1 1 1 1 1 1 1 1 1 1 1 1 1 1 1 1 1 1 1 1 1 1 1 1 1 1 1 1 1 1 1 1 1 1 1 1 1 1 1 1 1 1 1 1 1 1 1 1 1 1 1 1 1 1 1 1 1 1 1 1 1 1 1 1 1 1 1 1 1 1 1 1 1 1 1 1 1 1 1 1 1 1 1 1 1 1 1 1 1 1 1 1 1 1 1 1 1 1 1 1 1 1 1 1 1 1 1 1 1 1 1 1 1 1 1 1 1 1 1 1 1 1 1 1 1 1 1 1 1 1 1 1 1 1 1 1 1 1 1 1 1 1 1 1 1 1 1 1 1 1 1 1 1 1 1 1 1 1 1 1 1 1 1 1 1 1 1 1 1 1 1 1 1 1 1 1 1 1 1 1 1 1 1 1 1 1 1 1 1 1 }
                      2.4220144682e+00 stress_1
                     -2.5171554319e+02 stress_2
                     -4.9424616604e+02 stress_3
                     -4.9576578118e+02 stress_4
                     -1.6682220194e+02 stress_5
                      2.5330137729e+02 stress_6
                      4.0136589859e+02 stress_7
                      4.0223417823e+02 stress_8
                      1.5257286890e+02 stress_9
                     -2.3137553867e+02 stress_10
                     -4.3993628215e+02 stress_11
                     -4.8922580070e+02 stress_12
                     -5.0314254258e+02 stress_13
                     -5.0413581904e+02 stress_14
                     -1.7338111769e+02 stress_15
                     -3.4134490508e+02 stress_16
                     -5.0980996281e+02 stress_17
                     -3.1501083898e+02 stress_18
                      2.1460912982e+01 stress_19
                      2.9858005637e+02 stress_20
                      4.1858099395e+02 stress_21
                      4.6352515841e+02 stress_22
                      4.8208796230e+02 stress_23
                      4.8821129154e+02 stress_24
                      1.5751349499e+02 stress_25
                      2.8562595221e+02 stress_26
                      4.2950132065e+02 stress_27
                      4.6527783250e+02 stress_28
                      3.4240704799e+02 stress_29
                      1.2876896345e+02 stress_30
                     -1.2498820858e+02 stress_31
                     -3.2063158152e+02 stress_32
                     -4.2445845589e+02 stress_33
                     -4.7426314339e+02 stress_34
                     -5.0121805141e+02 stress_35
                     -5.1870341504e+02 stress_36
                     -5.3170245219e+02 stress_37
                     -5.4201783999e+02 stress_38
                     -5.5025651804e+02 stress_39
                     -5.5656335188e+02 stress_40
                     -5.6092401284e+02 stress_41
                     -5.6327920350e+02 stress_42
                     -5.4781240164e+02 stress_43
                     -1.6075419250e+02 stress_44
                      1.0637202225e+02 stress_45
                     -9.9833574990e+01 stress_46
                     -4.5321717670e+02 stress_47
                     -1.5679873865e+02 stress_48
                     -2.5973482608e+02 stress_49
                     -4.1954319125e+02 stress_50
                     -5.6864150126e+02 stress_51
                     -3.9866895722e+02 stress_52
                     -6.1063102018e+01 stress_53
                      2.2651528007e+02 stress_54
                      3.5829708826e+02 stress_55
                      4.0785568310e+02 stress_56
                      4.2290900193e+02 stress_57
                      3.3653991229e+02 stress_58
                      2.1707455771e+01 stress_59
                     -3.1588944363e+02 stress_60
                     -4.7140083214e+02 stress_61
                     -5.2132427793e+02 stress_62
                     -5.3233981771e+02 stress_63
                     -2.6387008997e+02 stress_64
                      1.1341176176e+02 stress_65
                      2.0044188409e+02 stress_66
                     -7.1883604715e+01 stress_67
                     -4.4064419006e+02 stress_68
                     -5.3484347634e+02 stress_69
                     -5.3592282687e+02 stress_70
                     -4.4052470223e+02 stress_71
                     -2.6827960605e+02 stress_72
                     -4.4789505923e+01 stress_73
                      1.6689734619e+02 stress_74
                      3.1137693372e+02 stress_75
                      3.9202494340e+02 stress_76
                      4.3625631033e+02 stress_77
                      4.6308448959e+02 stress_78
                      4.8170707692e+02 stress_79
                      4.9617384506e+02 stress_80
                      5.0823044931e+02 stress_81
                      5.1860483168e+02 stress_82
                      5.2756524981e+02 stress_83
                      5.3517166823e+02 stress_84
                      5.4138967868e+02 stress_85
                      5.4615345265e+02 stress_86
                      5.4939514994e+02 stress_87
                      5.5105894389e+02 stress_88
                      4.7733083122e+02 stress_89
                      4.3715715436e+01 stress_90
                     -1.5948287546e+02 stress_91
                      1.3074621596e+02 stress_92
                      4.7807657726e+02 stress_93
                      4.8441784560e+02 stress_94
                      4.2421305708e+02 stress_95
                      3.1603641303e+02 stress_96
                      1.6534821504e+02 stress_97
                     -1.0203588400e+01 stress_98
                     -1.7743003516e+02 stress_99
                     -3.0619459107e+02 stress_100
                     -3.9078703321e+02 stress_101
                     -4.4296508334e+02 stress_102
                     -4.7591735850e+02 stress_103
                     -4.9839547173e+02 stress_104
                     -5.1527632674e+02 stress_105
                     -5.2913665209e+02 stress_106
                     -5.4132009883e+02 stress_107
                     -5.5252512267e+02 stress_108
                     -5.6310840064e+02 stress_109
                     -5.7324149980e+02 stress_110
                     -5.8299244588e+02 stress_111
                     -5.9236962027e+02 stress_112
                     -6.0134877294e+02 stress_113
                     -6.0988649943e+02 stress_114
                     -6.1792873042e+02 stress_115
                     -6.2541717744e+02 stress_116
                     -6.3229198274e+02 stress_117
                     -6.3849669427e+02 stress_118
                     -6.4397779043e+02 stress_119
                     -6.4868556437e+02 stress_120
                     -6.5257875838e+02 stress_121
                     -6.5562140242e+02 stress_122
                     -6.5778510586e+02 stress_123
                     -6.5905067071e+02 stress_124
                     -6.5939062704e+02 stress_125
                     -5.5681437341e+02 stress_126
                     -3.0590758937e+02 stress_127
                      9.0424957794e-01 stress_128
                      2.1969671781e+02 stress_129
                      3.2872157544e+02 stress_130
                      3.7956212134e+02 stress_131
                      4.0439013530e+02 stress_132
                      4.1566885183e+02 stress_133
                      4.1629797218e+02 stress_134
                      1.1367787115e+01 stress_135
                     -1.0524591327e+01 stress_136
                      1.7459537180e+02 stress_137
                      1.3845527289e+02 stress_138
                     -3.3910519494e+01 stress_139
                     -3.2098519902e+02 stress_140
                     -5.3001830636e+02 stress_141
                     -6.1375040328e+02 stress_142
                     -6.4625750940e+02 stress_143
                     -6.6105689246e+02 stress_144
                     -6.6717169665e+02 stress_145
                     -6.4677089844e+02 stress_146
                     -4.0872658825e+02 stress_147
                     -5.7885455684e+01 stress_148
                      1.9431683066e+02 stress_149
                      3.0670005835e+02 stress_150
                      3.4828145455e+02 stress_151
                      3.5341594488e+02 stress_152
                      1.3696403698e+02 stress_153
                     -2.3144293031e+02 stress_154
                     -4.9336761414e+02 stress_155
                     -5.9021721882e+02 stress_156
                     -6.1725484896e+02 stress_157
                     -4.9452779310e+02 stress_158
                     -8.9455771404e+01 stress_159
                      9.3891954018e+01 stress_160
                     -7.2925767743e+01 stress_161
                     -4.6827976922e+02 stress_162
                     -6.2384464037e+02 stress_163
                     -6.3481120398e+02 stress_164
                     -5.9304801029e+02 stress_165
                     -5.1075803599e+02 stress_166
                     -3.8997042174e+02 stress_167
                     -2.3775367619e+02 stress_168
                     -7.1347647350e+01 stress_169
                      8.3550306249e+01 stress_170
                      2.0613226473e+02 stress_171
                      2.9192560602e+02 stress_172
                      3.4857918670e+02 stress_173
                      3.8610442854e+02 stress_174
                      4.1214783289e+02 stress_175
                      4.3152391122e+02 stress_176
                      4.4705036622e+02 stress_177
                      4.6033919923e+02 stress_178
                      4.7230704648e+02 stress_179
                      4.8347552120e+02 stress_180
                      4.9413876888e+02 stress_181
                      5.0445612932e+02 stress_182
                      5.1450737643e+02 stress_183
                      5.2432263460e+02 stress_184
                      5.3390203386e+02 stress_185
                      5.4322631723e+02 stress_186
                      5.5226438266e+02 stress_187
                      5.6097822778e+02 stress_188
                      5.6932527985e+02 stress_189
                      5.7726154632e+02 stress_190
                      5.8474278176e+02 stress_191
                      5.9172459279e+02 stress_192
                      5.9816615441e+02 stress_193
                      6.0402784967e+02 stress_194
                      6.0927250242e+02 stress_195
                      6.1386819136e+02 stress_196
                      6.1778484691e+02 stress_197
                      6.2099827689e+02 stress_198
                      6.2348796110e+02 stress_199
                      6.2523712990e+02 stress_200
                      6.2623515522e+02 stress_201
                      6.2628404023e+02 stress_202
                      2.6428720567e+02 stress_203
                     -7.9853675610e+01 stress_204
                      2.9073592127e+01 stress_205
                      4.6814130111e+02 stress_206
                      4.8731888379e+02 stress_207
                      4.2249149426e+02 stress_208
                      3.0538085167e+02 stress_209
                      1.4344181851e+02 stress_210
                     -3.9938688751e+01 stress_211
                     -2.0575728791e+02 stress_212
                     -3.2616182560e+02 stress_213
                     -4.0204397819e+02 stress_214
                     -4.4824899679e+02 stress_215
                     -4.7778909290e+02 stress_216
                     -4.9849629500e+02 stress_217
                     -5.1453872883e+02 stress_218
                     -5.2805773703e+02 stress_219
                     -5.4014587964e+02 stress_220
                     -5.5135576803e+02 stress_221
                     -5.6195498692e+02 stress_222
                     -5.7205750097e+02 stress_223
                     -5.8169179182e+02 stress_224
                     -5.9083928176e+02 stress_225
                     -5.9945477421e+02 stress_226
                     -6.0747922955e+02 stress_227
                     -6.1484893154e+02 stress_228
                     -6.2149719445e+02 stress_229
                     -6.2736233394e+02 stress_230
                     -6.3238700544e+02 stress_231
                     -6.3651924151e+02 stress_232
                     -6.3971820641e+02 stress_233
                     -6.4195038454e+02 stress_234
                     -6.4319146034e+02 stress_235
                     -6.3669873412e+02 stress_236
                     -2.7206665080e+02 stress_237
                      2.3025406005e+01 stress_238
                     -1.9705902737e+02 stress_239
                     -4.4707497072e+02 stress_240
                     -1.1610085972e+02 stress_241
                      6.0577841136e+01 stress_242
                     -2.7191104598e+02 stress_243
                     -3.9572819155e+02 stress_244
                     -5.0424045100e+02 stress_245
                     -3.1922290264e+02 stress_246
                      1.5358521848e+01 stress_247
                      2.7660286839e+02 stress_248
                      3.9092806854e+02 stress_249
                      4.3388259793e+02 stress_250
                      4.4627798967e+02 stress_251
                      3.4085504863e+02 stress_252
                      1.9282039163e+01 stress_253
                     -3.1456378441e+02 stress_254
                     -4.8437690732e+02 stress_255
                     -5.4581807498e+02 stress_256
                     -5.5815200376e+02 stress_257
                     -2.8086065745e+02 stress_258
                      9.8381344579e+01 stress_259
                      2.1654333619e+02 stress_260
                      1.8979663905e+00 stress_261
                     -3.6360995827e+02 stress_262
                     -5.2129083313e+02 stress_263
                     -5.4312784509e+02 stress_264
                     -5.0108230914e+02 stress_265
                     -4.0686356454e+02 stress_266
                     -2.6415925423e+02 stress_267
                     -8.6772370371e+01 stress_268
                      9.4439223502e+01 stress_269
                      2.4354467458e+02 stress_270
                      3.4583449398e+02 stress_271
                      4.0978722504e+02 stress_272
                      4.4973835546e+02 stress_273
                      4.7630721407e+02 stress_274
                      4.9566153547e+02 stress_275
                      5.1110120162e+02 stress_276
                      5.2435627121e+02 stress_277
                      5.3632782999e+02 stress_278
                      5.4747909670e+02 stress_279
                      5.5803684274e+02 stress_280
                      5.6809697220e+02 stress_281
                      5.7768164133e+02 stress_282
                      5.8677077046e+02 stress_283
                      5.9532145099e+02 stress_284
                      6.0327754870e+02 stress_285
                      6.1057866118e+02 stress_286
                      6.1716343774e+02 stress_287
                      6.2297215442e+02 stress_288
                      6.2795140402e+02 stress_289
                      6.3205344068e+02 stress_290
                      6.3523770079e+02 stress_291
                      6.3747347482e+02 stress_292
                      6.3873791328e+02 stress_293
                      6.3875658342e+02 stress_294
                      2.6488468902e+02 stress_295
                     -7.1498266264e+01 stress_296
                      5.9125915565e+01 stress_297
                      4.8360246308e+02 stress_298
                      4.9848584680e+02 stress_299
                      4.5496604692e+02 stress_300
                      3.7661390527e+02 stress_301
                      2.6523370670e+02 stress_302
                      1.2716597358e+02 stress_303
                     -2.3083505936e+01 stress_304
                     -1.6385191751e+02 stress_305
                     -2.7717334109e+02 stress_306
                     -3.5820726900e+02 stress_307
                     -4.1270584691e+02 stress_308
                     -4.4921315335e+02 stress_309
                     -4.7462261644e+02 stress_310
                     -4.9345912930e+02 stress_311
                     -5.0845411183e+02 stress_312
                     -5.2120641024e+02 stress_313
                     -5.3264905799e+02 stress_314
                     -5.4332658279e+02 stress_315
                     -5.5355607297e+02 stress_316
                     -5.6352013524e+02 stress_317
                     -5.7331923477e+02 stress_318
                     -5.8300319182e+02 stress_319
                     -5.9259013881e+02 stress_320
                     -6.0207718946e+02 stress_321
                     -6.1144856098e+02 stress_322
                     -6.2067922040e+02 stress_323
                     -6.2973882015e+02 stress_324
                     -6.3859385061e+02 stress_325
                     -6.4720773611e+02 stress_326
                     -6.5554413973e+02 stress_327
                     -6.6356485932e+02 stress_328
                     -6.7123390922e+02 stress_329
                     -6.7851542147e+02 stress_330
                     -6.8537429285e+02 stress_331
                     -6.9177814824e+02 stress_332
                     -6.9769544193e+02 stress_333
                     -7.0309762903e+02 stress_334
                     -7.0795878796e+02 stress_335
                     -7.1225354102e+02 stress_336
                     -7.1596203298e+02 stress_337
                     -7.1906531289e+02 stress_338
                     -7.2154785597e+02 stress_339
                     -7.2339783755e+02 stress_340
                     -7.2460581906e+02 stress_341
                     -7.2516557215e+02 stress_342

>>>>> Total response returned to iterator:

Active set vector = { 2 2 2 2 2 2 2 2 2 2 2 2 2 2 2 2 2 2 2 2 2 2 2 2 2 2 2 2 2 2 2 2 2 2 2 2 2 2 2 2 2 2 2 2 2 2 2 2 2 2 2 2 2 2 2 2 2 2 2 2 2 2 2 2 2 2 2 2 2 2 2 2 2 2 2 2 2 2 2 2 2 2 2 2 2 2 2 2 2 2 2 2 2 2 2 2 2 2 2 2 2 2 2 2 2 2 2 2 2 2 2 2 2 2 2 2 2 2 2 2 2 2 2 2 2 2 2 2 2 2 2 2 2 2 2 2 2 2 2 2 2 2 2 2 2 2 2 2 2 2 2 2 2 2 2 2 2 2 2 2 2 2 2 2 2 2 2 2 2 2 2 2 2 2 2 2 2 2 2 2 2 2 2 2 2 2 2 2 2 2 2 2 2 2 2 2 2 2 2 2 2 2 2 2 2 2 2 2 2 2 2 2 2 2 2 2 2 2 2 2 2 2 2 2 2 2 2 2 2 2 2 2 2 2 2 2 2 2 2 2 2 2 2 2 2 2 2 2 2 2 2 2 2 2 2 2 2 2 2 2 2 2 2 2 2 2 2 2 2 2 2 2 2 2 2 2 2 2 2 2 2 2 2 2 2 2 2 2 2 2 2 2 2 2 2 2 2 2 2 2 2 2 2 2 2 2 2 2 2 2 2 2 2 2 2 2 2 2 2 2 2 2 2 2 2 2 2 2 2 2 2 2 2 2 2 2 2 2 2 2 2 2 } Deriv vars vector = { 1 2 3 4 5 6 7 }
 [  0.0000000000e+00  1.1653237153e-05  0.0000000000e+00  0.0000000000e+00 
    0.0000000000e+00  0.0000000000e+00  0.0000000000e+00 ] stress_1 gradient
 [ -1.9957180018e-05 -1.2110527745e-03 -5.4369815890e-04  2.4709262212e-03 
   -2.8643542862e-02  6.8893637169e-02  0.0000000000e+00 ] stress_2 gradient
 [ -9.9810980893e-01 -7.0259313382e-05 -2.2761850996e+02  2.2095826755e-01 
   -2.5624112154e+00 -4.6318589617e+02  0.0000000000e+00 ] stress_3 gradient
 [ -1.0006235604e+00 -7.1846540215e-05 -3.0614912234e+02  5.5728005771e-02 
   -6.4584803863e-01 -4.6961646814e+02  0.0000000000e+00 ] stress_4 gradient
 [ -9.8330197674e-01  1.4705040030e-03 -3.0517807820e+02 -2.3509483870e+01 
    3.0035035325e+01 -4.6499460374e+02  5.8265212797e+00 ] stress_5 gradient
 [ -2.9388112989e-01  1.8942207712e-03 -2.2915880562e+02 -5.2286561811e+02 
    6.8542265083e+02 -2.9129827018e+02  2.2480747800e+02 ] stress_6 gradient
 [  4.6015190934e-01  8.6518258056e-04 -2.6738510546e+01 -6.2754015543e+02 
    8.2295215935e+02 -1.1173998678e+02  4.5118000993e+02 ] stress_7 gradient
 [  4.6531626149e-01  8.5744563761e-04 -2.4293501866e+01 -6.2639487538e+02 
    8.2144134929e+02 -1.1055331885e+02  4.5267557691e+02 ] stress_8 gradient
 [  4.5823878784e-01 -3.2728190047e-04 -2.4620807897e+01 -6.1488468044e+02 
    8.0609497821e+02 -1.1243990618e+02  4.5090206211e+02 ] stress_9 gradient
 [  9.4046806227e-03 -1.1345295228e-03 -6.8424359018e+01 -7.9035816110e+01 
    8.6474491295e+01 -2.4188006600e+02  3.2921083221e+02 ] stress_10 gradient
 [ -8.3943653438e-01 -1.7733652526e-04 -3.6642345242e+02  4.0021300085e+02 
   -5.4957727317e+02 -5.1536733425e+02  7.2093915951e+01 ] stress_11 gradient
 [ -9.9619525151e-01 -5.1708692992e-05 -7.7925803026e+02  2.4368572051e+02 
   -3.3155411811e+02 -5.7941595082e+02  1.1879074847e+01 ] stress_12 gradient
 [ -1.0099728853e+00 -8.6413095678e-05 -1.0691027451e+03  1.5978571949e+02 
   -2.1670391010e+02 -5.8892177496e+02  2.9424132148e+00 ] stress_13 gradient
 [ -1.0102975693e+00 -9.0411739093e-05 -1.0959690247e+03  1.5375600442e+02 
   -2.0847518579e+02 -5.8936958360e+02  2.5214979692e+00 ] stress_14 gradient
 [ -9.7836264751e-01  1.4268566844e-03 -1.0917999505e+03  3.9565056775e+01 
   -1.6343330571e+02 -5.8076087442e+02  1.5165728044e+01 ] stress_15 gradient
 [ -9.7836298048e-01  6.1871953372e-04 -1.0917999505e+03  3.9567734570e+01 
   -1.6345045535e+02 -5.8074789446e+02  1.5166926095e+01 ] stress_16 gradient
 [ -9.9068996247e-01 -1.6301251156e-04 -1.1172553344e+03  3.1453925406e+01 
   -1.6661839471e+02 -6.7651204602e+02  1.0113946399e+01 ] stress_17 gradient
 [ -9.8664824852e-01  7.6485708493e-04 -1.1167676375e+03  1.2856401517e+01 
   -1.5952227622e+02 -6.7528294361e+02  1.1688984090e+01 ] stress_18 gradient
 [ -7.9908781533e-01  1.9487747856e-03 -1.0872416431e+03 -4.5573780686e+02 
    2.7659135536e+01 -6.1516780422e+02  8.8734844106e+01 ] stress_19 gradient
 [ -6.1206860671e-02  1.5743640842e-03 -8.8645673642e+02 -1.1675355328e+03 
    3.4844797027e+02 -3.6982902805e+02  4.0317290900e+02 ] stress_20 gradient
 [  5.2158968229e-01  8.0564605761e-04 -4.9578164686e+02 -1.0010820936e+03 
    3.3173747327e+02 -1.7034400915e+02  6.5884497577e+02 ] stress_21 gradient
 [  7.5524316438e-01  4.8272904297e-04 -8.4907099327e+01 -7.0483489947e+02 
    2.4021022451e+02 -8.8548291989e+01  7.6368002769e+02 ] stress_22 gradient
 [  8.3971526896e-01  3.7717107310e-04  2.2008938383e+02 -5.4161637390e+02 
    1.8649701352e+02 -5.8528638754e+01  8.0215463631e+02 ] stress_23 gradient
 [  8.6418724593e-01  3.5018075929e-04  3.5040774846e+02 -4.8573175736e+02 
    1.6778584714e+02 -4.9763670823e+01  8.1338876037e+02 ] stress_24 gradient
 [  8.3105239610e-01 -1.1640491321e-03  3.4547151679e+02 -3.4450114228e+02 
    1.2798482321e+02 -6.4498921351e+01  8.0068902060e+02 ] stress_25 gradient
 [  8.3105179260e-01 -5.4764979114e-04  3.4547151679e+02 -3.4450324544e+02 
    1.2798755985e+02 -6.4498921352e+01  8.0068822190e+02 ] stress_26 gradient
 [  8.2846743143e-01  1.5059024475e-04  3.4622834402e+02 -3.5694333611e+02 
    1.5113975250e+02 -6.6423450109e+01  7.9493398303e+02 ] stress_27 gradient
 [  8.3098049614e-01  3.1697519835e-04  3.4988199276e+02 -3.6783188049e+02 
    1.9917187250e+02 -6.7521255228e+01  7.9165332009e+02 ] stress_28 gradient
 [  8.3013172290e-01 -2.7223280924e-04  3.4977434060e+02 -3.6261227296e+02 
    1.9769481439e+02 -6.7872213391e+01  7.9135340799e+02 ] stress_29 gradient
 [  7.9311629410e-01 -1.2142476766e-03  3.4420306999e+02 -2.1255338327e+02 
    1.5416429170e+02 -8.4408683052e+01  7.7721600704e+02 ] stress_30 gradient
 [  5.2198924210e-01 -1.8067692349e-03  2.9090492545e+02  4.3934874856e+02 
   -4.2019530186e+01 -2.1267066184e+02  6.6756359213e+02 ] stress_31 gradient
 [ -4.7865974861e-02 -1.4294926963e-03  1.0269308309e+02  1.0349796501e+03 
   -2.3883259780e+02 -4.9467528032e+02  4.2647500062e+02 ] stress_32 gradient
 [ -5.1591480924e-01 -8.4766135536e-04 -2.3850061998e+02  9.7447368898e+02 
   -2.4639923666e+02 -7.3517098361e+02  2.2087267922e+02 ] stress_33 gradient
 [ -7.5601260836e-01 -5.3301226779e-04 -6.7558302907e+02  6.9747632028e+02 
   -1.8151522636e+02 -8.6253085515e+02  1.1199101044e+02 ] stress_34 gradient
 [ -8.6579697251e-01 -4.0932799332e-04 -1.1564640960e+03  4.7402211844e+02 
   -1.2494094505e+02 -9.2233951770e+02  6.0860191235e+01 ] stress_35 gradient
 [ -9.1753422409e-01 -3.7405512584e-04 -1.6463237872e+03  3.2968753734e+02 
   -8.7482306144e+01 -9.5115852458e+02  3.6222272770e+01 ] stress_36 gradient
 [ -9.4360308761e-01 -3.7643281463e-04 -2.1188976966e+03  2.4024512239e+02 
   -6.3999344438e+01 -9.6595068725e+02  2.3576445292e+01 ] stress_37 gradient
 [ -9.5763032145e-01 -3.9368777794e-04 -2.5521127837e+03  1.8458032634e+02 
   -4.9290611466e+01 -9.7403270957e+02  1.6666885926e+01 ] stress_38 gradient
 [ -9.6556666139e-01 -4.1500802231e-04 -2.9269129871e+03  1.4960442314e+02 
   -4.0012657748e+01 -9.7866106394e+02  1.2710122882e+01 ] stress_39 gradient
 [ -9.7015976788e-01 -4.3474989279e-04 -3.2270276083e+03  1.2778771911e+02 
   -3.4211519307e+01 -9.8136588801e+02  1.0397884480e+01 ] stress_40 gradient
 [ -9.7274496146e-01 -4.4976275205e-04 -3.4398352485e+03  1.1486648739e+02 
   -3.0770462851e+01 -9.8289802258e+02  9.0880154063e+00 ] stress_41 gradient
 [ -9.7397265060e-01 -4.5826032639e-04 -3.5562958454e+03  1.0854077835e+02 
   -2.9084690005e+01 -9.8362889420e+02  8.4630321426e+00 ] stress_42 gradient
 [ -9.7397221358e-01 -3.8384460438e-04 -3.5562958454e+03  1.0853475618e+02 
   -2.9083960232e+01 -9.8362839497e+02  8.4634314978e+00 ] stress_43 gradient
 [ -9.0790878667e-01  1.3252012746e-03 -3.5438506044e+03 -1.9324624385e+02 
    3.5426771794e+00 -9.5245402449e+02  6.3097751122e+01 ] stress_44 gradient
 [ -5.5236026181e-01  1.7865842842e-03 -3.4566969461e+03 -1.0204415132e+03 
    9.5108238959e+01 -7.7998130182e+02  3.6536641348e+02 ] stress_45 gradient
 [ -5.5265497879e-01  7.9514295007e-04 -3.4567051559e+03 -1.0197390691e+03 
    9.4436301579e+01 -7.8046565404e+02  3.6518071558e+02 ] stress_46 gradient
 [ -8.0183901769e-01 -3.2685046383e-04 -3.4803798754e+03 -4.4475218151e+02 
   -3.3246943438e+02 -1.2220323277e+03  1.9577950139e+02 ] stress_47 gradient
 [ -7.7225250869e-01  1.0306913334e-03 -3.4751032890e+03 -5.8760611467e+02 
   -3.1113054221e+02 -1.2031839274e+03  2.1947934593e+02 ] stress_48 gradient
 [ -7.7226104096e-01  5.3544658655e-04 -3.4751032890e+03 -5.8758487620e+02 
   -3.1114659719e+02 -1.2031974066e+03  2.1947415437e+02 ] stress_49 gradient
 [ -7.8624962987e-01 -2.0089921047e-04 -3.4759780986e+03 -5.5315620846e+02 
   -3.3065905300e+02 -1.2272807248e+03  2.0948480528e+02 ] stress_50 gradient
 [ -1.0150401569e+00 -3.8909603546e-04 -3.5665135568e+03  3.0505239142e+01 
   -2.3987598903e+02 -1.7152917939e+03  7.0880689633e+00 ] stress_51 gradient
 [ -1.0122240303e+00  4.2217207400e-04 -3.5660383650e+03  1.0114569841e+01 
   -2.3742924664e+02 -1.7130976813e+03  9.3004697812e+00 ] stress_52 gradient
 [ -8.6082057579e-01  1.6954099844e-03 -3.5359880829e+03 -5.3607269117e+02 
   -1.6234185901e+02 -1.5896273548e+03  1.3380304611e+02 ] stress_53 gradient
 [ -2.3204157042e-01  1.6231608325e-03 -3.3430771698e+03 -1.4391474086e+03 
    6.7551326209e+00 -1.0632100304e+03  6.6462517241e+02 ] stress_54 gradient
 [  3.2110959090e-01  9.7863896336e-04 -2.9942178724e+03 -1.4075116690e+03 
    6.8219614728e+01 -5.9191315662e+02  1.1398692344e+03 ] stress_55 gradient
 [  5.6614603250e-01  6.5125068323e-04 -2.6786078660e+03 -1.1565569088e+03 
    7.0432282810e+01 -3.8077413012e+02  1.3527780694e+03 ] stress_56 gradient
 [  6.4044669702e-01  5.5216522510e-04 -2.5311260515e+03 -1.0439166799e+03 
    6.7262519019e+01 -3.1638453997e+02  1.4177072411e+03 ] stress_57 gradient
 [  6.4028269020e-01  1.3699140256e-04 -2.5311439935e+03 -1.0428810401e+03 
    6.6886321658e+01 -3.1649037658e+02  1.4176014133e+03 ] stress_58 gradient
 [  5.8069701016e-01 -1.2395584091e-03 -2.5401562183e+03 -8.0773628750e+02 
   -1.5013175520e+01 -3.6037502391e+02  1.3737994713e+03 ] stress_59 gradient
 [  5.2049844699e-02 -1.6394233521e-03 -2.6723074967e+03  3.4463063030e+02 
   -3.6840850597e+02 -7.8649574430e+02  9.4847779441e+02 ] stress_60 gradient
 [ -5.1143110306e-01 -1.0847843549e-03 -2.9982493911e+03  7.5029590800e+02 
   -4.1070151813e+02 -1.2735378094e+03  4.6234464705e+02 ] stress_61 gradient
 [ -7.2473350574e-01 -8.3220209607e-04 -3.2994486893e+03  6.5987313296e+02 
   -3.2706328492e+02 -1.4677409828e+03  2.6850319280e+02 ] stress_62 gradient
 [ -7.7023312925e-01 -7.8010329622e-04 -3.4054191823e+03  6.1370157798e+02 
   -2.9827214562e+02 -1.5102528496e+03  2.2607062309e+02 ] stress_63 gradient
 [ -7.5527448404e-01  4.7690794425e-04 -3.4025653129e+03  5.1623030776e+02 
   -2.8574470055e+02 -1.4984620532e+03  2.3786423696e+02 ] stress_64 gradient
 [ -4.0269460532e-01  1.4751303393e-03 -3.3125996500e+03 -5.6215817194e+02 
   -1.2157140623e+02 -1.2076934652e+03  5.2871108060e+02 ] stress_65 gradient
 [ -1.9079755022e-01  1.4033697785e-03 -3.2375264114e+03 -9.0297029033e+02 
   -5.6442739943e+01 -1.0297122470e+03  7.0674105732e+02 ] stress_66 gradient
 [ -2.0362061276e-01  1.2289527036e-04 -3.2386599125e+03 -8.6576820903e+02 
   -8.8018323527e+01 -1.0377629177e+03  6.9869386867e+02 ] stress_67 gradient
 [ -6.6122380708e-01 -5.9189574185e-04 -3.3478693215e+03  6.3262411486e+01 
   -6.5877667572e+02 -1.3796959139e+03  3.5690258263e+02 ] stress_68 gradient
 [ -9.2233886836e-01 -4.4141890137e-04 -3.5819023773e+03  2.9659737608e+02 
   -5.5526858096e+02 -1.6172826084e+03  1.1941253693e+02 ] stress_69 gradient
 [ -9.2502145465e-01 -4.4040716395e-04 -3.5875889118e+03  2.9626893827e+02 
   -5.5023041893e+02 -1.6201187297e+03  1.1657794830e+02 ] stress_70 gradient
 [ -9.2465585742e-01  1.7741394039e-05 -3.5875280177e+03  2.9293722180e+02 
   -5.4979565738e+02 -1.6198431552e+03  1.1685310068e+02 ] stress_71 gradient
 [ -9.0901003177e-01  8.1018309468e-04 -3.5847415668e+03  2.0132316151e+02 
   -5.3623558522e+02 -1.6075531295e+03  1.2914390571e+02 ] stress_72 gradient
 [ -7.7774987521e-01  1.5811449045e-03 -3.5580481288e+03 -2.7190124311e+02 
   -4.5222173846e+02 -1.5015206311e+03  2.3517788718e+02 ] stress_73 gradient
 [ -3.8443239129e-01  1.6887640752e-03 -3.4499349775e+03 -1.0276498831e+03 
   -2.6808148646e+02 -1.1772764255e+03  5.5942910780e+02 ] stress_74 gradient
 [  1.2512958347e-01  1.2055334457e-03 -3.2126245118e+03 -1.3333871578e+03 
   -9.9000294385e+01 -7.5061763582e+02  9.8609939073e+02 ] stress_75 gradient
 [  5.0131535165e-01  7.2465471594e-04 -2.8598701640e+03 -1.1546514339e+03 
   -1.6010280968e+01 -4.3167105134e+02  1.3050569033e+03 ] stress_76 gradient
 [  7.1591694802e-01  4.4213334350e-04 -2.4311514570e+03 -8.6245282366e+02 
    1.1744399940e+01 -2.4784186170e+02  1.4888930344e+03 ] stress_77 gradient
 [  8.3045291071e-01  3.0693990630e-04 -1.9585378577e+03 -6.2199053559e+02 
    1.7906957864e+01 -1.4888813446e+02  1.5878504482e+03 ] stress_78 gradient
 [  8.9253834513e-01  2.5331204923e-04 -1.4647461445e+03 -4.5311462332e+02 
    1.7323140427e+01 -9.4863541994e+01  1.6418769566e+03 ] stress_79 gradient
 [  9.2763753087e-01  2.4195155821e-04 -9.6759764159e+02 -3.3918180126e+02 
    1.5119776935e+01 -6.4136480919e+01  1.6726053669e+03 ] stress_80 gradient
 [  9.4842223674e-01  2.5201658460e-04 -4.8253880131e+02 -2.6242558124e+02 
    1.2875181337e+01 -4.5848715047e+01  1.6908940146e+03 ] stress_81 gradient
 [  9.6126080095e-01  2.7231768202e-04 -2.3596481374e+01 -2.1015444720e+02 
    1.0998208281e+01 -3.4503231120e+01  1.7022399567e+03 ] stress_82 gradient
 [  9.6946701025e-01  2.9650079495e-04  3.9639044007e+02 -1.7413701987e+02 
    9.5357456029e+00 -2.7225467125e+01  1.7095177171e+03 ] stress_83 gradient
 [  9.7483696922e-01  3.2071157333e-04  7.6594722250e+02 -1.4916074823e+02 
    8.4370741650e+00 -2.2448841662e+01  1.7142947457e+03 ] stress_84 gradient
 [  9.7837817208e-01  3.4246055996e-04  1.0749714184e+03 -1.3194531106e+02 
    7.6379740502e+00 -1.9291715886e+01  1.7174520094e+03 ] stress_85 gradient
 [  9.8067243618e-01  3.6008879029e-04  1.3151384719e+03 -1.2042138237e+02 
    7.0828001565e+00 -1.7242379820e+01  1.7195014753e+03 ] stress_86 gradient
 [  9.8205699416e-01  3.7249205214e-04  1.4800110019e+03 -1.1330826385e+02 
    6.7319623677e+00 -1.6004291281e+01  1.7207398606e+03 ] stress_87 gradient
 [  9.8271787024e-01  3.7897283946e-04  1.5650377148e+03 -1.0986764274e+02 
    6.5599186654e+00 -1.5412704622e+01  1.7213312985e+03 ] stress_88 gradient
 [  9.8259113486e-01  2.4532707953e-05  1.5650148795e+03 -1.0852105691e+02 
    6.4531895397e+00 -1.5533018870e+01  1.7212310615e+03 ] stress_89 gradient
 [  8.3935159254e-01 -1.7295983952e-03  1.5350855701e+03  4.6558926903e+02 
   -3.9679644635e+01 -1.5983693083e+02  1.6011645885e+03 ] stress_90 gradient
 [  4.9769182282e-01 -1.9158205568e-03  1.4412067514e+03  1.1663489595e+03 
   -9.6102735473e+01 -5.1024424369e+02  1.3096118931e+03 ] stress_91 gradient
 [  5.0298744702e-01 -5.3178281533e-04  1.4414383667e+03  1.1529855125e+03 
   -8.3439187956e+01 -5.0625190738e+02  1.3156720343e+03 ] stress_92 gradient
 [  9.3487888648e-01  1.3888001437e-04  1.5163680690e+03  1.1398165445e+02 
    5.7981609727e+02 -1.3880170671e+02  1.8735029421e+03 ] stress_93 gradient
 [  9.5210742680e-01  1.2957148158e-04  1.5240140901e+03  7.4056233200e+01 
    5.8916939992e+02 -1.2215191200e+02  1.8987798211e+03 ] stress_94 gradient
 [  9.5203244690e-01 -1.5992269011e-04  1.5240015851e+03  7.4843171484e+01 
    5.8908602350e+02 -1.2222030641e+02  1.8987139283e+03 ] stress_95 gradient
 [  9.4890364387e-01 -6.7314208677e-04  1.5234589747e+03  9.7344161182e+01 
    5.8638148922e+02 -1.2516326284e+02  1.8958657618e+03 ] stress_96 gradient
 [  9.1912655317e-01 -1.3290830015e-03  1.5179899193e+03  2.4381402479e+02 
    5.6582764906e+02 -1.5378507417e+02  1.8681676218e+03 ] stress_97 gradient
 [  7.8943840141e-01 -1.8730325463e-03  1.4911524558e+03  6.5806028610e+02 
    4.9364920479e+02 -2.8046689254e+02  1.7455734608e+03 ] stress_98 gradient
 [  4.8529106795e-01 -1.9730948160e-03  1.4111467915e+03  1.2141827698e+03 
    3.5693156739e+02 -5.8128706205e+02  1.4544590524e+03 ] stress_99 gradient
 [  7.1470532452e-02 -1.6352239297e-03  1.2497827429e+03  1.5099840824e+03 
    2.0736410823e+02 -9.9465836601e+02  1.0544222415e+03 ] stress_100 gradient
 [ -3.0012077656e-01 -1.1834913978e-03  1.0040911768e+03  1.4297722548e+03 
    1.0049723878e+02 -1.3688980845e+03  6.9225302678e+02 ] stress_101 gradient
 [ -5.6010679004e-01 -8.3420358290e-04  6.8934782444e+02  1.1679926771e+03 
    4.1998001917e+01 -1.6325645149e+03  4.3708973233e+02 ] stress_102 gradient
 [ -7.2243582873e-01 -6.1810117489e-04  3.2263349374e+02  8.9398538198e+02 
    1.4172168259e+01 -1.7981848169e+03  2.7681047832e+02 ] stress_103 gradient
 [ -8.2047421664e-01 -5.0004891182e-04 -8.3235228814e+01  6.7028654696e+02 
    1.9233135660e+00 -1.8987385739e+03  1.7949918658e+02 ] stress_104 gradient
 [ -8.8002346599e-01 -4.4389406877e-04 -5.1901493815e+02  5.0322063986e+02 
   -3.0860224768e+00 -1.9600993402e+03  1.2011699091e+02 ] stress_105 gradient
 [ -9.1701687738e-01 -4.2524847169e-04 -9.7763158315e+02  3.8217598646e+02 
   -4.8575435103e+00 -1.9983757460e+03  8.3074851914e+01 ] stress_106 gradient
 [ -9.4065510621e-01 -4.2934392012e-04 -1.4530550123e+03  2.9493124777e+02 
   -5.2226118521e+00 -2.0229238467e+03  5.9317900267e+01 ] stress_107 gradient
 [ -9.5620430914e-01 -4.4739093315e-04 -1.9397547323e+03  2.3166521609e+02 
   -5.0089711597e+00 -2.0391258327e+03  4.3638607704e+01 ] stress_108 gradient
 [ -9.6672034872e-01 -4.7405594941e-04 -2.4324460013e+03  1.8527827680e+02 
   -4.5867981753e+00 -2.0501163646e+03  3.3002710426e+01 ] stress_109 gradient
 [ -9.7401730973e-01 -5.0597980628e-04 -2.9260022934e+03  1.5082393441e+02 
   -4.1193793411e+00 -2.0577630591e+03  2.5602349504e+01 ] stress_110 gradient
 [ -9.7919964207e-01 -5.4094238773e-04 -3.4153922297e+03  1.2489233374e+02 
   -3.6751307610e+00 -2.0632071540e+03  2.0334119984e+01 ] stress_111 gradient
 [ -9.8295702343e-01 -5.7739312965e-04 -3.8956447821e+03  1.0512875103e+02 
   -3.2790471183e+00 -2.0671625474e+03  1.6505548393e+01 ] stress_112 gradient
 [ -9.8573175820e-01 -6.1419548738e-04 -4.3619710609e+03  8.9890514549e+01 
   -2.9373314759e+00 -2.0700900277e+03  1.3672557168e+01 ] stress_113 gradient
 [ -9.8781352724e-01 -6.5047215350e-04 -4.8097387614e+03  7.8021759482e+01 
   -2.6476120736e+00 -2.0722906302e+03  1.1543221221e+01 ] stress_114 gradient
 [ -9.8939626272e-01 -6.8551575862e-04 -5.2344895623e+03  6.8700092626e+01 
   -2.4044156208e+00 -2.0739660436e+03  9.9218588936e+00 ] stress_115 gradient
 [ -9.9061238127e-01 -7.1874046887e-04 -5.6320163307e+03  6.1333020352e+01 
   -2.2020863920e+00 -2.0752550535e+03  8.6746878162e+00 ] stress_116 gradient
 [ -9.9155376083e-01 -7.4964652597e-04 -5.9983451797e+03  5.5490130298e+01 
   -2.0346037649e+00 -2.0762540112e+03  7.7074613226e+00 ] stress_117 gradient
 [ -9.9228522581e-01 -7.7781254910e-04 -6.3298969472e+03  5.0854396883e+01 
   -1.8972242254e+00 -2.0770318104e+03  6.9550853031e+00 ] stress_118 gradient
 [ -9.9285295452e-01 -8.0287470154e-04 -6.6233991167e+03  4.7192311834e+01 
   -1.7857515824e+00 -2.0776353786e+03  6.3708357779e+00 ] stress_119 gradient
 [ -9.9328997306e-01 -8.2451764530e-04 -6.8758912540e+03  4.4331714801e+01 
   -1.6967194233e+00 -2.0781006602e+03  5.9203686096e+00 ] stress_120 gradient
 [ -9.9362013016e-01 -8.4248772433e-04 -7.0849408555e+03  4.2144381955e+01 
   -1.6275735469e+00 -2.0784526168e+03  5.5801221284e+00 ] stress_121 gradient
 [ -9.9386040712e-01 -8.5657290102e-04 -7.2484590345e+03  4.0537751248e+01 
   -1.5759421929e+00 -2.0787087215e+03  5.3321255734e+00 ] stress_122 gradient
 [ -9.9402245776e-01 -8.6660944403e-04 -7.3648108919e+03  3.9446509780e+01 
   -1.5407307028e+00 -2.0788814548e+03  5.1651971357e+00 ] stress_123 gradient
 [ -9.9411404435e-01 -8.7248731705e-04 -7.4328910902e+03  3.8827065815e+01 
   -1.5204795360e+00 -2.0789788045e+03  5.0705511102e+00 ] stress_124 gradient
 [ -9.9413826767e-01 -8.7406708625e-04 -7.4511816255e+03  3.8662984822e+01 
   -1.5150062474e+00 -2.0790047644e+03  5.0457913884e+00 ] stress_125 gradient
 [ -9.9374349425e-01 -3.8144949838e-04 -7.4511060515e+03  3.4512311463e+01 
   -1.3270900084e+00 -2.0786178617e+03  5.6196578105e+00 ] stress_126 gradient
 [ -9.5912815047e-01  7.4546803309e-04 -7.4440336315e+03 -1.6516848860e+02 
    7.8209643268e+00 -2.0438001162e+03  5.7234090259e+01 ] stress_127 gradient
 [ -6.5937128393e-01  1.5269434053e-03 -7.3684729223e+03 -1.0454244659e+03 
    4.8423200514e+01 -1.7378551602e+03  5.1078069776e+02 ] stress_128 gradient
 [ -6.5921916141e-02  1.2062795467e-03 -7.1266158300e+03 -1.6555107073e+03 
    7.6565284976e+01 -1.1264164472e+03  1.4172296181e+03 ] stress_129 gradient
 [  3.9036666606e-01  6.7633655578e-04 -6.7543981909e+03 -1.4980116059e+03 
    6.9129457714e+01 -6.5317058246e+02  2.1188278419e+03 ] stress_130 gradient
 [  6.2715850316e-01  3.7414533925e-04 -6.3649040128e+03 -1.1868006779e+03 
    5.4655893704e+01 -4.0641803898e+02  2.4846507128e+03 ] stress_131 gradient
 [  7.3831995435e-01  2.3700103096e-04 -6.0461095687e+03 -9.6884796460e+02 
    4.4554939845e+01 -2.9020995042e+02  2.6569352364e+03 ] stress_132 gradient
 [  7.8518014144e-01  1.8311432153e-04 -5.8538672951e+03 -8.5897566733e+02 
    3.9471896850e+01 -2.4112872598e+02  2.7297012589e+03 ] stress_133 gradient
 [  7.8769649420e-01  1.8033382383e-04 -5.8420538309e+03 -8.5272260352e+02 
    3.9182724776e+01 -2.3849129785e+02  2.7336112980e+03 ] stress_134 gradient
 [  7.3616118473e-01 -1.6484018337e-03 -5.8510217443e+03 -6.1167837095e+02 
   -1.7934178351e+01 -3.1022749572e+02  2.6647747629e+03 ] stress_135 gradient
 [  7.2499830360e-01 -1.7278486062e-03 -5.8531315634e+03 -5.6854997538e+02 
   -2.7995396135e+01 -3.2618321199e+02  2.6494639508e+03 ] stress_136 gradient
 [  7.3611132507e-01 -8.6286503404e-04 -5.8466453582e+03 -7.0194842092e+02 
   -1.8438049287e+01 -3.1472909578e+02  2.6648347852e+03 ] stress_137 gradient
 [  7.3609746534e-01 -1.0367166271e-03 -5.8466464456e+03 -7.0183866582e+02 
   -1.8464321072e+01 -3.1474606958e+02  2.6648184118e+03 ] stress_138 gradient
 [  7.2572306555e-01 -1.8419466157e-03 -5.8480321680e+03 -6.5203786498e+02 
   -3.0152674538e+01 -3.2913715146e+02  2.6509863542e+03 ] stress_139 gradient
 [  4.6957201048e-01 -2.6291118949e-03 -5.8932413409e+03  2.1044258018e+01 
   -1.7632782600e+02 -7.1003978319e+02  2.2848777082e+03 ] stress_140 gradient
 [ -2.2836776365e-01 -2.0197000279e-03 -6.1257177900e+03  7.5864696056e+02 
   -2.8895496667e+02 -1.7985173036e+03  1.2386609178e+03 ] stress_141 gradient
 [ -6.6992415949e-01 -1.4026593779e-03 -6.5234865038e+03  6.6465130665e+02 
   -2.1281678064e+02 -2.5132353641e+03  5.5168330885e+02 ] stress_142 gradient
 [ -8.3684149747e-01 -1.1738155641e-03 -6.9352581526e+03  4.6737186761e+02 
   -1.4164615121e+02 -2.7909990301e+03  2.8469884534e+02 ] stress_143 gradient
 [ -8.9833695686e-01 -1.1031169715e-03 -7.2568194744e+03  3.5414401805e+02 
   -1.0485817258e+02 -2.8952385966e+03  1.8450384488e+02 ] stress_144 gradient
 [ -9.1921068964e-01 -1.0843721156e-03 -7.4262378611e+03  3.0783663109e+02 
   -9.0325861944e+01 -2.9309913986e+03  1.5013895049e+02 ] stress_145 gradient
 [ -9.1920964912e-01 -9.8621857411e-04 -7.4262378611e+03  3.0781834624e+02 
   -9.0325132172e+01 -2.9309904001e+03  1.5014014854e+02 ] stress_146 gradient
 [ -9.0864947067e-01  1.3460784388e-04 -7.4240483904e+03  2.2843765778e+02 
   -8.6289129259e+01 -2.9155702070e+03  1.6559141207e+02 ] stress_147 gradient
 [ -6.8421145681e-01  1.3023724118e-03 -7.3685657771e+03 -6.1558283662e+02 
   -3.8595860542e+01 -2.5813314818e+03  5.0051475104e+02 ] stress_148 gradient
 [ -1.0836515684e-01  1.1827995692e-03 -7.1457094068e+03 -1.4816422598e+03 
    2.4112572323e+01 -1.7139648425e+03  1.3696673934e+03 ] stress_149 gradient
 [  3.1967739789e-01  7.3397700928e-04 -6.8314912665e+03 -1.4908727323e+03 
    4.1331355383e+01 -1.0645259987e+03  2.0204506841e+03 ] stress_150 gradient
 [  5.0188351738e-01  5.1311859821e-04 -6.6014157865e+03 -1.3372779357e+03 
    4.1368938630e+01 -7.8690161768e+02  2.2986517003e+03 ] stress_151 gradient
 [  5.2482480568e-01  4.8483690945e-04 -6.5645639545e+03 -1.3103314279e+03 
    4.1022661914e+01 -7.5188867349e+02  2.3337370227e+03 ] stress_152 gradient
 [  5.2019386588e-01 -5.4584759175e-04 -6.5651304876e+03 -1.2868210131e+03 
    3.1535628579e+01 -7.5732478079e+02  2.3283046602e+03 ] stress_153 gradient
 [  3.1496554723e-01 -1.8426473261e-03 -6.6024972013e+03 -6.1208135144e+02 
   -2.1602011393e+02 -1.0282205500e+03  2.0575954562e+03 ] stress_154 gradient
 [ -2.9213305572e-01 -1.6978496486e-03 -6.8148024648e+03  4.8077074662e+02 
   -5.1300804364e+02 -1.9047582802e+03  1.1816500644e+03 ] stress_155 gradient
 [ -6.4936965835e-01 -1.3380813445e-03 -7.1165286061e+03  6.5590133167e+02 
   -4.5908812479e+02 -2.4600993997e+03  6.2667810558e+02 ] stress_156 gradient
 [ -7.5345894254e-01 -1.2276488191e-03 -7.2891167506e+03  6.1613118802e+02 
   -3.9892263648e+02 -2.6296386513e+03  4.5725093362e+02 ] stress_157 gradient
 [ -7.5269488846e-01 -6.3893412249e-04 -7.2889563597e+03  6.0781239541e+02 
   -3.9838698398e+02 -2.6285633115e+03  4.5832638405e+02 ] stress_158 gradient
 [ -6.0305182791e-01  9.6312518629e-04 -7.2522001098e+03 -9.7644232761e+01 
   -3.3469804798e+02 -2.4108357070e+03  6.7607478592e+02 ] stress_159 gradient
 [ -3.1400404401e-01  1.1758336310e-03 -7.1592118680e+03 -8.3402306600e+02 
   -2.4016278934e+02 -1.9855044178e+03  1.1014494965e+03 ] stress_160 gradient
 [ -3.1509398698e-01  3.7574608126e-04 -7.1592839080e+03 -8.3080864268e+02 
   -2.4311413243e+02 -1.9866597840e+03  1.1002944156e+03 ] stress_161 gradient
 [ -5.7522288678e-01 -9.2378882278e-04 -7.2038589662e+03 -2.4028078417e+02 
   -6.5063899043e+02 -2.3134063762e+03  7.7362105539e+02 ] stress_162 gradient
 [ -9.4022356080e-01 -8.2825806184e-04 -7.4245801268e+03  2.7119000251e+02 
   -6.5748862850e+02 -2.8698572823e+03  2.1728731198e+02 ] stress_163 gradient
 [ -9.6436694145e-01 -8.2517892165e-04 -7.4717094769e+03  2.7544969544e+02 
   -6.0440484569e+02 -2.9160005427e+03  1.7115356343e+02 ] stress_164 gradient
 [ -9.6435068852e-01 -6.2427797909e-04 -7.4717062147e+03  2.7522638117e+02 
   -6.0439043270e+02 -2.9159780773e+03  1.7117592705e+02 ] stress_165 gradient
 [ -9.6352393268e-01 -2.3026735741e-04 -7.4715485424e+03  2.6721761510e+02 
   -6.0379220227e+02 -2.9148178686e+03  1.7233603975e+02 ] stress_166 gradient
 [ -9.5444928430e-01  3.2983862079e-04 -7.4697597768e+03  2.0386891657e+02 
   -5.9828169544e+02 -2.9018963179e+03  1.8525741895e+02 ] stress_167 gradient
 [ -9.0720751759e-01  9.5265648976e-04 -7.4598971001e+03 -3.0172686951e+01 
   -5.7375734939e+02 -2.8339107795e+03  2.5324202003e+02 ] stress_168 gradient
 [ -7.6178505932e-01  1.4162319403e-03 -7.4255752567e+03 -5.1840875102e+02 
   -5.0846189375e+02 -2.6229115871e+03  4.6424012344e+02 ] stress_169 gradient
 [ -4.7920594062e-01  1.5070701411e-03 -7.3419554161e+03 -1.1010791388e+03 
   -3.9781809038e+02 -2.2102450950e+03  8.7690634849e+02 ] stress_170 gradient
 [ -1.1504590090e-01  1.2543326478e-03 -7.1894748991e+03 -1.4609382541e+03 
   -2.7272174042e+02 -1.6756564861e+03  1.4114989409e+03 ] stress_171 gradient
 [  2.2540685898e-01  8.8018062077e-04 -6.9654399009e+03 -1.4887053047e+03 
   -1.6962505451e+02 -1.1736849703e+03  1.9134771112e+03 ] stress_172 gradient
 [  4.8410129537e-01  5.5523791804e-04 -6.6797017349e+03 -1.3087755259e+03 
   -1.0029655154e+02 -7.9082506034e+02  2.2963446535e+03 ] stress_173 gradient
 [  6.6026944183e-01  3.2907794128e-04 -6.3448176440e+03 -1.0674041208e+03 
   -5.8387399334e+01 -5.2923991664e+02  2.5579362901e+03 ] stress_174 gradient
 [  7.7501610989e-01  1.8955729139e-04 -5.9710510101e+03 -8.4218927489e+02 
   -3.4108986371e+01 -3.5835624067e+02  2.7288242856e+03 ] stress_175 gradient
 [  8.4913420472e-01  1.1175810927e-04 -5.5659902223e+03 -6.5770255644e+02 
   -2.0151553462e+01 -2.4768809909e+02  2.8394958426e+03 ] stress_176 gradient
 [  8.9748019242e-01  7.4918800126e-05 -5.1353729229e+03 -5.1454128603e+02 
   -1.2052363638e+01 -1.7532981166e+02  2.9118561252e+03 ] stress_177 gradient
 [  9.2959166969e-01  6.4774963295e-05 -4.6838140181e+03 -4.0574825485e+02 
   -7.2749125815e+00 -1.2716666981e+02  2.9600209695e+03 ] stress_178 gradient
 [  9.5137487967e-01  7.2105248229e-05 -4.2153879787e+03 -3.2348870749e+02 
   -4.4043552260e+00 -9.4430211008e+01  2.9927577126e+03 ] stress_179 gradient
 [  9.6647559753e-01  9.1006377804e-05 -3.7338561056e+03 -2.6110348630e+02 
   -2.6485242881e+00 -7.1696309443e+01  3.0154927268e+03 ] stress_180 gradient
 [  9.7716634047e-01  1.1765012776e-04 -3.2428040853e+03 -2.1345489209e+02 
   -1.5573330108e+00 -5.5575198518e+01  3.0316144995e+03 ] stress_181 gradient
 [  9.8488560707e-01  1.4948439669e-04 -2.7457822639e+03 -1.7673721576e+02 
   -8.7025286524e-01 -4.3917197080e+01  3.0432723343e+03 ] stress_182 gradient
 [  9.9056239467e-01  1.8474999899e-04 -2.2462632389e+03 -1.4816781515e+02 
   -4.3293711861e-01 -3.5332450909e+01  3.0518579670e+03 ] stress_183 gradient
 [  9.9480757197e-01  2.2218245531e-04 -1.7477147143e+03 -1.2572230061e+02 
   -1.5306963513e-01 -2.8904375089e+01  3.0582859098e+03 ] stress_184 gradient
 [  9.9803116640e-01  2.6083666588e-04 -1.2535380631e+03 -1.0792146080e+02 
    2.6636670908e-02 -2.4017419965e+01  3.0631731591e+03 ] stress_185 gradient
 [  1.0005130155e+00  2.9997446847e-04 -7.6710094907e+02 -9.3679386846e+01 
    1.4194061265e-01 -2.0250735281e+01  3.0669398314e+03 ] stress_186 gradient
 [  1.0024476133e+00  3.3899747148e-04 -2.9170470480e+02 -8.2192269206e+01 
    2.1510023714e-01 -1.7311772684e+01  3.0698786505e+03 ] stress_187 gradient
 [  1.0039723086e+00  3.7740601288e-04  1.6944992118e+02 -7.2859753260e+01 
    2.6052853008e-01 -1.4993851284e+01  3.0721972785e+03 ] stress_188 gradient
 [  1.0051855137e+00  4.1476836737e-04  6.1323557956e+02 -6.5230452504e+01 
    2.8807741646e-01 -1.3147701514e+01  3.0740434751e+03 ] stress_189 gradient
 [  1.0061586916e+00  4.5070789995e-04  1.0366700883e+03 -5.8961298945e+01 
    3.0358506696e-01 -1.1665489871e+01  3.0755254641e+03 ] stress_190 gradient
 [  1.0069445133e+00  4.8489036391e-04  1.4369137142e+03 -5.3789834248e+01 
    3.1161255685e-01 -1.0467838905e+01  3.0767231158e+03 ] stress_191 gradient
 [  1.0075819777e+00  5.1701206481e-04  1.8112305702e+03 -4.9514430833e+01 
    3.1453164220e-01 -9.4953403271e+00  3.0776955338e+03 ] stress_192 gradient
 [  1.0081005314e+00  5.4680866532e-04  2.1571571620e+03 -4.5977799879e+01 
    3.1434919911e-01 -8.7045611985e+00  3.0784866468e+03 ] stress_193 gradient
 [  1.0085224416e+00  5.7403834539e-04  2.4723572204e+03 -4.3058095993e+01 
    3.1252477025e-01 -8.0605554608e+00  3.0791307989e+03 ] stress_194 gradient
 [  1.0088645231e+00  5.9848324562e-04  2.7546695470e+03 -4.0660470086e+01 
    3.0960568490e-01 -7.5378624363e+00  3.0796531491e+03 ] stress_195 gradient
 [  1.0091398031e+00  6.1995990802e-04  3.0022520938e+03 -3.8710093317e+01 
    3.0650415438e-01 -7.1170121799e+00  3.0800736650e+03 ] stress_196 gradient
 [  1.0093580627e+00  6.3830094460e-04  3.2133878634e+03 -3.7149605721e+01 
    3.0322018077e-01 -6.7835270434e+00  3.0804071225e+03 ] stress_197 gradient
 [  1.0095267726e+00  6.5337279141e-04  3.3867002133e+03 -3.5934254801e+01 
    3.0048353645e-01 -6.5259247506e+00  3.0806651028e+03 ] stress_198 gradient
 [  1.0096515102e+00  6.6506387249e-04  3.5210278049e+03 -3.5030562379e+01 
    2.9811177830e-01 -6.3352191736e+00  3.0808555929e+03 ] stress_199 gradient
 [  1.0097361461e+00  6.7328450368e-04  3.6154267792e+03 -3.4414589204e+01 
    2.9628734944e-01 -6.2059188032e+00  3.0809849825e+03 ] stress_200 gradient
 [  1.0097833858e+00  6.7797742953e-04  3.6692968937e+03 -3.4069912236e+01 
    2.9537513398e-01 -6.1335305614e+00  3.0810572649e+03 ] stress_201 gradient
 [  1.0097856957e+00  6.7820731736e-04  3.6719354588e+03 -3.4053144415e+01 
    2.9537513398e-01 -6.1300359539e+00  3.0810608590e+03 ] stress_202 gradient
 [  9.7495244617e-01 -9.8270693879e-04  3.6645977143e+03  1.7606289425e+02 
   -7.4870937312e+00 -6.6620645663e+01  3.0292451540e+03 ] stress_203 gradient
 [  6.2194735465e-01 -1.8204947656e-03  3.5704177415e+03  1.1889227979e+03 
   -4.5206826745e+01 -6.8773322186e+02  2.4972052089e+03 ] stress_204 gradient
 [  6.2195015781e-01 -1.2964106860e-03  3.5704177958e+03  1.1889143933e+03 
   -4.5199547271e+01 -6.8772972726e+02  2.4972108397e+03 ] stress_205 gradient
 [  7.8677580019e-01  4.3337561773e-04  3.5857321841e+03  7.1275359740e+02 
    2.8141113318e+02 -4.6364468785e+02  2.8574925651e+03 ] stress_206 gradient
 [  8.2215573913e-01  4.4370228708e-04  3.5908837201e+03  6.1060004841e+02 
    3.4009573208e+02 -4.1333236409e+02  2.9383901590e+03 ] stress_207 gradient
 [  8.2205526648e-01  1.3202605626e-04  3.5908646906e+03  6.1176009655e+02 
    3.4003406636e+02 -4.1349810820e+02  2.9382372078e+03 ] stress_208 gradient
 [  8.1793863507e-01 -4.2188820245e-04  3.5900567558e+03  6.4283168347e+02 
    3.3808794743e+02 -4.2043040556e+02  2.9318511967e+03 ] stress_209 gradient
 [  7.7992965502e-01 -1.1128837885e-03  3.5821921682e+03  8.2877035266e+02 
    3.2375012097e+02 -4.8516296620e+02  2.8722194071e+03 ] stress_210 gradient
 [  6.2453649180e-01 -1.6349938831e-03  3.5453979138e+03  1.2847249000e+03 
    2.7620253295e+02 -7.5198192951e+02  2.6264226749e+03 ] stress_211 gradient
 [  2.9506967465e-01 -1.6698554880e-03  3.4425270959e+03  1.7525001813e+03 
    1.9375185738e+02 -1.3211473060e+03  2.1020982580e+03 ] stress_212 gradient
 [ -1.0550528670e-01 -1.3226344023e-03  3.2482437810e+03  1.8346625696e+03 
    1.1154434177e+02 -2.0164233826e+03  1.4615950434e+03 ] stress_213 gradient
 [ -4.3409665583e-01 -9.2846293613e-04  2.9671069290e+03  1.5729288247e+03 
    5.6314482549e+01 -2.5889574582e+03  9.3416108516e+02 ] stress_214 gradient
 [ -6.5175619579e-01 -6.4817688368e-04  2.6183134191e+03  1.2165620649e+03 
    2.6481411570e+01 -2.9694510215e+03  5.8363892272e+02 ] stress_215 gradient
 [ -7.8417144022e-01 -4.8467308189e-04  2.2196024771e+03  9.0496823530e+02 
    1.1807707644e+01 -3.2015871310e+03  3.6978762095e+02 ] stress_216 gradient
 [ -8.6344583357e-01 -4.0137117021e-04  1.7838559333e+03  6.6942322832e+02 
    4.8097434582e+00 -3.3409090346e+03  2.4143962045e+02 ] stress_217 gradient
 [ -9.1163428649e-01 -3.6737399257e-04  1.3205074870e+03  5.0020382283e+02 
    1.5015054688e+00 -3.4257839977e+03  1.6324962175e+02 ] stress_218 gradient
 [ -9.4173493740e-01 -3.6297465726e-04  8.3718304246e+02  3.8013915026e+02 
   -4.5428295018e-02 -3.4789044860e+03  1.1431323259e+02 ] stress_219 gradient
 [ -9.6111856182e-01 -3.7641809180e-04  3.4066685997e+02  2.9459440881e+02 
   -7.4454967339e-01 -3.5131715817e+03  8.2745387891e+01 ] stress_220 gradient
 [ -9.7398112043e-01 -4.0068064065e-04 -1.6269937019e+02  2.3294717858e+02 
   -1.0328095329e+00 -3.5359459209e+03  6.1764719727e+01 ] stress_221 gradient
 [ -9.8275809676e-01 -4.3143027973e-04 -6.6678219395e+02  1.8789382691e+02 
   -1.1218416920e+00 -3.5515073958e+03  4.7428841665e+01 ] stress_222 gradient
 [ -9.8890080856e-01 -4.6586726580e-04 -1.1656145288e+03  1.5448576662e+02 
   -1.1170981758e+00 -3.5624125595e+03  3.7382784821e+01 ] stress_223 gradient
 [ -9.9329738156e-01 -5.0207941129e-04 -1.6533614106e+03  1.2936839935e+02 
   -1.0703927812e+00 -3.5702259965e+03  3.0184495162e+01 ] stress_224 gradient
 [ -9.9650655438e-01 -5.3868854391e-04 -2.1243944806e+03  1.1024646446e+02 
   -1.0081797361e+00 -3.5759351822e+03  2.4925051351e+01 ] stress_225 gradient
 [ -9.9888824300e-01 -5.7464688899e-04 -2.5732919850e+03  9.5533041219e+01 
   -9.4323004456e-01 -3.5801761347e+03  2.1018207097e+01 ] stress_226 gradient
 [ -1.0006797901e+00 -6.0912289537e-04 -2.9948926013e+03  8.4116879386e+01 
   -8.8192921493e-01 -3.5833687057e+03  1.8077391281e+01 ] stress_227 gradient
 [ -1.0020411445e+00 -6.4144099689e-04 -3.3844199450e+03  7.5208880057e+01 
   -8.2719633044e-01 -3.5857964576e+03  1.5840630096e+01 ] stress_228 gradient
 [ -1.0030814567e+00 -6.7102849474e-04 -3.7373537131e+03  6.8246189225e+01 
   -7.7976116139e-01 -3.5876525919e+03  1.4130611994e+01 ] stress_229 gradient
 [ -1.0038769969e+00 -6.9741281497e-04 -4.0497151257e+03  6.2819908825e+01 
   -7.3980615711e-01 -3.5890728991e+03  1.2822340322e+01 ] stress_230 gradient
 [ -1.0044811022e+00 -7.2019490155e-04 -4.3179500307e+03  5.8634240255e+01 
   -7.0714886826e-01 -3.5901517336e+03  1.1828357354e+01 ] stress_231 gradient
 [ -1.0049311689e+00 -7.3903843888e-04 -4.5389256418e+03  5.5476086243e+01 
   -6.8142441490e-01 -3.5909559919e+03  1.1087562494e+01 ] stress_232 gradient
 [ -1.0052536262e+00 -7.5368601802e-04 -4.7102067369e+03  5.3191065615e+01 
   -6.6226790460e-01 -3.5915321024e+03  1.0556825910e+01 ] stress_233 gradient
 [ -1.0054662877e+00 -7.6393532035e-04 -4.8298245866e+03  5.1673388252e+01 
   -6.4931445533e-01 -3.5919125151e+03  1.0206595676e+01 ] stress_234 gradient
 [ -1.0055803912e+00 -7.6964344781e-04 -4.8963655767e+03  5.0855523166e+01 
   -6.4219917883e-01 -3.5921166999e+03  1.0018501668e+01 ] stress_235 gradient
 [ -1.0055803703e+00 -7.3840444307e-04 -4.8963650330e+03  5.0855201371e+01 
   -6.4201673781e-01 -3.5921162006e+03  1.0018501668e+01 ] stress_236 gradient
 [ -9.6911708326e-01  9.3140913783e-04 -4.8887048757e+03 -1.6617179957e+02 
    9.7645290606e+00 -3.5294379684e+03  7.2710113508e+01 ] stress_237 gradient
 [ -7.0338824660e-01  1.7353514610e-03 -4.8210466955e+03 -1.0003812814e+03 
    4.9943666001e+01 -3.0656131087e+03  5.3663566870e+02 ] stress_238 gradient
 [ -7.1012699342e-01  6.9206212508e-04 -4.8248541019e+03 -8.7845464530e+02 
    3.2506225066e+01 -3.0740540269e+03  5.2820630178e+02 ] stress_239 gradient
 [ -8.0035638026e-01 -3.0172282849e-04 -4.9084166368e+03  5.8482467922e+01 
   -8.8546495864e+01 -3.2098224167e+03  3.9262606684e+02 ] stress_240 gradient
 [ -7.5716186307e-01  1.1905410348e-03 -4.8999632245e+03 -1.6645519757e+02 
   -7.5754508512e+01 -3.1356689009e+03  4.6679021489e+02 ] stress_241 gradient
 [ -5.9735341829e-01  1.6702070413e-03 -4.8637835117e+03 -6.6086815426e+02 
   -4.4431608411e+01 -2.8581642849e+03  7.4433493873e+02 ] stress_242 gradient
 [ -6.2792085079e-01  1.4135806860e-04 -4.8800660625e+03 -3.0324473076e+02 
   -9.2737757725e+01 -2.9026930878e+03  6.9983589081e+02 ] stress_243 gradient
 [ -6.9108773962e-01 -3.0792248675e-04 -4.9256850203e+03  1.7261848056e+02 
   -1.4904494256e+02 -3.0035089401e+03  5.9908779014e+02 ] stress_244 gradient
 [ -7.9320763097e-01 -5.9331519579e-04 -5.0415296077e+03  6.0668975594e+02 
   -1.8385907093e+02 -3.1778482809e+03  4.2486402139e+02 ] stress_245 gradient
 [ -7.8894975933e-01  2.8699980688e-04 -5.0406901384e+03  5.7132483702e+02 
   -1.8184727253e+02 -3.1706903320e+03  4.3202197667e+02 ] stress_246 gradient
 [ -6.1403918783e-01  1.4913901163e-03 -5.0003100888e+03 -1.4726130817e+02 
   -1.3302887815e+02 -2.8699012145e+03  7.3283033468e+02 ] stress_247 gradient
 [ -2.2770434870e-02  1.3799475856e-03 -4.7831410686e+03 -1.1512157661e+03 
   -3.4866854380e+01 -1.8403137748e+03  1.7624975283e+03 ] stress_248 gradient
 [  4.3957293516e-01  8.6166122625e-04 -4.4285196627e+03 -1.1908047966e+03 
    6.5351064254e+00 -1.0286643648e+03  2.5742205985e+03 ] stress_249 gradient
 [  6.3801242050e-01  6.1017692484e-04 -4.1245948078e+03 -1.0090961233e+03 
    1.4887162175e+01 -6.7853242679e+02  2.9243877385e+03 ] stress_250 gradient
 [  6.9480350016e-01  5.3873704264e-04 -3.9951376604e+03 -9.2948323674e+02 
    1.5974522151e+01 -5.7807851566e+02  3.0248515017e+03 ] stress_251 gradient
 [  6.9444612305e-01  3.2336096087e-05 -3.9952061663e+03 -9.2564654340e+02 
    1.5538301059e+01 -5.7862567092e+02  3.0243043917e+03 ] stress_252 gradient
 [  6.3491235249e-01 -1.3767990075e-03 -4.0084597227e+03 -5.8300252858e+02 
   -2.2379455531e+01 -6.7672476760e+02  2.9262098143e+03 ] stress_253 gradient
 [  2.0676481341e-01 -1.9911211401e-03 -4.1437133947e+03  6.5634558122e+02 
   -1.4857077333e+02 -1.4114923241e+03  2.1914680691e+03 ] stress_254 gradient
 [ -2.9942123474e-01 -1.6370623106e-03 -4.4426960373e+03  1.1533011474e+03 
   -1.8026695171e+02 -2.3033783583e+03  1.2996021772e+03 ] stress_255 gradient
 [ -5.3662239173e-01 -1.3843944574e-03 -4.7115947972e+03  1.0976154577e+03 
   -1.5993350263e+02 -2.7282653834e+03  8.7472098369e+02 ] stress_256 gradient
 [ -5.8628846677e-01 -1.3289716180e-03 -4.7916629868e+03  1.0592428469e+03 
   -1.5242451574e+02 -2.8178755360e+03  7.8511196172e+02 ] stress_257 gradient
 [ -5.7293332583e-01 -2.5789200383e-05 -4.7884785492e+03  9.4552151316e+02 
   -1.4610396222e+02 -2.7954276928e+03  8.0755944364e+02 ] stress_258 gradient
 [ -2.8590137111e-01  1.1337514069e-03 -4.7008069100e+03 -2.4305995901e+02 
   -7.0211563331e+01 -2.3010245423e+03  1.3019543506e+03 ] stress_259 gradient
 [ -4.3835207184e-02  1.1418655814e-03 -4.5969920154e+03 -7.7863243244e+02 
   -2.8832006521e+01 -1.8796839919e+03  1.7232917092e+03 ] stress_260 gradient
 [ -5.0327264740e-02  1.2417383068e-04 -4.5987361216e+03 -7.1502489921e+02 
   -3.7201354215e+01 -1.8895222079e+03  1.7134538337e+03 ] stress_261 gradient
 [ -2.8488454134e-01 -1.0911236875e-03 -4.6910756450e+03  3.5672613595e+02 
   -1.6123377352e+02 -2.2809055536e+03  1.3220792110e+03 ] stress_262 gradient
 [ -6.0572467909e-01 -1.1074337916e-03 -4.9360832393e+03  8.7396779956e+02 
   -1.9033287652e+02 -2.8444185567e+03  7.5857273635e+02 ] stress_263 gradient
 [ -6.6378791972e-01 -1.0782325997e-03 -5.0108558130e+03  8.8233861952e+02 
   -1.8287679809e+02 -2.9489451801e+03  6.5404638223e+02 ] stress_264 gradient
 [ -6.6377189571e-01 -8.7597263412e-04 -5.0108525508e+03  8.8208827447e+02 
   -1.8286402708e+02 -2.9489197194e+03  6.5407194066e+02 ] stress_265 gradient
 [ -6.6265021479e-01 -4.2525183966e-04 -5.0106100617e+03  8.7000522689e+02 
   -1.8220705002e+02 -2.9470600904e+03  6.5593171513e+02 ] stress_266 gradient
 [ -6.4852550501e-01  2.2859737480e-04 -5.0074250804e+03  7.6306517202e+02 
   -1.7600362488e+02 -2.9232213945e+03  6.7976973489e+02 ] stress_267 gradient
 [ -5.7318545640e-01  9.0741221576e-04 -4.9888747120e+03  3.7161646257e+02 
   -1.5120669081e+02 -2.7944101637e+03  8.0857778698e+02 ] stress_268 gradient
 [ -3.6135372516e-01  1.2885241909e-03 -4.9256403827e+03 -3.3761020369e+02 
   -9.9809976191e+01 -2.4286428648e+03  1.1743387186e+03 ] stress_269 gradient
 [ -2.3521544879e-02  1.2239887045e-03 -4.7838451571e+03 -9.6851558480e+02 
   -4.1500844883e+01 -1.8407890411e+03  1.7621876324e+03 ] stress_270 gradient
 [  3.1685334246e-01  9.2908095815e-04 -4.5517465779e+03 -1.1899867247e+03 
   -2.4753859282e+00 -1.2447896931e+03  2.3581868472e+03 ] stress_271 gradient
 [  5.7153035065e-01  6.4832228365e-04 -4.2415691991e+03 -1.0959890251e+03 
    1.4349502806e+01 -7.9650079768e+02  2.8064791549e+03 ] stress_272 gradient
 [  7.3570221329e-01  4.6138940873e-04 -3.8720803789e+03 -8.9301988193e+02 
    1.8434582871e+01 -5.0621895825e+02  3.0967645119e+03 ] stress_273 gradient
 [  8.3609375875e-01  3.5743646781e-04 -3.4585509554e+03 -6.9385865444e+02 
    1.7385718359e+01 -3.2801608226e+02  3.2749694041e+03 ] stress_274 gradient
 [  8.9727441912e-01  3.0932615936e-04 -3.0120364781e+03 -5.3255829166e+02 
    1.4867458338e+01 -2.1904432167e+02  3.3839433228e+03 ] stress_275 gradient
 [  9.3525037305e-01  2.9595600216e-04 -2.5410099325e+03 -4.1056384870e+02 
    1.2278410451e+01 -1.5119856743e+02  3.4517901480e+03 ] stress_276 gradient
 [  9.5946194939e-01  3.0384912257e-04 -2.0525203595e+03 -3.2037643226e+02 
    1.0047680517e+01 -1.0782752714e+02  3.4951619897e+03 ] stress_277 gradient
 [  9.7534699067e-01  3.2478614036e-04 -1.5529632756e+03 -2.5391512521e+02 
    8.2438670825e+00 -7.9304063972e+01  3.5236863856e+03 ] stress_278 gradient
 [  9.8606370500e-01  3.5370562592e-04 -1.0483873180e+03 -2.0465717652e+02 
    6.8215418540e+00 -6.0018838066e+01  3.5429718116e+03 ] stress_279 gradient
 [  9.9348321850e-01  3.8737923811e-04 -5.4464593643e+02 -1.6779746216e+02 
    5.7086398673e+00 -4.6641491097e+01  3.5563492489e+03 ] stress_280 gradient
 [  9.9874182098e-01  4.2364599278e-04 -4.7442520017e+01 -1.3991204840e+02 
    4.8380221138e+00 -3.7143654627e+01  3.5658469977e+03 ] stress_281 gradient
 [  1.0025473576e+00  4.6097870915e-04  4.3767340853e+02 -1.1858454179e+02 
    4.1549557152e+00 -3.0259782504e+01  3.5727313980e+03 ] stress_282 gradient
 [  1.0053517264e+00  4.9823776327e-04  9.0531761059e+02 -1.0210837127e+02 
    3.6165665736e+00 -2.5179625661e+01  3.5778115335e+03 ] stress_283 gradient
 [  1.0074504559e+00  5.3453468531e-04  1.3503559485e+03 -8.9269427132e+01 
    3.1900149592e+00 -2.1373002633e+01  3.5816181409e+03 ] stress_284 gradient
 [  1.0090406207e+00  5.6914454434e-04  1.7678739386e+03 -7.9198759328e+01 
    2.8510359611e+00 -1.8485959880e+01  3.5845054437e+03 ] stress_285 gradient
 [  1.0102565728e+00  6.0146673553e-04  2.1533186560e+03 -7.1266856306e+01 
    2.5813852826e+00 -1.6275372763e+01  3.5867158478e+03 ] stress_286 gradient
 [  1.0111911057e+00  6.3099173352e-04  2.5024769871e+03 -6.5015435952e+01 
    2.3666499316e+00 -1.4575497165e+01  3.5884158821e+03 ] stress_287 gradient
 [  1.0119092104e+00  6.5728242426e-04  2.8114892217e+03 -6.0109199326e+01 
    2.1969779895e+00 -1.3268514997e+01  3.5897229558e+03 ] stress_288 gradient
 [  1.0124569820e+00  6.7997530782e-04  3.0770159683e+03 -5.6300617084e+01 
    2.0647068525e+00 -1.2270056495e+01  3.5907209322e+03 ] stress_289 gradient
 [  1.0128670302e+00  6.9876539070e-04  3.2961527937e+03 -5.3409047278e+01 
    1.9638159006e+00 -1.1523209535e+01  3.5914685160e+03 ] stress_290 gradient
 [  1.0131622674e+00  7.1340474237e-04  3.4664796993e+03 -5.1304277846e+01 
    1.8901089489e+00 -1.0984541179e+01  3.5920068403e+03 ] stress_291 gradient
 [  1.0133584472e+00  7.2370913502e-04  3.5861763851e+03 -4.9894562720e+01 
    1.8404844669e+00 -1.0627093037e+01  3.5923642588e+03 ] stress_292 gradient
 [  1.0134655375e+00  7.2954558205e-04  3.6539064422e+03 -4.9121013407e+01 
    1.8131180257e+00 -1.0431894393e+01  3.5925595411e+03 ] stress_293 gradient
 [  1.0134670983e+00  7.2963185013e-04  3.6549073897e+03 -4.9109704610e+01 
    1.8129355805e+00 -1.0428899026e+01  3.5925627359e+03 ] stress_294 gradient
 [  9.7582604623e-01 -9.8190767200e-04  3.6468834986e+03  1.7708366260e+02 
   -6.5967721412e+00 -7.5603277550e+01  3.5273895612e+03 ] stress_295 gradient
 [  6.3259418763e-01 -1.8050144661e-03  3.5546971566e+03  1.1761422423e+03 
   -4.4022863229e+01 -6.7759732048e+02  2.9254080386e+03 ] stress_296 gradient
 [  6.3261642564e-01 -1.1765838457e-03  3.5546978091e+03  1.1760737540e+03 
   -4.3958825754e+01 -6.7757056180e+02  2.9254347951e+03 ] stress_297 gradient
 [  8.2630849741e-01  4.1634698183e-04  3.5778132267e+03  5.9718360859e+02 
    3.6614110500e+02 -4.1642109545e+02  3.1865768032e+03 ] stress_298 gradient
 [  8.5447151216e-01  4.2276117962e-04  3.5833855847e+03  5.1319948115e+02 
    4.1324933391e+02 -3.7596555399e+02  3.2270321895e+03 ] stress_299 gradient
 [  8.5444837098e-01  2.1342453708e-04  3.5833817788e+03  5.1350172714e+02 
    4.1323327893e+02 -3.7600299618e+02  3.2269946505e+03 ] stress_300 gradient
 [  8.5350709548e-01 -1.6137385106e-04  3.5832001838e+03  5.2208683962e+02 
    4.1270474171e+02 -3.7756857911e+02  3.2254287979e+03 ] stress_301 gradient
 [  8.4435488671e-01 -6.7603598875e-04  3.5813907577e+03  5.8146547226e+02 
    4.0842280571e+02 -3.9296381070e+02  3.2100338428e+03 ] stress_302 gradient
 [  8.0007285928e-01 -1.2376343614e-03  3.5721430031e+03  7.8155257304e+02 
    3.9084132606e+02 -4.6807834282e+02  3.1349212377e+03 ] stress_303 gradient
 [  6.6895669617e-01 -1.6566097917e-03  3.5413494862e+03  1.1702736592e+03 
    3.4618025915e+02 -6.9193173985e+02  2.9110729193e+03 ] stress_304 gradient
 [  4.1673003846e-01 -1.7496953216e-03  3.4679460521e+03  1.5992945958e+03 
    2.7195018919e+02 -1.1247535146e+03  2.4782575134e+03 ] stress_305 gradient
 [  8.6995678552e-02 -1.5319445822e-03  3.3347053122e+03  1.8136324591e+03 
    1.8770442096e+02 -1.6929028597e+03  1.9101113867e+03 ] stress_306 gradient
 [ -2.2997495136e-01 -1.1890646622e-03  3.1379345802e+03  1.7374256351e+03 
    1.1716796322e+02 -2.2409297715e+03  1.3620829320e+03 ] stress_307 gradient
 [ -4.7808467383e-01 -8.7812702667e-04  2.8849645326e+03  1.4877329206e+03 
    6.8972921663e+01 -2.6711690333e+03  9.3183926236e+02 ] stress_308 gradient
 [ -6.5144543399e-01 -6.5350803936e-04  2.5860259295e+03  1.1975984416e+03 
    3.9548340446e+01 -2.9725756974e+03  6.3042880386e+02 ] stress_309 gradient
 [ -7.6659786336e-01 -5.0997869026e-04  2.2498674111e+03  9.3716702429e+02 
    2.2478795716e+01 -3.1732493811e+03  4.2975127070e+02 ] stress_310 gradient
 [ -8.4204580560e-01 -4.2650380939e-04  1.8829361450e+03  7.2700121083e+02 
    1.2733240723e+01 -3.3050084608e+03  2.9798962360e+02 ] stress_311 gradient
 [ -8.9176138860e-01 -3.8394184241e-04  1.4899432720e+03  5.6507508311e+02 
    7.1610681814e+00 -3.3919966614e+03  2.1099954107e+02 ] stress_312 gradient
 [ -9.2500921813e-01 -3.6859209017e-04  1.0746207334e+03  4.4256087220e+02 
    3.9486127404e+00 -3.4502721909e+03  1.5272274711e+02 ] stress_313 gradient
 [ -9.4766611142e-01 -3.7137831342e-04  6.4008119855e+02  3.5021654403e+02 
    2.0787549562e+00 -3.4900482814e+03  1.1294585707e+02 ] stress_314 gradient
 [ -9.6341617639e-01 -3.8641835699e-04  1.8913721589e+02  2.8036647085e+02 
    9.8245527855e-01 -3.5177390301e+03  8.5254506002e+01 ] stress_315 gradient
 [ -9.7458191687e-01 -4.0987889656e-04 -2.7553459069e+02  2.2714729414e+02 
    3.3788434157e-01 -3.5373966811e+03  6.5596486124e+01 ] stress_316 gradient
 [ -9.8264765593e-01 -4.3921394119e-04 -7.5134785112e+02  1.8622895130e+02 
   -3.9225233987e-02 -3.5516147301e+03  5.1378017056e+01 ] stress_317 gradient
 [ -9.8857724836e-01 -4.7268297342e-04 -1.2357287003e+03  1.5445860942e+02 
   -2.5596745897e-01 -3.5620795736e+03  4.0913041717e+01 ] stress_318 gradient
 [ -9.9300805448e-01 -5.0905543416e-04 -1.7261141472e+03  1.2954492691e+02 
   -3.7583247598e-01 -3.5699074883e+03  3.3084976595e+01 ] stress_319 gradient
 [ -9.9636918489e-01 -5.4742856379e-04 -2.2199607739e+03  1.0981667271e+02 
   -4.3713330561e-01 -3.5758513117e+03  2.7141046320e+01 ] stress_320 gradient
 [ -9.9895433685e-01 -5.8711106294e-04 -2.7147039581e+03  9.4048715613e+01 
   -4.6322264724e-01 -3.5804272470e+03  2.2564890913e+01 ] stress_321 gradient
 [ -1.0009680975e+00 -6.2755510765e-04 -3.2078138743e+03  8.1334340637e+01 
   -4.6833104763e-01 -3.5839952384e+03  1.8996695738e+01 ] stress_322 gradient
 [ -1.0025550367e+00 -6.6830679212e-04 -3.6967498231e+03  7.0997939084e+01 
   -4.6103333012e-01 -3.5868093937e+03  1.6182473980e+01 ] stress_323 gradient
 [ -1.0038188527e+00 -7.0898067655e-04 -4.1790151444e+03  6.2530707023e+01 
   -4.4680278127e-01 -3.5890519315e+03  1.3940121886e+01 ] stress_324 gradient
 [ -1.0048351081e+00 -7.4924135949e-04 -4.6521740726e+03  5.5546065172e+01 
   -4.2910581365e-01 -3.5908561460e+03  1.2135457759e+01 ] stress_325 gradient
 [ -1.0056593042e+00 -7.8878485781e-04 -5.1137859483e+03  4.9748686131e+01 
   -4.0994930542e-01 -3.5923208846e+03  1.0671040103e+01 ] stress_326 gradient
 [ -1.0063329579e+00 -8.2734057939e-04 -5.5615378816e+03  4.4909750640e+01 
   -3.9097523822e-01 -3.5935190348e+03  9.4729891234e+00 ] stress_327 gradient
 [ -1.0068871598e+00 -8.6465294362e-04 -5.9930984966e+03  4.0852087541e+01 
   -3.7254850237e-01 -3.5945045134e+03  8.4873925137e+00 ] stress_328 gradient
 [ -1.0073457588e+00 -9.0049379475e-04 -6.4063180124e+03  3.7435899875e+01 
   -3.5521642093e-01 -3.5953207532e+03  7.6711204457e+00 ] stress_329 gradient
 [ -1.0077269846e+00 -9.3464849704e-04 -6.7990982996e+03  3.4551271649e+01 
   -3.3916144323e-01 -3.5959997050e+03  6.9922248858e+00 ] stress_330 gradient
 [ -1.0080449884e+00 -9.6691559790e-04 -7.1694151714e+03  3.2111099840e+01 
   -3.2456600404e-01 -3.5965663302e+03  6.4255467754e+00 ] stress_331 gradient
 [ -1.0083107790e+00 -9.9711390071e-04 -7.5154189683e+03  3.0045531939e+01 
   -3.1161255685e-01 -3.5970400987e+03  5.9519172833e+00 ] stress_332 gradient
 [ -1.0085329925e+00 -1.0250715910e-03 -7.8353236432e+03  2.8298966359e+01 
   -2.9993620717e-01 -3.5974354883e+03  5.5561611079e+00 ] stress_333 gradient
 [ -1.0087184964e+00 -1.0506357630e-03 -8.1275225692e+03  2.6826420751e+01 
   -2.8971940223e-01 -3.5977669765e+03  5.2247003364e+00 ] stress_334 gradient
 [ -1.0088726391e+00 -1.0736690519e-03 -8.3905618987e+03  2.5591773621e+01 
   -2.8096214204e-01 -3.5980420518e+03  4.9499473109e+00 ] stress_335 gradient
 [ -1.0089996867e+00 -1.0940396257e-03 -8.6230263865e+03  2.4566431180e+01 
   -2.7311709524e-01 -3.5982682027e+03  4.7235156771e+00 ] stress_336 gradient
 [ -1.0091030519e+00 -1.1116442321e-03 -8.8238112388e+03  2.3726902392e+01 
   -2.6691403421e-01 -3.5984529175e+03  4.5386164740e+00 ] stress_337 gradient
 [ -1.0091852947e+00 -1.1263855370e-03 -8.9918622258e+03  2.3055097777e+01 
   -2.6162318865e-01 -3.5985996909e+03  4.3920549055e+00 ] stress_338 gradient
 [ -1.0092484751e+00 -1.1381842487e-03 -9.1263203049e+03  2.2536766412e+01 
   -2.5760944474e-01 -3.5987125167e+03  4.2794381100e+00 ] stress_339 gradient
 [ -1.0092941123e+00 -1.1469798881e-03 -9.2265297768e+03  2.2161105178e+01 
   -2.5450791215e-01 -3.5987938911e+03  4.1979706467e+00 ] stress_340 gradient
 [ -1.0093232677e+00 -1.1527247264e-03 -9.2919686916e+03  2.1920551890e+01 
   -2.5268348536e-01 -3.5988458109e+03  4.1456557486e+00 ] stress_341 gradient
 [ -1.0093366071e+00 -1.1553871047e-03 -9.3222928886e+03  2.1810337088e+01 
   -2.5177126782e-01 -3.5988697739e+03  4.1220940832e+00 ] stress_342 gradient



---------------------
Begin Evaluation  134
---------------------
Parameters for evaluation 134:
                      4.8052882187e+02 fy
                      2.0784052872e+05 E
                      1.8392572411e-02 b
                      8.7011903122e-01 cR1
                      5.4811249634e-02 cR2
                      2.0030872338e-02 a1
                      2.5040659319e-02 a3

blocking fork: workflow_driver1 paramsDakota.in results.out

Active response data for evaluation 134:
Active set vector = { 1 1 1 1 1 1 1 1 1 1 1 1 1 1 1 1 1 1 1 1 1 1 1 1 1 1 1 1 1 1 1 1 1 1 1 1 1 1 1 1 1 1 1 1 1 1 1 1 1 1 1 1 1 1 1 1 1 1 1 1 1 1 1 1 1 1 1 1 1 1 1 1 1 1 1 1 1 1 1 1 1 1 1 1 1 1 1 1 1 1 1 1 1 1 1 1 1 1 1 1 1 1 1 1 1 1 1 1 1 1 1 1 1 1 1 1 1 1 1 1 1 1 1 1 1 1 1 1 1 1 1 1 1 1 1 1 1 1 1 1 1 1 1 1 1 1 1 1 1 1 1 1 1 1 1 1 1 1 1 1 1 1 1 1 1 1 1 1 1 1 1 1 1 1 1 1 1 1 1 1 1 1 1 1 1 1 1 1 1 1 1 1 1 1 1 1 1 1 1 1 1 1 1 1 1 1 1 1 1 1 1 1 1 1 1 1 1 1 1 1 1 1 1 1 1 1 1 1 1 1 1 1 1 1 1 1 1 1 1 1 1 1 1 1 1 1 1 1 1 1 1 1 1 1 1 1 1 1 1 1 1 1 1 1 1 1 1 1 1 1 1 1 1 1 1 1 1 1 1 1 1 1 1 1 1 1 1 1 1 1 1 1 1 1 1 1 1 1 1 1 1 1 1 1 1 1 1 1 1 1 1 1 1 1 1 1 1 1 1 1 1 1 1 1 1 1 1 1 1 1 1 1 1 1 1 1 1 1 1 1 1 1 }
                      2.4220149393e+00 stress_1
                     -2.5171559214e+02 stress_2
                     -4.9424617592e+02 stress_3
                     -4.9576579185e+02 stress_4
                     -1.6682230785e+02 stress_5
                      2.5329555736e+02 stress_6
                      4.0135432009e+02 stress_7
                      4.0222256258e+02 stress_8
                      1.5256125562e+02 stress_9
                     -2.3138386329e+02 stress_10
                     -4.3993788985e+02 stress_11
                     -4.8922597998e+02 stress_12
                     -5.0314254360e+02 stress_13
                     -5.0413581284e+02 stress_14
                     -1.7338138167e+02 stress_15
                     -3.4134520175e+02 stress_16
                     -5.0981016257e+02 stress_17
                     -3.1501104300e+02 stress_18
                      2.1458765700e+01 stress_19
                      2.9856991328e+02 stress_20
                      4.1856442164e+02 stress_21
                      4.6350597730e+02 stress_22
                      4.8206783084e+02 stress_23
                      4.8819088372e+02 stress_24
                      1.5749335599e+02 stress_25
                      2.8560583816e+02 stress_26
                      4.2948136991e+02 stress_27
                      4.6525795151e+02 stress_28
                      3.4238715114e+02 stress_29
                      1.2874939580e+02 stress_30
                     -1.2500499431e+02 stress_31
                     -3.2064225388e+02 stress_32
                     -4.2446395270e+02 stress_33
                     -4.7426591991e+02 stress_34
                     -5.0121955928e+02 stress_35
                     -5.1870431559e+02 stress_36
                     -5.3170304307e+02 stress_37
                     -5.4201826283e+02 stress_38
                     -5.5025684533e+02 stress_39
                     -5.5656362372e+02 stress_40
                     -5.6092425345e+02 stress_41
                     -5.6327942928e+02 stress_42
                     -5.4781262442e+02 stress_43
                     -1.6075571905e+02 stress_44
                      1.0636293116e+02 stress_45
                     -9.9842701265e+01 stress_46
                     -4.5322194783e+02 stress_47
                     -1.5680405305e+02 stress_48
                     -2.5974016036e+02 stress_49
                     -4.1954829812e+02 stress_50
                     -5.6864159862e+02 stress_51
                     -3.9866907761e+02 stress_52
                     -6.1066304000e+01 stress_53
                      2.2649873799e+02 stress_54
                      3.5826859171e+02 stress_55
                      4.0782183283e+02 stress_56
                      4.2287351951e+02 stress_57
                      3.3650441586e+02 stress_58
                      2.1673027207e+01 stress_59
                     -3.1591312596e+02 stress_60
                     -4.7141231112e+02 stress_61
                     -5.2133092303e+02 stress_62
                     -5.3234540827e+02 stress_63
                     -2.6387592741e+02 stress_64
                      1.1339864462e+02 stress_65
                      2.0042428863e+02 stress_66
                     -7.1901038674e+01 stress_67
                     -4.4065288824e+02 stress_68
                     -5.3484626890e+02 stress_69
                     -5.3592555042e+02 stress_70
                     -4.4052741424e+02 stress_71
                     -2.6828259674e+02 stress_72
                     -4.4795141649e+01 stress_73
                      1.6688354093e+02 stress_74
                      3.1135236318e+02 stress_75
                      3.9199232630e+02 stress_76
                      4.3621905791e+02 stress_77
                      4.6304474382e+02 stress_78
                      4.8166597117e+02 stress_79
                      4.9613196676e+02 stress_80
                      5.0818811195e+02 stress_81
                      5.1856221013e+02 stress_82
                      5.2752244640e+02 stress_83
                      5.3512874578e+02 stress_84
                      5.4134667778e+02 stress_85
                      5.4611040095e+02 stress_86
                      5.4935206761e+02 stress_87
                      5.5101584696e+02 stress_88
                      4.7728772247e+02 stress_89
                      4.3675545381e+01 stress_90
                     -1.5951574789e+02 stress_91
                      1.3071324294e+02 stress_92
                      4.7802941959e+02 stress_93
                      4.8437005175e+02 stress_94
                      4.2416525319e+02 stress_95
                      3.1598866019e+02 stress_96
                      1.6530113361e+02 stress_97
                     -1.0247603760e+01 stress_98
                     -1.7746672356e+02 stress_99
                     -3.0622119399e+02 stress_100
                     -3.9080450101e+02 stress_101
                     -4.4297611471e+02 stress_102
                     -4.7592434745e+02 stress_103
                     -4.9840000712e+02 stress_104
                     -5.1527936561e+02 stress_105
                     -5.2913875812e+02 stress_106
                     -5.4132160722e+02 stress_107
                     -5.5252623722e+02 stress_108
                     -5.6310924857e+02 stress_109
                     -5.7324216272e+02 stress_110
                     -5.8299297756e+02 stress_111
                     -5.9237005697e+02 stress_112
                     -6.0134913974e+02 stress_113
                     -6.0988681400e+02 stress_114
                     -6.1792900550e+02 stress_115
                     -6.2541742236e+02 stress_116
                     -6.3229220447e+02 stress_117
                     -6.3849689812e+02 stress_118
                     -6.4397798050e+02 stress_119
                     -6.4868574391e+02 stress_120
                     -6.5257893003e+02 stress_121
                     -6.5562156835e+02 stress_122
                     -6.5778526796e+02 stress_123
                     -6.5905083064e+02 stress_124
                     -6.5939078641e+02 stress_125
                     -5.5681452720e+02 stress_126
                     -3.0590898854e+02 stress_127
                      8.9152986718e-01 stress_128
                      2.1966128577e+02 stress_129
                      3.2866854628e+02 stress_130
                      3.7949991345e+02 stress_131
                      4.0432360416e+02 stress_132
                      4.1560049469e+02 stress_133
                      4.1622951692e+02 stress_134
                      1.1300998620e+01 stress_135
                     -1.0590996642e+01 stress_136
                      1.7452861634e+02 stress_137
                      1.3838851082e+02 stress_138
                     -3.3976964296e+01 stress_139
                     -3.2104246442e+02 stress_140
                     -5.3004931424e+02 stress_141
                     -6.1376420501e+02 stress_142
                     -6.4626463680e+02 stress_143
                     -6.6106151862e+02 stress_144
                     -6.6717546569e+02 stress_145
                     -6.4677466355e+02 stress_146
                     -4.0873069451e+02 stress_147
                     -5.7897900014e+01 stress_148
                      1.9428260822e+02 stress_149
                      3.0664950861e+02 stress_150
                      3.4822392238e+02 stress_151
                      3.5335753204e+02 stress_152
                      1.3690572172e+02 stress_153
                     -2.3149443563e+02 stress_154
                     -4.9339708185e+02 stress_155
                     -5.9023279644e+02 stress_156
                     -6.1726620104e+02 stress_157
                     -4.9453914830e+02 stress_158
                     -8.9472522293e+01 stress_159
                      9.3864538675e+01 stress_160
                     -7.2953185394e+01 stress_161
                     -4.6829890802e+02 stress_162
                     -6.2384985067e+02 stress_163
                     -6.3481528006e+02 stress_164
                     -5.9305207880e+02 stress_165
                     -5.1076211766e+02 stress_166
                     -3.8997480490e+02 stress_167
                     -2.3775974050e+02 stress_168
                     -7.1358991041e+01 stress_169
                      8.3528600637e+01 stress_170
                      2.0609711680e+02 stress_171
                      2.9187782726e+02 stress_172
                      3.4852177057e+02 stress_173
                      3.8604042637e+02 stress_174
                      4.1207952793e+02 stress_175
                      4.3145281974e+02 stress_176
                      4.4697745314e+02 stress_177
                      4.6026507403e+02 stress_178
                      4.7223209788e+02 stress_179
                      4.8340000122e+02 stress_180
                      4.9406284418e+02 stress_181
                      5.0437991240e+02 stress_182
                      5.1443094472e+02 stress_183
                      5.2424604247e+02 stress_184
                      5.3382532013e+02 stress_185
                      5.4314951013e+02 stress_186
                      5.5218750301e+02 stress_187
                      5.6090129117e+02 stress_188
                      5.6924829813e+02 stress_189
                      5.7718452861e+02 stress_190
                      5.8466573516e+02 stress_191
                      5.9164752289e+02 stress_192
                      5.9808906568e+02 stress_193
                      6.0395074573e+02 stress_194
                      6.0919538622e+02 stress_195
                      6.1379106537e+02 stress_196
                      6.1770771319e+02 stress_197
                      6.2092113723e+02 stress_198
                      6.2341081707e+02 stress_199
                      6.2515998291e+02 stress_200
                      6.2615800658e+02 stress_201
                      6.2620689151e+02 stress_202
                      2.6421128508e+02 stress_203
                     -7.9916315363e+01 stress_204
                      2.9010973419e+01 stress_205
                      4.6806960802e+02 stress_206
                      4.8724514367e+02 stress_207
                      4.2241774537e+02 stress_208
                      3.0530724027e+02 stress_209
                      1.4336967357e+02 stress_210
                     -4.0004690992e+01 stress_211
                     -2.0581013652e+02 stress_212
                     -3.2619858378e+02 stress_213
                     -4.0206747762e+02 stress_214
                     -4.4826368154e+02 stress_215
                     -4.7779839887e+02 stress_216
                     -4.9850237268e+02 stress_217
                     -5.1454284010e+02 stress_218
                     -5.2806061803e+02 stress_219
                     -5.4014796752e+02 stress_220
                     -5.5135732928e+02 stress_221
                     -5.6195618881e+02 stress_222
                     -5.7205845150e+02 stress_223
                     -5.8169256264e+02 stress_224
                     -5.9083992164e+02 stress_225
                     -5.9945531714e+02 stress_226
                     -6.0747969977e+02 stress_227
                     -6.1484934668e+02 stress_228
                     -6.2149756766e+02 stress_229
                     -6.2736267520e+02 stress_230
                     -6.3238732253e+02 stress_231
                     -6.3651954066e+02 stress_232
                     -6.3971849274e+02 stress_233
                     -6.4195066244e+02 stress_234
                     -6.4319173372e+02 stress_235
                     -6.3669900623e+02 stress_236
                     -2.7206842400e+02 stress_237
                      2.3012050822e+01 stress_238
                     -1.9707220994e+02 stress_239
                     -4.4708477464e+02 stress_240
                     -1.1611246004e+02 stress_241
                      6.0559308734e+01 stress_242
                     -2.7192851600e+02 stress_243
                     -3.9574314661e+02 stress_244
                     -5.0425105131e+02 stress_245
                     -3.1923364650e+02 stress_246
                      1.5340291665e+01 stress_247
                      2.7655882810e+02 stress_248
                      3.9086365685e+02 stress_249
                      4.3380939528e+02 stress_250
                      4.4620226464e+02 stress_251
                      3.4077931690e+02 stress_252
                      1.9208713523e+01 stress_253
                     -3.1461871285e+02 stress_254
                     -4.8440948031e+02 stress_255
                     -5.4584000046e+02 stress_256
                     -5.5817168409e+02 stress_257
                     -2.8088084680e+02 stress_258
                      9.8348819916e+01 stress_259
                      2.1650025533e+02 stress_260
                      1.8550924299e+00 stress_261
                     -3.6364305719e+02 stress_262
                     -5.2130981905e+02 stress_263
                     -5.4314421453e+02 stress_264
                     -5.0109867104e+02 stress_265
                     -4.0687995474e+02 stress_266
                     -2.6417621466e+02 stress_267
                     -8.6792529120e+01 stress_268
                      9.4409916755e+01 stress_269
                      2.4350063323e+02 stress_270
                      3.4577550063e+02 stress_271
                      4.0971698044e+02 stress_272
                      4.4966082373e+02 stress_273
                      4.7622520850e+02 stress_274
                      4.9557679432e+02 stress_275
                      5.1101475772e+02 stress_276
                      5.2426873930e+02 stress_277
                      5.3623958304e+02 stress_278
                      5.4739036682e+02 stress_279
                      5.5794777835e+02 stress_280
                      5.6800767075e+02 stress_281
                      5.7759216844e+02 stress_282
                      5.8668117142e+02 stress_283
                      5.9523175772e+02 stress_284
                      6.0318778422e+02 stress_285
                      6.1048884240e+02 stress_286
                      6.1707357736e+02 stress_287
                      6.2288226219e+02 stress_288
                      6.2786148757e+02 stress_289
                      6.3196350615e+02 stress_290
                      6.3514775329e+02 stress_291
                      6.3738351872e+02 stress_292
                      6.3864795248e+02 stress_293
                      6.3866662255e+02 stress_294
                      2.6479628865e+02 stress_295
                     -7.1571632752e+01 stress_296
                      5.9052573790e+01 stress_297
                      4.8352249419e+02 stress_298
                      4.9840484804e+02 stress_299
                      4.5488504064e+02 stress_300
                      3.7653292304e+02 stress_301
                      2.6515308938e+02 stress_302
                      1.2708721668e+02 stress_303
                     -2.3156665061e+01 stress_304
                     -1.6391421999e+02 stress_305
                     -2.7722137395e+02 stress_306
                     -3.5824152838e+02 stress_307
                     -4.1272928885e+02 stress_308
                     -4.4922901523e+02 stress_309
                     -4.7463343086e+02 stress_310
                     -4.9346662952e+02 stress_311
                     -5.0845942416e+02 stress_312
                     -5.2121025714e+02 stress_313
                     -5.3265190504e+02 stress_314
                     -5.4332873418e+02 stress_315
                     -5.5355773094e+02 stress_316
                     -5.6352143675e+02 stress_317
                     -5.7332027434e+02 stress_318
                     -5.8300403585e+02 stress_319
                     -5.9259083474e+02 stress_320
                     -6.0207777174e+02 stress_321
                     -6.1144905499e+02 stress_322
                     -6.2067964512e+02 stress_323
                     -6.2973918995e+02 stress_324
                     -6.3859417649e+02 stress_325
                     -6.4720802660e+02 stress_326
                     -6.5554440150e+02 stress_327
                     -6.6356509766e+02 stress_328
                     -6.7123412834e+02 stress_329
                     -6.7851562476e+02 stress_330
                     -6.8537448306e+02 stress_331
                     -6.9177832765e+02 stress_332
                     -6.9769561240e+02 stress_333
                     -7.0309779211e+02 stress_334
                     -7.0795894497e+02 stress_335
                     -7.1225369307e+02 stress_336
                     -7.1596218103e+02 stress_337
                     -7.1906545779e+02 stress_338
                     -7.2154799847e+02 stress_339
                     -7.2339797832e+02 stress_340
                     -7.2460595873e+02 stress_341
                     -7.2516571132e+02 stress_342



------------------------------------------
Begin Dakota derivative estimation routine
------------------------------------------

>>>>> map at X performed previously and results retrieved

>>>>> Dakota finite difference gradient evaluation for x[1] + h:

---------------------
Begin Evaluation  135
---------------------
Parameters for evaluation 135:
                      4.8100935069e+02 fy
                      2.0784052872e+05 E
                      1.8392572411e-02 b
                      8.7011903122e-01 cR1
                      5.4811249634e-02 cR2
                      2.0030872338e-02 a1
                      2.5040659319e-02 a3

(Asynchronous job 135 added to queue)


>>>>> Dakota finite difference gradient evaluation for x[2] + h:

---------------------
Begin Evaluation  136
---------------------
Parameters for evaluation 136:
                      4.8052882187e+02 fy
                      2.0804836925e+05 E
                      1.8392572411e-02 b
                      8.7011903122e-01 cR1
                      5.4811249634e-02 cR2
                      2.0030872338e-02 a1
                      2.5040659319e-02 a3

(Asynchronous job 136 added to queue)


>>>>> Dakota finite difference gradient evaluation for x[3] + h:

---------------------
Begin Evaluation  137
---------------------
Parameters for evaluation 137:
                      4.8052882187e+02 fy
                      2.0784052872e+05 E
                      1.8410964983e-02 b
                      8.7011903122e-01 cR1
                      5.4811249634e-02 cR2
                      2.0030872338e-02 a1
                      2.5040659319e-02 a3

(Asynchronous job 137 added to queue)


>>>>> Dakota finite difference gradient evaluation for x[4] + h:

---------------------
Begin Evaluation  138
---------------------
Parameters for evaluation 138:
                      4.8052882187e+02 fy
                      2.0784052872e+05 E
                      1.8392572411e-02 b
                      8.7098915025e-01 cR1
                      5.4811249634e-02 cR2
                      2.0030872338e-02 a1
                      2.5040659319e-02 a3

(Asynchronous job 138 added to queue)


>>>>> Dakota finite difference gradient evaluation for x[5] + h:

---------------------
Begin Evaluation  139
---------------------
Parameters for evaluation 139:
                      4.8052882187e+02 fy
                      2.0784052872e+05 E
                      1.8392572411e-02 b
                      8.7011903122e-01 cR1
                      5.4866060884e-02 cR2
                      2.0030872338e-02 a1
                      2.5040659319e-02 a3

(Asynchronous job 139 added to queue)


>>>>> Dakota finite difference gradient evaluation for x[6] + h:

---------------------
Begin Evaluation  140
---------------------
Parameters for evaluation 140:
                      4.8052882187e+02 fy
                      2.0784052872e+05 E
                      1.8392572411e-02 b
                      8.7011903122e-01 cR1
                      5.4811249634e-02 cR2
                      2.0050903210e-02 a1
                      2.5040659319e-02 a3

(Asynchronous job 140 added to queue)


>>>>> Dakota finite difference gradient evaluation for x[7] + h:

---------------------
Begin Evaluation  141
---------------------
Parameters for evaluation 141:
                      4.8052882187e+02 fy
                      2.0784052872e+05 E
                      1.8392572411e-02 b
                      8.7011903122e-01 cR1
                      5.4811249634e-02 cR2
                      2.0030872338e-02 a1
                      2.5065699978e-02 a3

(Asynchronous job 141 added to queue)



Blocking synchronize of 7 asynchronous evaluations
First pass: initiating 7 local asynchronous jobs
Initiating evaluation 135
nonblocking fork: workflow_driver1 paramsDakota.in results.out
Initiating evaluation 136
nonblocking fork: workflow_driver1 paramsDakota.in results.out
Initiating evaluation 137
nonblocking fork: workflow_driver1 paramsDakota.in results.out
Initiating evaluation 138
nonblocking fork: workflow_driver1 paramsDakota.in results.out
Initiating evaluation 139
nonblocking fork: workflow_driver1 paramsDakota.in results.out
Initiating evaluation 140
nonblocking fork: workflow_driver1 paramsDakota.in results.out
Initiating evaluation 141
nonblocking fork: workflow_driver1 paramsDakota.in results.out
Waiting on completed jobs
Evaluation 135 has completed
Evaluation 136 has completed
Evaluation 137 has completed
Evaluation 138 has completed
Evaluation 139 has completed
Waiting on completed jobs
Evaluation 140 has completed
Waiting on completed jobs
Evaluation 141 has completed

Active response data for evaluation 135:
Active set vector = { 1 1 1 1 1 1 1 1 1 1 1 1 1 1 1 1 1 1 1 1 1 1 1 1 1 1 1 1 1 1 1 1 1 1 1 1 1 1 1 1 1 1 1 1 1 1 1 1 1 1 1 1 1 1 1 1 1 1 1 1 1 1 1 1 1 1 1 1 1 1 1 1 1 1 1 1 1 1 1 1 1 1 1 1 1 1 1 1 1 1 1 1 1 1 1 1 1 1 1 1 1 1 1 1 1 1 1 1 1 1 1 1 1 1 1 1 1 1 1 1 1 1 1 1 1 1 1 1 1 1 1 1 1 1 1 1 1 1 1 1 1 1 1 1 1 1 1 1 1 1 1 1 1 1 1 1 1 1 1 1 1 1 1 1 1 1 1 1 1 1 1 1 1 1 1 1 1 1 1 1 1 1 1 1 1 1 1 1 1 1 1 1 1 1 1 1 1 1 1 1 1 1 1 1 1 1 1 1 1 1 1 1 1 1 1 1 1 1 1 1 1 1 1 1 1 1 1 1 1 1 1 1 1 1 1 1 1 1 1 1 1 1 1 1 1 1 1 1 1 1 1 1 1 1 1 1 1 1 1 1 1 1 1 1 1 1 1 1 1 1 1 1 1 1 1 1 1 1 1 1 1 1 1 1 1 1 1 1 1 1 1 1 1 1 1 1 1 1 1 1 1 1 1 1 1 1 1 1 1 1 1 1 1 1 1 1 1 1 1 1 1 1 1 1 1 1 1 1 1 1 1 1 1 1 1 1 1 1 1 1 1 1 }
                      2.4220149393e+00 stress_1
                     -2.5171560173e+02 stress_2
                     -4.9472579643e+02 stress_3
                     -4.9624662032e+02 stress_4
                     -1.6729481271e+02 stress_5
                      2.5315433918e+02 stress_6
                      4.0157543572e+02 stress_7
                      4.0244615982e+02 stress_8
                      1.5278145189e+02 stress_9
                     -2.3137934490e+02 stress_10
                     -4.4034126269e+02 stress_11
                     -4.8970468016e+02 stress_12
                     -5.0362786449e+02 stress_13
                     -5.0462128977e+02 stress_14
                     -1.7385151291e+02 stress_15
                     -3.4181533315e+02 stress_16
                     -5.1028621753e+02 stress_17
                     -3.1548515580e+02 stress_18
                      2.1074781172e+01 stress_19
                      2.9854050157e+02 stress_20
                      4.1881506027e+02 stress_21
                      4.6386889316e+02 stress_22
                      4.8247133802e+02 stress_23
                      4.8860615041e+02 stress_24
                      1.5789270041e+02 stress_25
                      2.8600518228e+02 stress_26
                      4.2987947215e+02 stress_27
                      4.6565726133e+02 stress_28
                      3.4278605309e+02 stress_29
                      1.2913051076e+02 stress_30
                     -1.2475416370e+02 stress_31
                     -3.2066525489e+02 stress_32
                     -4.2471186450e+02 stress_33
                     -4.7462920560e+02 stress_34
                     -5.0163559955e+02 stress_35
                     -5.1914521714e+02 stress_36
                     -5.3215647148e+02 stress_37
                     -5.4247843175e+02 stress_38
                     -5.5072082790e+02 stress_39
                     -5.5702981341e+02 stress_40
                     -5.6139168541e+02 stress_41
                     -5.6374745117e+02 stress_42
                     -5.4828064610e+02 stress_43
                     -1.6119199535e+02 stress_44
                      1.0609750620e+02 stress_45
                     -1.0010826784e+02 stress_46
                     -4.5360725504e+02 stress_47
                     -1.5717514305e+02 stress_48
                     -2.6011125447e+02 stress_49
                     -4.1992611420e+02 stress_50
                     -5.6912935479e+02 stress_51
                     -3.9915548055e+02 stress_52
                     -6.1479953162e+01 stress_53
                      2.2638723536e+02 stress_54
                      3.5842289414e+02 stress_55
                      4.0809388231e+02 stress_56
                      4.2318127261e+02 stress_57
                      3.3681209015e+02 stress_58
                      2.1952068824e+01 stress_59
                     -3.1588811437e+02 stress_60
                     -4.7165806814e+02 stress_61
                     -5.2167917804e+02 stress_62
                     -5.3271552717e+02 stress_63
                     -2.6423885824e+02 stress_64
                      1.1320513859e+02 stress_65
                      2.0033260521e+02 stress_66
                     -7.1998883989e+01 stress_67
                     -4.4097062498e+02 stress_68
                     -5.3528947893e+02 stress_69
                     -5.3637004951e+02 stress_70
                     -4.4097173764e+02 stress_71
                     -2.6871940188e+02 stress_72
                     -4.5168872458e+01 stress_73
                      1.6669881054e+02 stress_74
                      3.1141249189e+02 stress_75
                      3.9223322296e+02 stress_76
                      4.3656307674e+02 stress_77
                      4.6344380043e+02 stress_78
                      4.8209486160e+02 stress_79
                      4.9657772334e+02 stress_80
                      5.0864385619e+02 stress_81
                      5.1902412364e+02 stress_82
                      5.2798830324e+02 stress_83
                      5.3559718304e+02 stress_84
                      5.4181681668e+02 stress_85
                      5.4658164231e+02 stress_86
                      5.4982397430e+02 stress_87
                      5.5148807121e+02 stress_88
                      4.7775988583e+02 stress_89
                      4.4078877990e+01 stress_90
                     -1.5927659268e+02 stress_91
                      1.3095494289e+02 stress_92
                      4.7847865597e+02 stress_93
                      4.8482756692e+02 stress_94
                      4.2462273233e+02 stress_95
                      3.1644463585e+02 stress_96
                      1.6574280050e+02 stress_97
                     -9.8682558454e+00 stress_98
                     -1.7723352733e+02 stress_99
                     -3.0618685052e+02 stress_100
                     -3.9094871786e+02 stress_101
                     -4.4324526229e+02 stress_102
                     -4.7627149877e+02 stress_103
                     -4.9879426867e+02 stress_104
                     -5.1570224227e+02 stress_105
                     -5.2957941117e+02 stress_106
                     -5.4177361912e+02 stress_107
                     -5.5298572096e+02 stress_108
                     -5.6357378556e+02 stress_109
                     -5.7371020612e+02 stress_110
                     -5.8346351120e+02 stress_111
                     -5.9284239616e+02 stress_112
                     -6.0182281225e+02 stress_113
                     -6.1036148687e+02 stress_114
                     -6.1840443891e+02 stress_115
                     -6.2589344017e+02 stress_116
                     -6.3276867463e+02 stress_117
                     -6.3897371977e+02 stress_118
                     -6.4445507497e+02 stress_119
                     -6.4916304837e+02 stress_120
                     -6.5305639314e+02 stress_121
                     -6.5609914691e+02 stress_122
                     -6.5826292440e+02 stress_123
                     -6.5952853110e+02 stress_124
                     -6.5986849849e+02 stress_125
                     -5.5729204958e+02 stress_126
                     -3.0636987725e+02 stress_127
                      5.7468301647e-01 stress_128
                      2.1962960850e+02 stress_129
                      3.2885612881e+02 stress_130
                      3.7980128127e+02 stress_131
                      4.0467838824e+02 stress_132
                      4.1597779643e+02 stress_133
                      4.1660802784e+02 stress_134
                      1.1654745316e+01 stress_135
                     -1.0242614034e+01 stress_136
                      1.7488233907e+02 stress_137
                      1.3874222689e+02 stress_138
                     -3.3628233429e+01 stress_139
                     -3.2081682155e+02 stress_140
                     -5.3015905140e+02 stress_141
                     -6.1408612269e+02 stress_142
                     -6.4666676311e+02 stress_143
                     -6.6149319529e+02 stress_144
                     -6.6761717282e+02 stress_145
                     -6.4721637017e+02 stress_146
                     -4.0916732666e+02 stress_147
                     -5.8226683202e+01 stress_148
                      1.9423053581e+02 stress_149
                      3.0680312297e+02 stress_150
                      3.4846509201e+02 stress_151
                      3.5360972561e+02 stress_152
                      1.3715568999e+02 stress_153
                     -2.3134308551e+02 stress_154
                     -4.9353745982e+02 stress_155
                     -5.9054483682e+02 stress_156
                     -6.1762825935e+02 stress_157
                     -4.9490083947e+02 stress_158
                     -8.9762305638e+01 stress_159
                      9.3713651130e+01 stress_160
                     -7.3104596695e+01 stress_161
                     -4.6857531891e+02 stress_162
                     -6.2430165481e+02 stress_163
                     -6.3527868583e+02 stress_164
                     -5.9351547677e+02 stress_165
                     -5.1122511834e+02 stress_166
                     -3.9043344494e+02 stress_167
                     -2.3819567951e+02 stress_168
                     -7.1725050318e+01 stress_169
                      8.3298328827e+01 stress_170
                      2.0604183439e+02 stress_171
                      2.9198614215e+02 stress_172
                      3.4875439549e+02 stress_173
                      3.8635770508e+02 stress_174
                      4.1245194566e+02 stress_175
                      4.3186085331e+02 stress_176
                      4.4740871831e+02 stress_177
                      4.6071176968e+02 stress_178
                      4.7268926096e+02 stress_179
                      4.8386442062e+02 stress_180
                      4.9453240078e+02 stress_181
                      5.0485317834e+02 stress_182
                      5.1490693851e+02 stress_183
                      5.2472407619e+02 stress_184
                      5.3430490288e+02 stress_185
                      5.4363028548e+02 stress_186
                      5.5266920798e+02 stress_187
                      5.6138372881e+02 stress_188
                      5.6973131875e+02 stress_189
                      5.7766801687e+02 stress_190
                      5.8514960102e+02 stress_191
                      5.9213169506e+02 stress_192
                      5.9857348705e+02 stress_193
                      6.0443536982e+02 stress_194
                      6.0968017470e+02 stress_195
                      6.1427598612e+02 stress_196
                      6.1819273883e+02 stress_197
                      6.2140624394e+02 stress_198
                      6.2389598372e+02 stress_199
                      6.2564519024e+02 stress_200
                      6.2664323661e+02 stress_201
                      6.2669212264e+02 stress_202
                      2.6467977782e+02 stress_203
                     -7.9617451802e+01 stress_204
                      2.9309838327e+01 stress_205
                      4.6844767685e+02 stress_206
                      4.8764021359e+02 stress_207
                      4.2281276700e+02 stress_208
                      3.0570028375e+02 stress_209
                      1.4374445261e+02 stress_210
                     -3.9704582946e+01 stress_211
                     -2.0566834695e+02 stress_212
                     -3.2624928214e+02 stress_213
                     -4.0227607366e+02 stress_214
                     -4.4857686925e+02 stress_215
                     -4.7817521591e+02 stress_216
                     -4.9891728333e+02 stress_217
                     -5.1498090668e+02 stress_218
                     -5.2851314884e+02 stress_219
                     -5.4060981270e+02 stress_220
                     -5.5182535529e+02 stress_221
                     -5.6242843242e+02 stress_222
                     -5.7253364683e+02 stress_223
                     -5.8216987066e+02 stress_224
                     -5.9131877176e+02 stress_225
                     -5.9993531173e+02 stress_226
                     -6.0796055525e+02 stress_227
                     -6.1533085633e+02 stress_228
                     -6.2197957721e+02 stress_229
                     -6.2784506703e+02 stress_230
                     -6.3287000465e+02 stress_231
                     -6.3700243905e+02 stress_232
                     -6.4020154609e+02 stress_233
                     -6.4243381797e+02 stress_234
                     -6.4367494408e+02 stress_235
                     -6.3718221658e+02 stress_236
                     -2.7253411269e+02 stress_237
                      2.2674052547e+01 stress_238
                     -1.9741344638e+02 stress_239
                     -4.4746936886e+02 stress_240
                     -1.1647629804e+02 stress_241
                      6.0272263324e+01 stress_242
                     -2.7223024993e+02 stress_243
                     -3.9607523405e+02 stress_244
                     -5.0463221030e+02 stress_245
                     -3.1961275945e+02 stress_246
                      1.5045228312e+01 stress_247
                      2.7654788646e+02 stress_248
                      3.9107488449e+02 stress_249
                      4.3411597877e+02 stress_250
                      4.4653613786e+02 stress_251
                      3.4111301839e+02 stress_252
                      1.9513807308e+01 stress_253
                     -3.1451935633e+02 stress_254
                     -4.8455336076e+02 stress_255
                     -5.4609786291e+02 stress_256
                     -5.5845341253e+02 stress_257
                     -2.8115615769e+02 stress_258
                      9.8211436179e+01 stress_259
                      2.1647919138e+02 stress_260
                      1.8309088553e+00 stress_261
                     -3.6377995229e+02 stress_262
                     -5.2160088707e+02 stress_263
                     -5.4346318363e+02 stress_264
                     -5.0141763244e+02 stress_265
                     -4.0719837713e+02 stress_266
                     -2.6448784973e+02 stress_267
                     -8.7067961112e+01 stress_268
                      9.4236276042e+01 stress_269
                      2.4348933064e+02 stress_270
                      3.4592775795e+02 stress_271
                      4.0999161737e+02 stress_272
                      4.5001434993e+02 stress_273
                      4.7662697571e+02 stress_274
                      4.9600796057e+02 stress_275
                      5.1146417250e+02 stress_276
                      5.2472978843e+02 stress_277
                      5.3670826540e+02 stress_278
                      5.4786419885e+02 stress_279
                      5.5842517567e+02 stress_280
                      5.6848759498e+02 stress_281
                      5.7807392134e+02 stress_282
                      5.8716427190e+02 stress_283
                      5.9571586670e+02 stress_284
                      6.0367265732e+02 stress_285
                      6.1097429980e+02 stress_286
                      6.1755948383e+02 stress_287
                      6.2336851372e+02 stress_288
                      6.2834800233e+02 stress_289
                      6.3245021795e+02 stress_290
                      6.3563460695e+02 stress_291
                      6.3787046665e+02 stress_292
                      6.3913495188e+02 stress_293
                      6.3915362270e+02 stress_294
                      2.6526520118e+02 stress_295
                     -7.1267653083e+01 stress_296
                      5.9356564147e+01 stress_297
                      4.8391955953e+02 stress_298
                      4.9881544651e+02 stress_299
                      4.5529562799e+02 stress_300
                      3.7694305808e+02 stress_301
                      2.6555882651e+02 stress_302
                      1.2747167499e+02 stress_303
                     -2.2835211916e+01 stress_304
                     -1.6371396915e+02 stress_305
                     -2.7717957009e+02 stress_306
                     -3.5835203811e+02 stress_307
                     -4.1295902244e+02 stress_308
                     -4.4954205364e+02 stress_309
                     -4.7500180331e+02 stress_310
                     -4.9387125686e+02 stress_311
                     -5.0888794125e+02 stress_312
                     -5.2165475076e+02 stress_313
                     -5.3310728594e+02 stress_314
                     -5.4379168344e+02 stress_315
                     -5.5402604566e+02 stress_316
                     -5.6399362728e+02 stress_317
                     -5.7379531420e+02 stress_318
                     -5.8348120484e+02 stress_319
                     -5.9306961886e+02 stress_320
                     -6.0255779810e+02 stress_321
                     -6.1193004902e+02 stress_322
                     -6.2116140171e+02 stress_323
                     -6.3022155385e+02 stress_324
                     -6.3907702872e+02 stress_325
                     -6.4769127488e+02 stress_326
                     -6.5602797348e+02 stress_327
                     -6.6404893595e+02 stress_328
                     -6.7171818700e+02 stress_329
                     -6.7899986662e+02 stress_330
                     -6.8585887773e+02 stress_331
                     -6.9226285004e+02 stress_332
                     -6.9818024157e+02 stress_333
                     -7.0358251041e+02 stress_334
                     -7.0844373735e+02 stress_335
                     -7.1273854650e+02 stress_336
                     -7.1644708413e+02 stress_337
                     -7.1955040041e+02 stress_338
                     -7.2203297146e+02 stress_339
                     -7.2388297324e+02 stress_340
                     -7.2509096766e+02 stress_341
                     -7.2565072666e+02 stress_342


Active response data for evaluation 136:
Active set vector = { 1 1 1 1 1 1 1 1 1 1 1 1 1 1 1 1 1 1 1 1 1 1 1 1 1 1 1 1 1 1 1 1 1 1 1 1 1 1 1 1 1 1 1 1 1 1 1 1 1 1 1 1 1 1 1 1 1 1 1 1 1 1 1 1 1 1 1 1 1 1 1 1 1 1 1 1 1 1 1 1 1 1 1 1 1 1 1 1 1 1 1 1 1 1 1 1 1 1 1 1 1 1 1 1 1 1 1 1 1 1 1 1 1 1 1 1 1 1 1 1 1 1 1 1 1 1 1 1 1 1 1 1 1 1 1 1 1 1 1 1 1 1 1 1 1 1 1 1 1 1 1 1 1 1 1 1 1 1 1 1 1 1 1 1 1 1 1 1 1 1 1 1 1 1 1 1 1 1 1 1 1 1 1 1 1 1 1 1 1 1 1 1 1 1 1 1 1 1 1 1 1 1 1 1 1 1 1 1 1 1 1 1 1 1 1 1 1 1 1 1 1 1 1 1 1 1 1 1 1 1 1 1 1 1 1 1 1 1 1 1 1 1 1 1 1 1 1 1 1 1 1 1 1 1 1 1 1 1 1 1 1 1 1 1 1 1 1 1 1 1 1 1 1 1 1 1 1 1 1 1 1 1 1 1 1 1 1 1 1 1 1 1 1 1 1 1 1 1 1 1 1 1 1 1 1 1 1 1 1 1 1 1 1 1 1 1 1 1 1 1 1 1 1 1 1 1 1 1 1 1 1 1 1 1 1 1 1 1 1 1 1 1 }
                      2.4244369543e+00 stress_1
                     -2.5196729799e+02 stress_2
                     -4.9426077865e+02 stress_3
                     -4.9578072448e+02 stress_4
                     -1.6651667761e+02 stress_5
                      2.5368925277e+02 stress_6
                      4.0153414042e+02 stress_7
                      4.0240077487e+02 stress_8
                      1.5249323356e+02 stress_9
                     -2.3161966371e+02 stress_10
                     -4.3997474796e+02 stress_11
                     -4.8923672737e+02 stress_12
                     -5.0316050385e+02 stress_13
                     -5.0415460415e+02 stress_14
                     -1.7308482315e+02 stress_15
                     -3.4121660690e+02 stress_16
                     -5.0984404323e+02 stress_17
                     -3.1485207477e+02 stress_18
                      2.1863799886e+01 stress_19
                      2.9889712988e+02 stress_20
                      4.1873186770e+02 stress_21
                      4.6360630812e+02 stress_22
                      4.8214622241e+02 stress_23
                      4.8826366560e+02 stress_24
                      1.5725141956e+02 stress_25
                      2.8549201449e+02 stress_26
                      4.2951266884e+02 stress_27
                      4.6532383199e+02 stress_28
                      3.4233057031e+02 stress_29
                      1.2849702614e+02 stress_30
                     -1.2538051392e+02 stress_31
                     -3.2093936029e+02 stress_32
                     -4.2464013116e+02 stress_33
                     -4.7437670157e+02 stress_34
                     -5.0130463431e+02 stress_35
                     -5.1878205947e+02 stress_36
                     -5.3178128112e+02 stress_37
                     -5.4210008715e+02 stress_38
                     -5.5034310084e+02 stress_39
                     -5.5665398239e+02 stress_40
                     -5.6101773240e+02 stress_41
                     -5.6337467437e+02 stress_42
                     -5.4789240291e+02 stress_43
                     -1.6048028856e+02 stress_44
                      1.0673425569e+02 stress_45
                     -9.9677438411e+01 stress_46
                     -4.5328988002e+02 stress_47
                     -1.5658983305e+02 stress_48
                     -2.5962887229e+02 stress_49
                     -4.1959005250e+02 stress_50
                     -5.6872246831e+02 stress_51
                     -3.9858133291e+02 stress_52
                     -6.0713928938e+01 stress_53
                      2.2683609660e+02 stress_54
                      3.5847199252e+02 stress_55
                      4.0795718910e+02 stress_56
                      4.2298828182e+02 stress_57
                      3.3653288823e+02 stress_58
                      2.1415396781e+01 stress_59
                     -3.1625386458e+02 stress_60
                     -4.7163777349e+02 stress_61
                     -5.2150388858e+02 stress_62
                     -5.3250754557e+02 stress_63
                     -2.6377680682e+02 stress_64
                      1.1370523622e+02 stress_65
                      2.0071596549e+02 stress_66
                     -7.1875496254e+01 stress_67
                     -4.4077590825e+02 stress_68
                     -5.3493801379e+02 stress_69
                     -5.3601708504e+02 stress_70
                     -4.4052372701e+02 stress_71
                     -2.6811420803e+02 stress_72
                     -4.4466515882e+01 stress_73
                      1.6723453425e+02 stress_74
                      3.1160292162e+02 stress_75
                      3.9214293874e+02 stress_76
                      4.3631095104e+02 stress_77
                      4.6310853831e+02 stress_78
                      4.8171861964e+02 stress_79
                      4.9618225407e+02 stress_80
                      5.0824049119e+02 stress_81
                      5.1861880875e+02 stress_82
                      5.2758407126e+02 stress_83
                      5.3519540262e+02 stress_84
                      5.4141785493e+02 stress_85
                      5.4618524197e+02 stress_86
                      5.4942948654e+02 stress_87
                      5.5109461285e+02 stress_88
                      4.7729282134e+02 stress_89
                      4.3316064744e+01 stress_90
                     -1.5991393300e+02 stress_91
                      1.3060271691e+02 stress_92
                      4.7805828410e+02 stress_93
                      4.8439698160e+02 stress_94
                      4.2413201441e+02 stress_95
                      3.1584875362e+02 stress_96
                      1.6502489596e+02 stress_97
                     -1.0636896081e+01 stress_98
                     -1.7787681271e+02 stress_99
                     -3.0656105974e+02 stress_100
                     -3.9105047840e+02 stress_101
                     -4.4314949595e+02 stress_102
                     -4.7605281387e+02 stress_103
                     -4.9850393751e+02 stress_104
                     -5.1537162476e+02 stress_105
                     -5.2922714197e+02 stress_106
                     -5.4141084227e+02 stress_107
                     -5.5261922317e+02 stress_108
                     -5.6320777660e+02 stress_109
                     -5.7334732582e+02 stress_110
                     -5.8310540730e+02 stress_111
                     -5.9249006266e+02 stress_112
                     -6.0147679444e+02 stress_113
                     -6.1002200846e+02 stress_114
                     -6.1807148344e+02 stress_115
                     -6.2556680575e+02 stress_116
                     -6.3244801139e+02 stress_117
                     -6.3865855908e+02 stress_118
                     -6.4414485039e+02 stress_119
                     -6.4885711208e+02 stress_120
                     -6.5275403311e+02 stress_121
                     -6.5579959889e+02 stress_122
                     -6.5796538451e+02 stress_123
                     -6.5923216885e+02 stress_124
                     -6.5957245296e+02 stress_125
                     -5.5689380785e+02 stress_126
                     -3.0575405005e+02 stress_127
                      1.2088905520e+00 stress_128
                      2.1991199945e+02 stress_129
                      3.2880911632e+02 stress_130
                      3.7957767593e+02 stress_131
                      4.0437286251e+02 stress_132
                      4.1563855321e+02 stress_133
                      4.1626699754e+02 stress_134
                      1.0958393880e+01 stress_135
                     -1.0950113636e+01 stress_136
                      1.7434927799e+02 stress_137
                      1.3817303906e+02 stress_138
                     -3.4359795468e+01 stress_139
                     -3.2158890036e+02 stress_140
                     -5.3046908981e+02 stress_141
                     -6.1405573459e+02 stress_142
                     -6.4650860334e+02 stress_143
                     -6.6129079110e+02 stress_144
                     -6.6740084223e+02 stress_145
                     -6.4697963979e+02 stress_146
                     -4.0870271760e+02 stress_147
                     -5.7627214338e+01 stress_148
                      1.9452844175e+02 stress_149
                      3.0680205864e+02 stress_150
                      3.4833056911e+02 stress_151
                      3.5345830067e+02 stress_152
                      1.3679227236e+02 stress_153
                     -2.3187741243e+02 stress_154
                     -4.9374996402e+02 stress_155
                     -5.9051090426e+02 stress_156
                     -6.1752135648e+02 stress_157
                     -4.9467194498e+02 stress_158
                     -8.9272346139e+01 stress_159
                      9.4108924232e+01 stress_160
                     -7.2875090447e+01 stress_161
                     -4.6849090879e+02 stress_162
                     -6.2402199636e+02 stress_163
                     -6.3498678577e+02 stress_164
                     -5.9318182915e+02 stress_165
                     -5.1080997662e+02 stress_166
                     -3.8990625114e+02 stress_167
                     -2.3756173998e+02 stress_168
                     -7.1064640816e+01 stress_169
                      8.3841830633e+01 stress_170
                      2.0635781766e+02 stress_171
                      2.9206076417e+02 stress_172
                      3.4863717126e+02 stress_173
                      3.8610882191e+02 stress_174
                      4.1211892547e+02 stress_175
                      4.3147604750e+02 stress_176
                      4.4699302421e+02 stress_177
                      4.6027853682e+02 stress_178
                      4.7224708421e+02 stress_179
                      4.8341891597e+02 stress_180
                      4.9408729659e+02 stress_181
                      5.0441098127e+02 stress_182
                      5.1446934322e+02 stress_183
                      5.2429222095e+02 stress_184
                      5.3387953253e+02 stress_185
                      5.4321185694e+02 stress_186
                      5.5225796039e+02 stress_187
                      5.6097973140e+02 stress_188
                      5.6933450378e+02 stress_189
                      5.7727820395e+02 stress_190
                      5.8476651499e+02 stress_191
                      5.9175497892e+02 stress_192
                      5.9820271466e+02 stress_193
                      6.0407005412e+02 stress_194
                      6.0931977526e+02 stress_195
                      6.1391991812e+02 stress_196
                      6.1784037796e+02 stress_197
                      6.2105693454e+02 stress_198
                      6.2354904427e+02 stress_199
                      6.2529991869e+02 stress_200
                      6.2629891774e+02 stress_201
                      6.2634785045e+02 stress_202
                      2.6400703871e+02 stress_203
                     -8.0294687931e+01 stress_204
                      2.8741526764e+01 stress_205
                      4.6815968050e+02 stress_206
                      4.8733736242e+02 stress_207
                      4.2244518516e+02 stress_208
                      3.0521955424e+02 stress_209
                      1.4313837068e+02 stress_210
                     -4.0344509420e+01 stress_211
                     -2.0615720041e+02 stress_212
                     -3.2647348087e+02 stress_213
                     -4.0226044984e+02 stress_214
                     -4.4839839893e+02 stress_215
                     -4.7789913355e+02 stress_216
                     -4.9858579384e+02 stress_217
                     -5.1461919528e+02 stress_218
                     -5.2813605885e+02 stress_219
                     -5.4022620243e+02 stress_220
                     -5.5144060694e+02 stress_221
                     -5.6204585749e+02 stress_222
                     -5.7215527757e+02 stress_223
                     -5.8179691507e+02 stress_224
                     -5.9095188293e+02 stress_225
                     -5.9957475204e+02 stress_226
                     -6.0760630017e+02 stress_227
                     -6.1498266410e+02 stress_228
                     -6.2163703456e+02 stress_229
                     -6.2750762583e+02 stress_230
                     -6.3253700820e+02 stress_231
                     -6.3667314278e+02 stress_232
                     -6.3987513923e+02 stress_233
                     -6.4210943914e+02 stress_234
                     -6.4335169679e+02 stress_235
                     -6.3685247659e+02 stress_236
                     -2.7187483941e+02 stress_237
                      2.3372727157e+01 stress_238
                     -1.9692837141e+02 stress_239
                     -4.4714748490e+02 stress_240
                     -1.1586501740e+02 stress_241
                      6.0906445369e+01 stress_242
                     -2.7189913614e+02 stress_243
                     -3.9580714545e+02 stress_244
                     -5.0437436633e+02 stress_245
                     -3.1917399638e+02 stress_246
                      1.5650262868e+01 stress_247
                      2.7684563695e+02 stress_248
                      3.9104274482e+02 stress_249
                      4.3393621464e+02 stress_250
                      4.4631423591e+02 stress_251
                      3.4078603753e+02 stress_252
                      1.8922558788e+01 stress_253
                     -3.1503254857e+02 stress_254
                     -4.8474972825e+02 stress_255
                     -5.4612773379e+02 stress_256
                     -5.5844789830e+02 stress_257
                     -2.8088620687e+02 stress_258
                      9.8584459331e+01 stress_259
                      2.1673758117e+02 stress_260
                      1.8809006856e+00 stress_261
                     -3.6386983698e+02 stress_262
                     -5.2153998875e+02 stress_263
                     -5.4336831504e+02 stress_264
                     -5.0128073373e+02 stress_265
                     -4.0696833938e+02 stress_266
                     -2.6412870293e+02 stress_267
                     -8.6603932169e+01 stress_268
                      9.4677724188e+01 stress_269
                      2.4375502754e+02 stress_270
                      3.4596860116e+02 stress_271
                      4.0985172797e+02 stress_272
                      4.4975671905e+02 stress_273
                      4.7629949820e+02 stress_274
                      4.9564108477e+02 stress_275
                      5.1107626931e+02 stress_276
                      5.2433189141e+02 stress_277
                      5.3630708672e+02 stress_278
                      5.4746388114e+02 stress_279
                      5.5802829141e+02 stress_280
                      5.6809572151e+02 stress_281
                      5.7768797846e+02 stress_282
                      5.8678472538e+02 stress_283
                      5.9534285566e+02 stress_284
                      6.0330607548e+02 stress_285
                      6.1061385152e+02 stress_286
                      6.1720472298e+02 stress_287
                      6.2301887208e+02 stress_288
                      6.2800281396e+02 stress_289
                      6.3210873788e+02 stress_290
                      6.3529602766e+02 stress_291
                      6.3753393477e+02 stress_292
                      6.3879958159e+02 stress_293
                      6.3881826958e+02 stress_294
                      2.6459220840e+02 stress_295
                     -7.1946787889e+01 stress_296
                      5.8808032006e+01 stress_297
                      4.8360902747e+02 stress_298
                      4.9849271445e+02 stress_299
                      4.5492939840e+02 stress_300
                      3.7649938251e+02 stress_301
                      2.6501258121e+02 stress_302
                      1.2682998563e+02 stress_303
                     -2.3500976091e+01 stress_304
                     -1.6427787781e+02 stress_305
                     -2.7753977419e+02 stress_306
                     -3.5848866420e+02 stress_307
                     -4.1291179919e+02 stress_308
                     -4.4936484062e+02 stress_309
                     -4.7473942505e+02 stress_310
                     -4.9355527426e+02 stress_311
                     -5.0853922279e+02 stress_312
                     -5.2128686548e+02 stress_313
                     -5.3272909247e+02 stress_314
                     -5.4340904754e+02 stress_315
                     -5.5364292036e+02 stress_316
                     -5.6361272318e+02 stress_317
                     -5.7341851699e+02 stress_318
                     -5.8310983817e+02 stress_319
                     -5.9270461256e+02 stress_320
                     -6.0219979720e+02 stress_321
                     -6.1157948636e+02 stress_322
                     -6.2081854634e+02 stress_323
                     -6.2988654485e+02 stress_324
                     -6.3874989919e+02 stress_325
                     -6.4737196804e+02 stress_326
                     -6.5571635638e+02 stress_327
                     -6.6374480756e+02 stress_328
                     -6.7142128742e+02 stress_329
                     -6.7870988257e+02 stress_330
                     -6.8557544729e+02 stress_331
                     -6.9198556830e+02 stress_332
                     -6.9790866381e+02 stress_333
                     -7.0331615677e+02 stress_334
                     -7.0818209688e+02 stress_335
                     -7.1248107883e+02 stress_336
                     -7.1619322573e+02 stress_337
                     -7.1929956633e+02 stress_338
                     -7.2178455926e+02 stress_339
                     -7.2363636721e+02 stress_340
                     -7.2484554162e+02 stress_341
                     -7.2540584757e+02 stress_342


Active response data for evaluation 137:
Active set vector = { 1 1 1 1 1 1 1 1 1 1 1 1 1 1 1 1 1 1 1 1 1 1 1 1 1 1 1 1 1 1 1 1 1 1 1 1 1 1 1 1 1 1 1 1 1 1 1 1 1 1 1 1 1 1 1 1 1 1 1 1 1 1 1 1 1 1 1 1 1 1 1 1 1 1 1 1 1 1 1 1 1 1 1 1 1 1 1 1 1 1 1 1 1 1 1 1 1 1 1 1 1 1 1 1 1 1 1 1 1 1 1 1 1 1 1 1 1 1 1 1 1 1 1 1 1 1 1 1 1 1 1 1 1 1 1 1 1 1 1 1 1 1 1 1 1 1 1 1 1 1 1 1 1 1 1 1 1 1 1 1 1 1 1 1 1 1 1 1 1 1 1 1 1 1 1 1 1 1 1 1 1 1 1 1 1 1 1 1 1 1 1 1 1 1 1 1 1 1 1 1 1 1 1 1 1 1 1 1 1 1 1 1 1 1 1 1 1 1 1 1 1 1 1 1 1 1 1 1 1 1 1 1 1 1 1 1 1 1 1 1 1 1 1 1 1 1 1 1 1 1 1 1 1 1 1 1 1 1 1 1 1 1 1 1 1 1 1 1 1 1 1 1 1 1 1 1 1 1 1 1 1 1 1 1 1 1 1 1 1 1 1 1 1 1 1 1 1 1 1 1 1 1 1 1 1 1 1 1 1 1 1 1 1 1 1 1 1 1 1 1 1 1 1 1 1 1 1 1 1 1 1 1 1 1 1 1 1 1 1 1 1 1 }
                      2.4220149393e+00 stress_1
                     -2.5171559215e+02 stress_2
                     -4.9425036240e+02 stress_3
                     -4.9577142273e+02 stress_4
                     -1.6682792087e+02 stress_5
                      2.5329134254e+02 stress_6
                      4.0135382831e+02 stress_7
                      4.0222211577e+02 stress_8
                      1.5256080280e+02 stress_9
                     -2.3138512179e+02 stress_10
                     -4.3994462932e+02 stress_11
                     -4.8924031254e+02 stress_12
                     -5.0316220716e+02 stress_13
                     -5.0415597054e+02 stress_14
                     -1.7340146268e+02 stress_15
                     -3.4136528276e+02 stress_16
                     -5.0983071178e+02 stress_17
                     -3.1503158325e+02 stress_18
                      2.1438768523e+01 stress_19
                      2.9855360906e+02 stress_20
                      4.1855530295e+02 stress_21
                      4.6350441565e+02 stress_22
                      4.8207187885e+02 stress_23
                      4.8819732862e+02 stress_24
                      1.5749971011e+02 stress_25
                      2.8561219227e+02 stress_26
                      4.2948773794e+02 stress_27
                      4.6526438674e+02 stress_28
                      3.4239358439e+02 stress_29
                      1.2875572659e+02 stress_30
                     -1.2499964381e+02 stress_31
                     -3.2064036509e+02 stress_32
                     -4.2446833935e+02 stress_33
                     -4.7427834563e+02 stress_34
                     -5.0124082963e+02 stress_35
                     -5.1873459573e+02 stress_36
                     -5.3174201506e+02 stress_37
                     -5.4206520276e+02 stress_38
                     -5.5031067880e+02 stress_39
                     -5.5662297707e+02 stress_40
                     -5.6098752088e+02 stress_41
                     -5.6334483872e+02 stress_42
                     -5.4787803386e+02 stress_43
                     -1.6082089960e+02 stress_44
                      1.0629935359e+02 stress_45
                     -9.9906278978e+01 stress_46
                     -4.5328596099e+02 stress_47
                     -1.5686796915e+02 stress_48
                     -2.5980407647e+02 stress_49
                     -4.1961223032e+02 stress_50
                     -5.6870719600e+02 stress_51
                     -3.9873466624e+02 stress_52
                     -6.1131339932e+01 stress_53
                      2.2643725019e+02 stress_54
                      3.5821352032e+02 stress_55
                      4.0777256633e+02 stress_56
                      4.2282696559e+02 stress_57
                      3.3645786161e+02 stress_58
                      2.1626307191e+01 stress_59
                     -3.1596227659e+02 stress_60
                     -4.7146745664e+02 stress_61
                     -5.2139160840e+02 stress_62
                     -5.3240804270e+02 stress_63
                     -2.6393850935e+02 stress_64
                      1.1333771737e+02 stress_65
                      2.0036474217e+02 stress_66
                     -7.1960605974e+01 stress_67
                     -4.4071446419e+02 stress_68
                     -5.3491214932e+02 stress_69
                     -5.3599153542e+02 stress_70
                     -4.4059339812e+02 stress_71
                     -2.6834852939e+02 stress_72
                     -4.4860583325e+01 stress_73
                      1.6682008774e+02 stress_74
                      3.1129327474e+02 stress_75
                      3.9193972591e+02 stress_76
                      4.3617434277e+02 stress_77
                      4.6300872126e+02 stress_78
                      4.8163903071e+02 stress_79
                      4.9611417015e+02 stress_80
                      5.0817923683e+02 stress_81
                      5.1856177613e+02 stress_82
                      5.2752973704e+02 stress_83
                      5.3514283352e+02 stress_84
                      5.4136644927e+02 stress_85
                      5.4613458973e+02 stress_86
                      5.4937928883e+02 stress_87
                      5.5104463203e+02 stress_88
                      4.7731650713e+02 stress_89
                      4.3703779560e+01 stress_90
                     -1.5948924038e+02 stress_91
                      1.3073975470e+02 stress_92
                      4.7805730951e+02 stress_93
                      4.8439808230e+02 stress_94
                      4.2419328351e+02 stress_95
                      3.1601668053e+02 stress_96
                      1.6532905337e+02 stress_97
                     -1.0220177619e+01 stress_98
                     -1.7744076894e+02 stress_99
                     -3.0619820726e+02 stress_100
                     -3.9078603319e+02 stress_101
                     -4.4296343583e+02 stress_102
                     -4.7591841339e+02 stress_103
                     -4.9840153802e+02 stress_104
                     -5.1528891163e+02 stress_105
                     -5.2915673929e+02 stress_106
                     -5.4134833264e+02 stress_107
                     -5.5256191430e+02 stress_108
                     -5.6315398752e+02 stress_109
                     -5.7329597944e+02 stress_110
                     -5.8305579542e+02 stress_111
                     -5.9244170792e+02 stress_112
                     -6.0142936762e+02 stress_113
                     -6.0997527749e+02 stress_114
                     -6.1802528124e+02 stress_115
                     -6.2552100966e+02 stress_116
                     -6.3240252949e+02 stress_117
                     -6.3861332123e+02 stress_118
                     -6.4409980188e+02 stress_119
                     -6.4881220926e+02 stress_120
                     -6.5270924034e+02 stress_121
                     -6.5575488619e+02 stress_122
                     -6.5792072580e+02 stress_123
                     -6.5918754066e+02 stress_124
                     -6.5952783283e+02 stress_125
                     -5.5695157223e+02 stress_126
                     -3.0604590349e+02 stress_127
                      7.5600466776e-01 stress_128
                      2.1953020895e+02 stress_129
                      3.2854431550e+02 stress_130
                      3.7938284647e+02 stress_131
                      4.0421240064e+02 stress_132
                      4.1549282700e+02 stress_133
                      4.1612206651e+02 stress_134
                      1.1193383259e+01 stress_135
                     -1.0698650808e+01 stress_136
                      1.7442108147e+02 stress_137
                      1.3828097593e+02 stress_138
                     -3.4084524671e+01 stress_139
                     -3.2115085631e+02 stress_140
                     -5.3016198198e+02 stress_141
                     -6.1388418873e+02 stress_142
                     -6.4639219406e+02 stress_143
                     -6.6119499022e+02 stress_144
                     -6.6731205334e+02 stress_145
                     -6.4691125120e+02 stress_146
                     -4.0886724188e+02 stress_147
                     -5.8033426922e+01 stress_148
                      1.9415118021e+02 stress_149
                      3.0652385989e+02 stress_150
                      3.4810250534e+02 stress_151
                      3.5323679279e+02 stress_152
                      1.3678497206e+02 stress_153
                     -2.3161587256e+02 stress_154
                     -4.9352242363e+02 stress_155
                     -5.9036368774e+02 stress_156
                     -6.1740026668e+02 stress_157
                     -4.9467321099e+02 stress_158
                     -8.9605908939e+01 stress_159
                      9.3732862325e+01 stress_160
                     -7.3084863069e+01 stress_161
                     -4.6843140555e+02 stress_162
                     -6.2398640782e+02 stress_163
                     -6.3495270405e+02 stress_164
                     -5.9318950274e+02 stress_165
                     -5.1089953868e+02 stress_166
                     -3.9011219302e+02 stress_167
                     -2.3789694723e+02 stress_168
                     -7.1495566505e+01 stress_169
                      8.3393563160e+01 stress_170
                      2.0596488383e+02 stress_171
                      2.9174971487e+02 stress_172
                      3.4839891365e+02 stress_173
                      3.8592372883e+02 stress_174
                      4.1196970492e+02 stress_175
                      4.3135044685e+02 stress_176
                      4.4688300040e+02 stress_177
                      4.6017892663e+02 stress_178
                      4.7215456603e+02 stress_179
                      4.8333132598e+02 stress_180
                      4.9400320066e+02 stress_181
                      5.0432941039e+02 stress_182
                      5.1438963015e+02 stress_183
                      5.2421389749e+02 stress_184
                      5.3380226434e+02 stress_185
                      5.4313540117e+02 stress_186
                      5.5218213781e+02 stress_187
                      5.6090440780e+02 stress_188
                      5.6925957712e+02 stress_189
                      5.7720359565e+02 stress_190
                      5.8469216371e+02 stress_191
                      5.9168083608e+02 stress_192
                      5.9812874136e+02 stress_193
                      6.0399621875e+02 stress_194
                      6.0924605169e+02 stress_195
                      6.1384628451e+02 stress_196
                      6.1776681567e+02 stress_197
                      6.2098342737e+02 stress_198
                      6.2347557785e+02 stress_199
                      6.2522647993e+02 stress_200
                      6.2622549441e+02 stress_201
                      6.2627442787e+02 stress_202
                      2.6427868647e+02 stress_203
                     -7.9850646182e+01 stress_204
                      2.9076642601e+01 stress_205
                      4.6813555888e+02 stress_206
                      4.8731118928e+02 stress_207
                      4.2248379062e+02 stress_208
                      3.0537327067e+02 stress_209
                      1.4343555932e+02 stress_210
                     -3.9939481987e+01 stress_211
                     -2.0574681958e+02 stress_212
                     -3.2613884020e+02 stress_213
                     -4.0201290489e+02 stress_214
                     -4.4821552401e+02 stress_215
                     -4.7775757467e+02 stress_216
                     -4.9846956297e+02 stress_217
                     -5.1451855257e+02 stress_218
                     -5.2804522008e+02 stress_219
                     -5.4014170177e+02 stress_220
                     -5.5136032174e+02 stress_221
                     -5.6196845265e+02 stress_222
                     -5.7207989015e+02 stress_223
                     -5.8172297222e+02 stress_224
                     -5.9087899473e+02 stress_225
                     -5.9950264661e+02 stress_226
                     -6.0753478356e+02 stress_227
                     -6.1491159488e+02 stress_228
                     -6.2156630722e+02 stress_229
                     -6.2743715990e+02 stress_230
                     -6.3246674076e+02 stress_231
                     -6.3660302320e+02 stress_232
                     -6.3980512558e+02 stress_233
                     -6.4203949536e+02 stress_234
                     -6.4328179049e+02 stress_235
                     -6.3678906300e+02 stress_236
                     -2.7215833987e+02 stress_237
                      2.2923379353e+01 stress_238
                     -1.9716095144e+02 stress_239
                     -4.4717505307e+02 stress_240
                     -1.1620258298e+02 stress_241
                      6.0469851225e+01 stress_242
                     -2.7201827298e+02 stress_243
                     -3.9583374265e+02 stress_244
                     -5.0434377803e+02 stress_245
                     -3.1932635778e+02 stress_246
                      1.5248323079e+01 stress_247
                      2.7647085381e+02 stress_248
                      3.9078220497e+02 stress_249
                      4.3373353336e+02 stress_250
                      4.4612878377e+02 stress_251
                      3.4070583477e+02 stress_252
                      1.9134987625e+01 stress_253
                     -3.1469492641e+02 stress_254
                     -4.8449119293e+02 stress_255
                     -5.4592665883e+02 stress_256
                     -5.5825981512e+02 stress_257
                     -2.8096891926e+02 stress_258
                      9.8262359967e+01 stress_259
                      2.1641570480e+02 stress_260
                      1.7705098257e+00 stress_261
                     -3.6372933814e+02 stress_262
                     -5.2140060633e+02 stress_263
                     -5.4323637708e+02 stress_264
                     -5.0119083354e+02 stress_265
                     -4.0697211276e+02 stress_266
                     -2.6426831411e+02 stress_267
                     -8.6884287380e+01 stress_268
                      9.4319321538e+01 stress_269
                      2.4341264600e+02 stress_270
                      3.4569178228e+02 stress_271
                      4.0963896706e+02 stress_272
                      4.4958960620e+02 stress_273
                      4.7616159684e+02 stress_274
                      4.9552139521e+02 stress_275
                      5.1096802200e+02 stress_276
                      5.2423098816e+02 stress_277
                      5.3621102005e+02 stress_278
                      5.4737108427e+02 stress_279
                      5.5793776090e+02 stress_280
                      5.6800679816e+02 stress_281
                      5.7760021839e+02 stress_282
                      5.8669782254e+02 stress_283
                      5.9525659425e+02 stress_284
                      6.0322029998e+02 stress_285
                      6.1052844748e+02 stress_286
                      6.1711960436e+02 stress_287
                      6.2293397272e+02 stress_288
                      6.2791808182e+02 stress_289
                      6.3202413089e+02 stress_290
                      6.3521151077e+02 stress_291
                      6.3744947774e+02 stress_292
                      6.3871515724e+02 stress_293
                      6.3873384571e+02 stress_294
                      2.6486336423e+02 stress_295
                     -7.1506252712e+01 stress_296
                      5.9117953842e+01 stress_297
                      4.8358829939e+02 stress_298
                      4.9847075574e+02 stress_299
                      4.5495094826e+02 stress_300
                      3.7659882732e+02 stress_301
                      2.6521896039e+02 stress_302
                      1.2715291759e+02 stress_303
                     -2.3091530517e+01 stress_304
                     -1.6385043552e+02 stress_305
                     -2.7716004013e+02 stress_306
                     -3.5818381369e+02 stress_307
                     -4.1267622693e+02 stress_308
                     -4.4918145154e+02 stress_309
                     -4.7459205001e+02 stress_310
                     -4.9343199748e+02 stress_311
                     -5.0843202026e+02 stress_312
                     -5.2119049210e+02 stress_313
                     -5.3264013230e+02 stress_314
                     -5.4332525546e+02 stress_315
                     -5.5356279874e+02 stress_316
                     -5.6353525597e+02 stress_317
                     -5.7334300257e+02 stress_318
                     -5.8303578354e+02 stress_319
                     -5.9263166554e+02 stress_320
                     -6.0212770215e+02 stress_321
                     -6.1150805495e+02 stress_322
                     -6.2074763787e+02 stress_323
                     -6.2981605281e+02 stress_324
                     -6.3867974196e+02 stress_325
                     -6.4730208230e+02 stress_326
                     -6.5564669250e+02 stress_327
                     -6.6367532618e+02 stress_328
                     -6.7135195703e+02 stress_329
                     -6.7864067769e+02 stress_330
                     -6.8550634708e+02 stress_331
                     -6.9191655556e+02 stress_332
                     -6.9783972419e+02 stress_333
                     -7.0324727818e+02 stress_334
                     -7.0811326901e+02 stress_335
                     -7.1241229275e+02 stress_336
                     -7.1612447365e+02 stress_337
                     -7.1923084130e+02 stress_338
                     -7.2171585501e+02 stress_339
                     -7.2356767797e+02 stress_340
                     -7.2477686197e+02 stress_341
                     -7.2533717231e+02 stress_342


Active response data for evaluation 138:
Active set vector = { 1 1 1 1 1 1 1 1 1 1 1 1 1 1 1 1 1 1 1 1 1 1 1 1 1 1 1 1 1 1 1 1 1 1 1 1 1 1 1 1 1 1 1 1 1 1 1 1 1 1 1 1 1 1 1 1 1 1 1 1 1 1 1 1 1 1 1 1 1 1 1 1 1 1 1 1 1 1 1 1 1 1 1 1 1 1 1 1 1 1 1 1 1 1 1 1 1 1 1 1 1 1 1 1 1 1 1 1 1 1 1 1 1 1 1 1 1 1 1 1 1 1 1 1 1 1 1 1 1 1 1 1 1 1 1 1 1 1 1 1 1 1 1 1 1 1 1 1 1 1 1 1 1 1 1 1 1 1 1 1 1 1 1 1 1 1 1 1 1 1 1 1 1 1 1 1 1 1 1 1 1 1 1 1 1 1 1 1 1 1 1 1 1 1 1 1 1 1 1 1 1 1 1 1 1 1 1 1 1 1 1 1 1 1 1 1 1 1 1 1 1 1 1 1 1 1 1 1 1 1 1 1 1 1 1 1 1 1 1 1 1 1 1 1 1 1 1 1 1 1 1 1 1 1 1 1 1 1 1 1 1 1 1 1 1 1 1 1 1 1 1 1 1 1 1 1 1 1 1 1 1 1 1 1 1 1 1 1 1 1 1 1 1 1 1 1 1 1 1 1 1 1 1 1 1 1 1 1 1 1 1 1 1 1 1 1 1 1 1 1 1 1 1 1 1 1 1 1 1 1 1 1 1 1 1 1 1 1 1 1 1 1 }
                      2.4220149393e+00 stress_1
                     -2.5171558999e+02 stress_2
                     -4.9424598365e+02 stress_3
                     -4.9576574337e+02 stress_4
                     -1.6684276421e+02 stress_5
                      2.5284059932e+02 stress_6
                      4.0080828246e+02 stress_7
                      4.0167752147e+02 stress_8
                      1.5202622997e+02 stress_9
                     -2.3145263300e+02 stress_10
                     -4.3958965502e+02 stress_11
                     -4.8901394261e+02 stress_12
                     -5.0300350956e+02 stress_13
                     -5.0400202540e+02 stress_14
                     -1.7334695442e+02 stress_15
                     -3.4131077218e+02 stress_16
                     -5.0978279309e+02 stress_17
                     -3.1499985569e+02 stress_18
                      2.1062219022e+01 stress_19
                      2.9755401709e+02 stress_20
                      4.1769335964e+02 stress_21
                      4.6289268572e+02 stress_22
                      4.8159655894e+02 stress_23
                      4.8776823815e+02 stress_24
                      1.5719359830e+02 stress_25
                      2.8530607863e+02 stress_26
                      4.2917078583e+02 stress_27
                      4.6493789287e+02 stress_28
                      3.4207163420e+02 stress_29
                      1.2856444840e+02 stress_30
                     -1.2462270825e+02 stress_31
                     -3.1974169765e+02 stress_32
                     -4.2361604376e+02 stress_33
                     -4.7365903166e+02 stress_34
                     -5.0080710289e+02 stress_35
                     -5.1841744760e+02 stress_36
                     -5.3149400073e+02 stress_37
                     -5.4185765557e+02 stress_38
                     -5.5012667133e+02 stress_39
                     -5.5645243288e+02 stress_40
                     -5.6082430565e+02 stress_41
                     -5.6318498560e+02 stress_42
                     -5.4771818598e+02 stress_43
                     -1.6092386628e+02 stress_44
                      1.0547502524e+02 stress_45
                     -1.0072999595e+02 stress_46
                     -4.5360893282e+02 stress_47
                     -1.5731533816e+02 stress_48
                     -2.6025142700e+02 stress_49
                     -4.2002960752e+02 stress_50
                     -5.6861505476e+02 stress_51
                     -3.9866027608e+02 stress_52
                     -6.1532750900e+01 stress_53
                      2.2524650844e+02 stress_54
                      3.5704388921e+02 stress_55
                      4.0681549086e+02 stress_56
                      4.2196518795e+02 stress_57
                      3.3559698543e+02 stress_58
                      2.0970201454e+01 stress_59
                     -3.1561325434e+02 stress_60
                     -4.7075946265e+02 stress_61
                     -5.2075675329e+02 stress_62
                     -5.3181141334e+02 stress_63
                     -2.6342674421e+02 stress_64
                      1.1290950064e+02 stress_65
                      1.9963859743e+02 stress_66
                     -7.2654359278e+01 stress_67
                     -4.4059784022e+02 stress_68
                     -5.3458819202e+02 stress_69
                     -5.3566775933e+02 stress_70
                     -4.4027252213e+02 stress_71
                     -2.6810741993e+02 stress_72
                     -4.5031726925e+01 stress_73
                      1.6598936398e+02 stress_74
                      3.1019215845e+02 stress_75
                      3.9098764286e+02 stress_76
                      4.3546862186e+02 stress_77
                      4.6250353842e+02 stress_78
                      4.8127170780e+02 stress_79
                      4.9583683842e+02 stress_80
                      5.0795977062e+02 stress_81
                      5.1837935086e+02 stress_82
                      5.2737092655e+02 stress_83
                      5.3499895825e+02 stress_84
                      5.4123186971e+02 stress_85
                      5.4600562007e+02 stress_86
                      5.4925347598e+02 stress_87
                      5.5092024908e+02 stress_88
                      4.7719329629e+02 stress_89
                      4.4080663808e+01 stress_90
                     -1.5850088503e+02 stress_91
                      1.3171647776e+02 stress_92
                      4.7812859547e+02 stress_93
                      4.8443448785e+02 stress_94
                      4.2423037402e+02 stress_95
                      3.1607335959e+02 stress_96
                      1.6551327941e+02 stress_97
                     -9.6750140393e+00 stress_98
                     -1.7641024086e+02 stress_99
                     -3.0490732907e+02 stress_100
                     -3.8956043005e+02 stress_101
                     -4.4195982306e+02 stress_102
                     -4.7514647459e+02 stress_103
                     -4.9781677868e+02 stress_104
                     -5.1484150425e+02 stress_105
                     -5.2880621990e+02 stress_106
                     -5.4106498222e+02 stress_107
                     -5.5232466113e+02 stress_108
                     -5.6294803460e+02 stress_109
                     -5.7311092809e+02 stress_110
                     -5.8288430648e+02 stress_111
                     -5.9227858255e+02 stress_112
                     -6.0127092437e+02 stress_113
                     -6.0981892585e+02 stress_114
                     -6.1786922830e+02 stress_115
                     -6.2536405540e+02 stress_116
                     -6.3224392151e+02 stress_117
                     -6.3845264878e+02 stress_118
                     -6.4393691762e+02 stress_119
                     -6.4864717008e+02 stress_120
                     -6.5254225944e+02 stress_121
                     -6.5558629571e+02 stress_122
                     -6.5775094483e+02 stress_123
                     -6.5901704651e+02 stress_124
                     -6.5935714505e+02 stress_125
                     -5.5678449742e+02 stress_126
                     -3.0605270487e+02 stress_127
                     -1.8114070472e-02 stress_128
                      2.1822079448e+02 stress_129
                      3.2736509823e+02 stress_130
                      3.7846725603e+02 stress_131
                      4.0348059152e+02 stress_132
                      4.1485308402e+02 stress_133
                      4.1548754715e+02 stress_134
                      1.0768766561e+01 stress_135
                     -1.1085701794e+01 stress_136
                      1.7391783859e+02 stress_137
                      1.3777782857e+02 stress_138
                     -3.4544313773e+01 stress_139
                     -3.2102415158e+02 stress_140
                     -5.2938919962e+02 stress_141
                     -6.1318587820e+02 stress_142
                     -6.4585796683e+02 stress_143
                     -6.6075337050e+02 stress_144
                     -6.6690761058e+02 stress_145
                     -6.4650682434e+02 stress_146
                     -4.0853192597e+02 stress_147
                     -5.8433530039e+01 stress_148
                      1.9299340346e+02 stress_149
                      3.0535227243e+02 stress_150
                      3.4706033200e+02 stress_151
                      3.5221738832e+02 stress_152
                      1.3578603501e+02 stress_153
                     -2.3202701704e+02 stress_154
                     -4.9297875183e+02 stress_155
                     -5.8966208226e+02 stress_156
                     -6.1673009173e+02 stress_157
                     -4.9401027734e+02 stress_158
                     -8.9557482996e+01 stress_159
                      9.3138840454e+01 stress_160
                     -7.3676086639e+01 stress_161
                     -4.6850797821e+02 stress_162
                     -6.2361388108e+02 stress_163
                     -6.3457560408e+02 stress_164
                     -5.9281259714e+02 stress_165
                     -5.1052960457e+02 stress_166
                     -3.8979741277e+02 stress_167
                     -2.3778599262e+02 stress_168
                     -7.1810066959e+01 stress_169
                      8.2570531956e+01 stress_170
                      2.0482592796e+02 stress_171
                      2.9058247790e+02 stress_172
                      3.4738298149e+02 stress_173
                      3.8511165899e+02 stress_174
                      4.1134672407e+02 stress_175
                      4.3088054110e+02 stress_176
                      4.4652974167e+02 stress_177
                      4.5991202533e+02 stress_178
                      4.7195062466e+02 stress_179
                      4.8317281048e+02 stress_180
                      4.9387711332e+02 stress_181
                      5.0422613025e+02 stress_182
                      5.1430202130e+02 stress_183
                      5.2413664930e+02 stress_184
                      5.3373141579e+02 stress_185
                      5.4306799805e+02 stress_186
                      5.5211598609e+02 stress_187
                      5.6083789463e+02 stress_188
                      5.6919153998e+02 stress_189
                      5.7713322536e+02 stress_190
                      5.8461893169e+02 stress_191
                      5.9160443952e+02 stress_192
                      5.9804905960e+02 stress_193
                      6.0391328013e+02 stress_194
                      6.0916000684e+02 stress_195
                      6.1375738304e+02 stress_196
                      6.1767538867e+02 stress_197
                      6.2088987021e+02 stress_198
                      6.2338033637e+02 stress_199
                      6.2513003818e+02 stress_200
                      6.2612836177e+02 stress_201
                      6.2617726128e+02 stress_202
                      2.6436448084e+02 stress_203
                     -7.8881810846e+01 stress_204
                      3.0045470624e+01 stress_205
                      4.6868978593e+02 stress_206
                      4.8777643575e+02 stress_207
                      4.2295004683e+02 stress_208
                      3.0586657773e+02 stress_209
                      1.4409079994e+02 stress_210
                     -3.8886829598e+01 stress_211
                     -2.0428525474e+02 stress_212
                     -3.2460221088e+02 stress_213
                     -4.0069884408e+02 stress_214
                     -4.4720512921e+02 stress_215
                     -4.7701096996e+02 stress_216
                     -4.9791989569e+02 stress_217
                     -5.1410760393e+02 stress_218
                     -5.2772985227e+02 stress_219
                     -5.3989163575e+02 stress_220
                     -5.5115463786e+02 stress_221
                     -5.6179269910e+02 stress_222
                     -5.7192403072e+02 stress_223
                     -5.8157999693e+02 stress_224
                     -5.9074399426e+02 stress_225
                     -5.9937219218e+02 stress_226
                     -6.0740650821e+02 stress_227
                     -6.1478390612e+02 stress_228
                     -6.2143818546e+02 stress_229
                     -6.2730801450e+02 stress_230
                     -6.3233630386e+02 stress_231
                     -6.3647126996e+02 stress_232
                     -6.3967221028e+02 stress_233
                     -6.4190570052e+02 stress_234
                     -6.4314748344e+02 stress_235
                     -6.3665475624e+02 stress_236
                     -2.7221301339e+02 stress_237
                      2.2141599747e+01 stress_238
                     -1.9783657018e+02 stress_239
                     -4.4703388760e+02 stress_240
                     -1.1625729563e+02 stress_241
                      5.9984274872e+01 stress_242
                     -2.7219237460e+02 stress_243
                     -3.9559294738e+02 stress_244
                     -5.0372315834e+02 stress_245
                     -3.1873652524e+02 stress_246
                      1.5212157159e+01 stress_247
                      2.7555713373e+02 stress_248
                      3.8982751553e+02 stress_249
                      4.3293136215e+02 stress_250
                      4.4539350417e+02 stress_251
                      3.3997389482e+02 stress_252
                      1.8701432813e+01 stress_253
                     -3.1404761293e+02 stress_254
                     -4.8340597026e+02 stress_255
                     -5.4488494380e+02 stress_256
                     -5.5725001621e+02 stress_257
                     -2.8005813005e+02 stress_258
                      9.8137328973e+01 stress_259
                      2.1582275257e+02 stress_260
                      1.2329358901e+00 stress_261
                     -3.6333266223e+02 stress_262
                     -5.2054936234e+02 stress_263
                     -5.4237647425e+02 stress_264
                     -5.0033114859e+02 stress_265
                     -4.0612294598e+02 stress_266
                     -2.6351225653e+02 stress_267
                     -8.6469178112e+01 stress_268
                      9.4116155955e+01 stress_269
                      2.4265790968e+02 stress_270
                      3.4474007097e+02 stress_271
                      4.0876334005e+02 stress_272
                      4.4888379064e+02 stress_273
                      4.7562146932e+02 stress_274
                      4.9511340557e+02 stress_275
                      5.1065751859e+02 stress_276
                      5.2398997390e+02 stress_277
                      5.3601864685e+02 stress_278
                      5.4721229088e+02 stress_279
                      5.5780177472e+02 stress_280
                      5.6788593073e+02 stress_281
                      5.7748898588e+02 stress_282
                      5.8659232507e+02 stress_283
                      5.9515408277e+02 stress_284
                      6.0311887195e+02 stress_285
                      6.1042683181e+02 stress_286
                      6.1701700625e+02 stress_287
                      6.2282996009e+02 stress_288
                      6.2781249938e+02 stress_289
                      6.3191703397e+02 stress_290
                      6.3510311250e+02 stress_291
                      6.3734010455e+02 stress_292
                      6.3860521140e+02 stress_293
                      6.3862389130e+02 stress_294
                      2.6495037260e+02 stress_295
                     -7.0548248841e+01 stress_296
                      6.0075898106e+01 stress_297
                      4.8404211259e+02 stress_298
                      4.9885139027e+02 stress_299
                      4.5533184586e+02 stress_300
                      3.7698719834e+02 stress_301
                      2.6565903120e+02 stress_302
                      1.2776725823e+02 stress_303
                     -2.2138389646e+01 stress_304
                     -1.6252264513e+02 stress_305
                     -2.7564329965e+02 stress_306
                     -3.5672976310e+02 stress_307
                     -4.1143478583e+02 stress_308
                     -4.4818696351e+02 stress_309
                     -4.7381798523e+02 stress_310
                     -4.9283405293e+02 stress_311
                     -5.0796774238e+02 stress_312
                     -5.2082517714e+02 stress_313
                     -5.3234717548e+02 stress_314
                     -5.4308478240e+02 stress_315
                     -5.5336008611e+02 stress_316
                     -5.6335939569e+02 stress_317
                     -5.7318587720e+02 stress_318
                     -5.8289131655e+02 stress_319
                     -5.9249528134e+02 stress_320
                     -6.0199593832e+02 stress_321
                     -6.1137828458e+02 stress_322
                     -6.2061786858e+02 stress_323
                     -6.2968478090e+02 stress_324
                     -6.3854584489e+02 stress_325
                     -6.4716473940e+02 stress_326
                     -6.5550532474e+02 stress_327
                     -6.6352955155e+02 stress_328
                     -6.7120155471e+02 stress_329
                     -6.7848556110e+02 stress_330
                     -6.8534654264e+02 stress_331
                     -6.9175218450e+02 stress_332
                     -6.9767098899e+02 stress_333
                     -7.0307444997e+02 stress_334
                     -7.0793667712e+02 stress_335
                     -7.1223231740e+02 stress_336
                     -7.1594153584e+02 stress_337
                     -7.1904539716e+02 stress_338
                     -7.2152838884e+02 stress_339
                     -7.2337869556e+02 stress_340
                     -7.2458688528e+02 stress_341
                     -7.2514673378e+02 stress_342


Active response data for evaluation 139:
Active set vector = { 1 1 1 1 1 1 1 1 1 1 1 1 1 1 1 1 1 1 1 1 1 1 1 1 1 1 1 1 1 1 1 1 1 1 1 1 1 1 1 1 1 1 1 1 1 1 1 1 1 1 1 1 1 1 1 1 1 1 1 1 1 1 1 1 1 1 1 1 1 1 1 1 1 1 1 1 1 1 1 1 1 1 1 1 1 1 1 1 1 1 1 1 1 1 1 1 1 1 1 1 1 1 1 1 1 1 1 1 1 1 1 1 1 1 1 1 1 1 1 1 1 1 1 1 1 1 1 1 1 1 1 1 1 1 1 1 1 1 1 1 1 1 1 1 1 1 1 1 1 1 1 1 1 1 1 1 1 1 1 1 1 1 1 1 1 1 1 1 1 1 1 1 1 1 1 1 1 1 1 1 1 1 1 1 1 1 1 1 1 1 1 1 1 1 1 1 1 1 1 1 1 1 1 1 1 1 1 1 1 1 1 1 1 1 1 1 1 1 1 1 1 1 1 1 1 1 1 1 1 1 1 1 1 1 1 1 1 1 1 1 1 1 1 1 1 1 1 1 1 1 1 1 1 1 1 1 1 1 1 1 1 1 1 1 1 1 1 1 1 1 1 1 1 1 1 1 1 1 1 1 1 1 1 1 1 1 1 1 1 1 1 1 1 1 1 1 1 1 1 1 1 1 1 1 1 1 1 1 1 1 1 1 1 1 1 1 1 1 1 1 1 1 1 1 1 1 1 1 1 1 1 1 1 1 1 1 1 1 1 1 1 1 }
                      2.4220149393e+00 stress_1
                     -2.5171559371e+02 stress_2
                     -4.9424631636e+02 stress_3
                     -4.9576582726e+02 stress_4
                     -1.6682066157e+02 stress_5
                      2.5333312645e+02 stress_6
                      4.0139942739e+02 stress_7
                      4.0226758706e+02 stress_8
                      1.5260543894e+02 stress_9
                     -2.3137912356e+02 stress_10
                     -4.3996801298e+02 stress_11
                     -4.8924415300e+02 stress_12
                     -5.0315442152e+02 stress_13
                     -5.0414723973e+02 stress_14
                     -1.7339033975e+02 stress_15
                     -3.4135416077e+02 stress_16
                     -5.0981929530e+02 stress_17
                     -3.1501978678e+02 stress_18
                      2.1460281612e+01 stress_19
                      2.9858901209e+02 stress_20
                      4.1858260459e+02 stress_21
                      4.6351914353e+02 stress_22
                      4.8207805298e+02 stress_23
                      4.8820008029e+02 stress_24
                      1.5750037101e+02 stress_25
                      2.8561285332e+02 stress_26
                      4.2948965410e+02 stress_27
                      4.6526886844e+02 stress_28
                      3.4239798711e+02 stress_29
                      1.2875784580e+02 stress_30
                     -1.2500729741e+02 stress_31
                     -3.2065534456e+02 stress_32
                     -4.2447745815e+02 stress_33
                     -4.7427586899e+02 stress_34
                     -5.0122640745e+02 stress_35
                     -5.1870911061e+02 stress_36
                     -5.3170655096e+02 stress_37
                     -5.4202096451e+02 stress_38
                     -5.5025903848e+02 stress_39
                     -5.5656549890e+02 stress_40
                     -5.6092594003e+02 stress_41
                     -5.6328102345e+02 stress_42
                     -5.4781421855e+02 stress_43
                     -1.6075552488e+02 stress_44
                      1.0636814415e+02 stress_45
                     -9.9837525095e+01 stress_46
                     -4.5324017118e+02 stress_47
                     -1.5682110676e+02 stress_48
                     -2.5975721496e+02 stress_49
                     -4.1956642224e+02 stress_50
                     -5.6865474669e+02 stress_51
                     -3.9868209156e+02 stress_52
                     -6.1075202309e+01 stress_53
                      2.2649910815e+02 stress_54
                      3.5827233085e+02 stress_55
                      4.0782569327e+02 stress_56
                      4.2287720623e+02 stress_57
                      3.3650808196e+02 stress_58
                      2.1672204268e+01 stress_59
                     -3.1593331895e+02 stress_60
                     -4.7143482223e+02 stress_61
                     -5.2134884983e+02 stress_62
                     -5.3236175699e+02 stress_63
                     -2.6389158947e+02 stress_64
                      1.1339198111e+02 stress_65
                      2.0042119491e+02 stress_66
                     -7.1905863117e+01 stress_67
                     -4.4068899681e+02 stress_68
                     -5.3487670406e+02 stress_69
                     -5.3595570944e+02 stress_70
                     -4.4055754942e+02 stress_71
                     -2.6831198869e+02 stress_72
                     -4.4819928666e+01 stress_73
                      1.6686884692e+02 stress_74
                      3.1134693676e+02 stress_75
                      3.9199144870e+02 stress_76
                      4.3621970160e+02 stress_77
                      4.6304572531e+02 stress_78
                      4.8166692066e+02 stress_79
                      4.9613279549e+02 stress_80
                      5.0818881765e+02 stress_81
                      5.1856281294e+02 stress_82
                      5.2752296906e+02 stress_83
                      5.3512920822e+02 stress_84
                      5.4134709641e+02 stress_85
                      5.4611078916e+02 stress_86
                      5.4935243659e+02 stress_87
                      5.5101620651e+02 stress_88
                      4.7728807618e+02 stress_89
                      4.3673370486e+01 stress_90
                     -1.5952101541e+02 stress_91
                      1.3070866955e+02 stress_92
                      4.7806120034e+02 stress_93
                      4.8440234518e+02 stress_94
                      4.2419754204e+02 stress_95
                      3.1602080080e+02 stress_96
                      1.6533214764e+02 stress_97
                     -1.0220545949e+01 stress_98
                     -1.7744715947e+02 stress_99
                     -3.0620982794e+02 stress_100
                     -3.9079899252e+02 stress_101
                     -4.4297381268e+02 stress_102
                     -4.7592357061e+02 stress_103
                     -4.9839990167e+02 stress_104
                     -5.1527953474e+02 stress_105
                     -5.2913902435e+02 stress_106
                     -5.4132189347e+02 stress_107
                     -5.5252651176e+02 stress_108
                     -5.6310949997e+02 stress_109
                     -5.7324238851e+02 stress_110
                     -5.8299317899e+02 stress_111
                     -5.9237023670e+02 stress_112
                     -6.0134930074e+02 stress_113
                     -6.0988695912e+02 stress_114
                     -6.1792913729e+02 stress_115
                     -6.2541754306e+02 stress_116
                     -6.3229231599e+02 stress_117
                     -6.3849700211e+02 stress_118
                     -6.4397807838e+02 stress_119
                     -6.4868583691e+02 stress_120
                     -6.5257901923e+02 stress_121
                     -6.5562165473e+02 stress_122
                     -6.5778535240e+02 stress_123
                     -6.5905091398e+02 stress_124
                     -6.5939086945e+02 stress_125
                     -5.5681459994e+02 stress_126
                     -3.0590855986e+02 stress_127
                      8.9418400408e-01 stress_128
                      2.1966548241e+02 stress_129
                      3.2867233534e+02 stress_130
                      3.7950290921e+02 stress_131
                      4.0432604627e+02 stress_132
                      4.1560265820e+02 stress_133
                      4.1623166458e+02 stress_134
                      1.1300015616e+01 stress_135
                     -1.0592531114e+01 stress_136
                      1.7452760572e+02 stress_137
                      1.3838749876e+02 stress_138
                     -3.3978617014e+01 stress_139
                     -3.2105212919e+02 stress_140
                     -5.3006515225e+02 stress_141
                     -6.1377586979e+02 stress_142
                     -6.4627240062e+02 stress_143
                     -6.6106726604e+02 stress_144
                     -6.6718041657e+02 stress_145
                     -6.4677961439e+02 stress_146
                     -4.0873542412e+02 stress_147
                     -5.7900015510e+01 stress_148
                      1.9428392985e+02 stress_149
                      3.0665177404e+02 stress_150
                      3.4822618987e+02 stress_151
                      3.5335978054e+02 stress_152
                      1.3690745022e+02 stress_153
                     -2.3150627601e+02 stress_154
                     -4.9342520053e+02 stress_155
                     -5.9025795969e+02 stress_156
                     -6.1728806655e+02 stress_157
                     -4.9456098445e+02 stress_158
                     -8.9490867565e+01 stress_159
                      9.3851375011e+01 stress_160
                     -7.2966510828e+01 stress_161
                     -4.6833457056e+02 stress_162
                     -6.2388588868e+02 stress_163
                     -6.3484840849e+02 stress_164
                     -5.9308520644e+02 stress_165
                     -5.1079521250e+02 stress_166
                     -3.9000759770e+02 stress_167
                     -2.3779118910e+02 stress_168
                     -7.1386860687e+01 stress_169
                      8.3506795554e+01 stress_170
                      2.0608216845e+02 stress_171
                      2.9186852981e+02 stress_172
                      3.4851627313e+02 stress_173
                      3.8603722604e+02 stress_174
                      4.1207765835e+02 stress_175
                      4.3145171519e+02 stress_176
                      4.4697679251e+02 stress_177
                      4.6026467528e+02 stress_178
                      4.7223185646e+02 stress_179
                      4.8339985604e+02 stress_180
                      4.9406275880e+02 stress_181
                      5.0437986469e+02 stress_182
                      5.1443092098e+02 stress_183
                      5.2424603408e+02 stress_184
                      5.3382532160e+02 stress_185
                      5.4314951791e+02 stress_186
                      5.5218751480e+02 stress_187
                      5.6090130545e+02 stress_188
                      5.6924831392e+02 stress_189
                      5.7718454526e+02 stress_190
                      5.8466575224e+02 stress_191
                      5.9164754013e+02 stress_192
                      5.9808908291e+02 stress_193
                      6.0395076285e+02 stress_194
                      6.0919540319e+02 stress_195
                      6.1379108216e+02 stress_196
                      6.1770772981e+02 stress_197
                      6.2092115369e+02 stress_198
                      6.2341083341e+02 stress_199
                      6.2515999916e+02 stress_200
                      6.2615802277e+02 stress_201
                      6.2620690770e+02 stress_202
                      2.6421087470e+02 stress_203
                     -7.9918793206e+01 stress_204
                      2.9008495976e+01 stress_205
                      4.6808503275e+02 stress_206
                      4.8726378500e+02 stress_207
                      4.2243638331e+02 stress_208
                      3.0532577155e+02 stress_209
                      1.4338741897e+02 stress_210
                     -3.9989551759e+01 stress_211
                     -2.0579951656e+02 stress_212
                     -3.2619246977e+02 stress_213
                     -4.0206439088e+02 stress_214
                     -4.4826223001e+02 stress_215
                     -4.7779775164e+02 stress_216
                     -4.9850210903e+02 stress_217
                     -5.1454275779e+02 stress_218
                     -5.2806062051e+02 stress_219
                     -5.4014800832e+02 stress_220
                     -5.5135738588e+02 stress_221
                     -5.6195625030e+02 stress_222
                     -5.7205851272e+02 stress_223
                     -5.8169262130e+02 stress_224
                     -5.9083997689e+02 stress_225
                     -5.9945536884e+02 stress_226
                     -6.0747974811e+02 stress_227
                     -6.1484939202e+02 stress_228
                     -6.2149761039e+02 stress_229
                     -6.2736271575e+02 stress_230
                     -6.3238736129e+02 stress_231
                     -6.3651957801e+02 stress_232
                     -6.3971852904e+02 stress_233
                     -6.4195069802e+02 stress_234
                     -6.4319176891e+02 stress_235
                     -6.3669904142e+02 stress_236
                     -2.7206788879e+02 stress_237
                      2.3014788298e+01 stress_238
                     -1.9707042824e+02 stress_239
                     -4.4708962798e+02 stress_240
                     -1.1611661224e+02 stress_241
                      6.0556873379e+01 stress_242
                     -2.7193359908e+02 stress_243
                     -3.9575131595e+02 stress_244
                     -5.0426112887e+02 stress_245
                     -3.1924361378e+02 stress_246
                      1.5333000181e+01 stress_247
                      2.7655691700e+02 stress_248
                      3.9086401505e+02 stress_249
                      4.3381021127e+02 stress_250
                      4.4620314022e+02 stress_251
                      3.4078016857e+02 stress_252
                      1.9207486873e+01 stress_253
                     -3.1462685620e+02 stress_254
                     -4.8441936097e+02 stress_255
                     -5.4584876662e+02 stress_256
                     -5.5818003867e+02 stress_257
                     -2.8088885494e+02 stress_258
                      9.8344971532e+01 stress_259
                      2.1649867500e+02 stress_260
                      1.8530533759e+00 stress_261
                     -3.6365189461e+02 stress_262
                     -5.2132025144e+02 stress_263
                     -5.4315423824e+02 stress_264
                     -5.0110869405e+02 stress_265
                     -4.0688994174e+02 stress_266
                     -2.6418586165e+02 stress_267
                     -8.6800816951e+01 stress_268
                      9.4404446042e+01 stress_269
                      2.4349835851e+02 stress_270
                      3.4577536494e+02 stress_271
                      4.0971776695e+02 stress_272
                      4.4966183415e+02 stress_273
                      4.7622616143e+02 stress_274
                      4.9557760921e+02 stress_275
                      5.1101543071e+02 stress_276
                      5.2426929002e+02 stress_277
                      5.3624003490e+02 stress_278
                      5.4739074071e+02 stress_279
                      5.5794809124e+02 stress_280
                      5.6800793593e+02 stress_281
                      5.7759239618e+02 stress_282
                      5.8668136965e+02 stress_283
                      5.9523193257e+02 stress_284
                      6.0318794049e+02 stress_285
                      6.1048898388e+02 stress_286
                      6.1707370708e+02 stress_287
                      6.2288238261e+02 stress_288
                      6.2786160074e+02 stress_289
                      6.3196361378e+02 stress_290
                      6.3514785688e+02 stress_291
                      6.3738361960e+02 stress_292
                      6.3864805187e+02 stress_293
                      6.3866672192e+02 stress_294
                      2.6479592707e+02 stress_295
                     -7.1574045700e+01 stress_296
                      5.9050164353e+01 stress_297
                      4.8354256309e+02 stress_298
                      4.9842749902e+02 stress_299
                      4.5490769073e+02 stress_300
                      3.7655554416e+02 stress_301
                      2.6517547580e+02 stress_302
                      1.2710863943e+02 stress_303
                     -2.3137690251e+01 stress_304
                     -1.6389931386e+02 stress_305
                     -2.7721108548e+02 stress_306
                     -3.5823510616e+02 stress_307
                     -4.1272550829e+02 stress_308
                     -4.4922684748e+02 stress_309
                     -4.7463219873e+02 stress_310
                     -4.9346593157e+02 stress_311
                     -5.0845903163e+02 stress_312
                     -5.2121004070e+02 stress_313
                     -5.3265179109e+02 stress_314
                     -5.4332868033e+02 stress_315
                     -5.5355771242e+02 stress_316
                     -5.6352143889e+02 stress_317
                     -5.7332028836e+02 stress_318
                     -5.8300405644e+02 stress_319
                     -5.9259085871e+02 stress_320
                     -6.0207779714e+02 stress_321
                     -6.1144908066e+02 stress_322
                     -6.2067967039e+02 stress_323
                     -6.2973921444e+02 stress_324
                     -6.3859420001e+02 stress_325
                     -6.4720804907e+02 stress_326
                     -6.5554442292e+02 stress_327
                     -6.6356511807e+02 stress_328
                     -6.7123414780e+02 stress_329
                     -6.7851564335e+02 stress_330
                     -6.8537450086e+02 stress_331
                     -6.9177834472e+02 stress_332
                     -6.9769562884e+02 stress_333
                     -7.0309780799e+02 stress_334
                     -7.0795896036e+02 stress_335
                     -7.1225370805e+02 stress_336
                     -7.1596219566e+02 stress_337
                     -7.1906547214e+02 stress_338
                     -7.2154801259e+02 stress_339
                     -7.2339799228e+02 stress_340
                     -7.2460597258e+02 stress_341
                     -7.2516572512e+02 stress_342


Active response data for evaluation 140:
Active set vector = { 1 1 1 1 1 1 1 1 1 1 1 1 1 1 1 1 1 1 1 1 1 1 1 1 1 1 1 1 1 1 1 1 1 1 1 1 1 1 1 1 1 1 1 1 1 1 1 1 1 1 1 1 1 1 1 1 1 1 1 1 1 1 1 1 1 1 1 1 1 1 1 1 1 1 1 1 1 1 1 1 1 1 1 1 1 1 1 1 1 1 1 1 1 1 1 1 1 1 1 1 1 1 1 1 1 1 1 1 1 1 1 1 1 1 1 1 1 1 1 1 1 1 1 1 1 1 1 1 1 1 1 1 1 1 1 1 1 1 1 1 1 1 1 1 1 1 1 1 1 1 1 1 1 1 1 1 1 1 1 1 1 1 1 1 1 1 1 1 1 1 1 1 1 1 1 1 1 1 1 1 1 1 1 1 1 1 1 1 1 1 1 1 1 1 1 1 1 1 1 1 1 1 1 1 1 1 1 1 1 1 1 1 1 1 1 1 1 1 1 1 1 1 1 1 1 1 1 1 1 1 1 1 1 1 1 1 1 1 1 1 1 1 1 1 1 1 1 1 1 1 1 1 1 1 1 1 1 1 1 1 1 1 1 1 1 1 1 1 1 1 1 1 1 1 1 1 1 1 1 1 1 1 1 1 1 1 1 1 1 1 1 1 1 1 1 1 1 1 1 1 1 1 1 1 1 1 1 1 1 1 1 1 1 1 1 1 1 1 1 1 1 1 1 1 1 1 1 1 1 1 1 1 1 1 1 1 1 1 1 1 1 1 }
                      2.4220149393e+00 stress_1
                     -2.5171559076e+02 stress_2
                     -4.9425545393e+02 stress_3
                     -4.9577519868e+02 stress_4
                     -1.6683162210e+02 stress_5
                      2.5328972240e+02 stress_6
                      4.0135208184e+02 stress_7
                      4.0222034810e+02 stress_8
                      1.5255900335e+02 stress_9
                     -2.3138870837e+02 stress_10
                     -4.3994821310e+02 stress_11
                     -4.8923758618e+02 stress_12
                     -5.0315434022e+02 stress_13
                     -5.0414761842e+02 stress_14
                     -1.7339301481e+02 stress_15
                     -3.4135683463e+02 stress_16
                     -5.0982371367e+02 stress_17
                     -3.1502456949e+02 stress_18
                      2.1446443373e+01 stress_19
                      2.9856250529e+02 stress_20
                      4.1856100951e+02 stress_21
                      4.6350420360e+02 stress_22
                      4.8206665845e+02 stress_23
                      4.8818988691e+02 stress_24
                      1.5749206403e+02 stress_25
                      2.8560454618e+02 stress_26
                      4.2948003938e+02 stress_27
                      4.6525659900e+02 stress_28
                      3.4238579160e+02 stress_29
                      1.2874770502e+02 stress_30
                     -1.2500925430e+02 stress_31
                     -3.2065216266e+02 stress_32
                     -4.2447867882e+02 stress_33
                     -4.7428319716e+02 stress_34
                     -5.0123803455e+02 stress_35
                     -5.1872336813e+02 stress_36
                     -5.3172239191e+02 stress_37
                     -5.4203777356e+02 stress_38
                     -5.5027644877e+02 stress_39
                     -5.5658328133e+02 stress_40
                     -5.6094394176e+02 stress_41
                     -5.6329913223e+02 stress_42
                     -5.4783232736e+02 stress_43
                     -1.6077479754e+02 stress_44
                      1.0634730745e+02 stress_45
                     -9.9858334673e+01 stress_46
                     -4.5324642625e+02 stress_47
                     -1.5682815390e+02 stress_48
                     -2.5976426149e+02 stress_49
                     -4.1957288167e+02 stress_50
                     -5.6867595742e+02 stress_51
                     -3.9870339246e+02 stress_52
                     -6.1098145630e+01 stress_53
                      2.2647744096e+02 stress_54
                      3.5825673516e+02 stress_55
                      4.0781420559e+02 stress_56
                      4.2286718206e+02 stress_57
                      3.3649807629e+02 stress_58
                      2.1665808579e+01 stress_59
                     -3.1592888015e+02 stress_60
                     -4.7143782119e+02 stress_61
                     -5.2136032316e+02 stress_62
                     -5.3237565995e+02 stress_63
                     -2.6390594291e+02 stress_64
                      1.1337445347e+02 stress_65
                      2.0040366260e+02 stress_66
                     -7.1921825964e+01 stress_67
                     -4.4068052475e+02 stress_68
                     -5.3487866448e+02 stress_69
                     -5.3595800281e+02 stress_70
                     -4.4055986110e+02 stress_71
                     -2.6831479742e+02 stress_72
                     -4.4825218408e+01 stress_73
                      1.6685995908e+02 stress_74
                      3.1133732766e+02 stress_75
                      3.9198367955e+02 stress_76
                      4.3621409342e+02 stress_77
                      4.6304176147e+02 stress_78
                      4.8166407097e+02 stress_79
                      4.9613068205e+02 stress_80
                      5.0818719357e+02 stress_81
                      5.1856151900e+02 stress_82
                      5.2752190105e+02 stress_83
                      5.3512829611e+02 stress_84
                      5.4134629135e+02 stress_85
                      5.4611005557e+02 stress_86
                      5.4935174704e+02 stress_87
                      5.5101553823e+02 stress_88
                      4.7728741134e+02 stress_89
                      4.3672343705e+01 stress_90
                     -1.5952596853e+02 stress_91
                      1.3070310226e+02 stress_92
                      4.7802663927e+02 stress_93
                      4.8436760494e+02 stress_94
                      4.2416280501e+02 stress_95
                      3.1598615306e+02 stress_96
                      1.6529805317e+02 stress_97
                     -1.0253221761e+01 stress_98
                     -1.7747836726e+02 stress_99
                     -3.0624111788e+02 stress_100
                     -3.9083192125e+02 stress_101
                     -4.4300881641e+02 stress_102
                     -4.7596036667e+02 stress_103
                     -4.9843804051e+02 stress_104
                     -5.1531862811e+02 stress_105
                     -5.2917878734e+02 stress_106
                     -5.4136212816e+02 stress_107
                     -5.5256708270e+02 stress_108
                     -5.6315031419e+02 stress_109
                     -5.7328338152e+02 stress_110
                     -5.8303430540e+02 stress_111
                     -5.9241146405e+02 stress_112
                     -6.0139060546e+02 stress_113
                     -6.0992832379e+02 stress_114
                     -6.1797054884e+02 stress_115
                     -6.2545899154e+02 stress_116
                     -6.3233379366e+02 stress_117
                     -6.3853850288e+02 stress_118
                     -6.4401959736e+02 stress_119
                     -6.4872737009e+02 stress_120
                     -6.5262056325e+02 stress_121
                     -6.5566320670e+02 stress_122
                     -6.5782690977e+02 stress_123
                     -6.5909247441e+02 stress_124
                     -6.5943243069e+02 stress_125
                     -5.5685616373e+02 stress_126
                     -3.0594992764e+02 stress_127
                      8.5671910995e-01 stress_128
                      2.1963872267e+02 stress_129
                      3.2865546270e+02 stress_130
                      3.7949177255e+02 stress_131
                      4.0431779100e+02 stress_132
                      4.1559566468e+02 stress_133
                      4.1622473974e+02 stress_134
                      1.1294784493e+01 stress_135
                     -1.0597530376e+01 stress_136
                      1.7452231204e+02 stress_137
                      1.3838220617e+02 stress_138
                     -3.3983557201e+01 stress_139
                     -3.2105668714e+02 stress_140
                     -5.3008534013e+02 stress_141
                     -6.1381454731e+02 stress_142
                     -6.4632054295e+02 stress_143
                     -6.6111951278e+02 stress_144
                     -6.6723417601e+02 stress_145
                     -6.4683337384e+02 stress_146
                     -4.0878909592e+02 stress_147
                     -5.7949606336e+01 stress_148
                      1.9424827601e+02 stress_149
                      3.0662818524e+02 stress_150
                      3.4820816007e+02 stress_151
                      3.5334247106e+02 stress_152
                      1.3689055185e+02 stress_153
                     -2.3151503178e+02 stress_154
                     -4.9343523581e+02 stress_155
                     -5.9028207437e+02 stress_156
                     -6.1731887499e+02 stress_157
                     -4.9459180071e+02 stress_158
                     -8.9520813421e+01 stress_159
                      9.3824767309e+01 stress_160
                     -7.2992979904e+01 stress_161
                     -4.6834524756e+02 stress_162
                     -6.2390733639e+02 stress_163
                     -6.3487369008e+02 stress_164
                     -5.9311048838e+02 stress_165
                     -5.1082050399e+02 stress_166
                     -3.9003293240e+02 stress_167
                     -2.3781650620e+02 stress_168
                     -7.1411530231e+01 stress_169
                      8.3484327523e+01 stress_170
                      2.0606355197e+02 stress_171
                      2.9185431734e+02 stress_172
                      3.4850592966e+02 stress_173
                      3.8602982525e+02 stress_174
                      4.1207234975e+02 stress_175
                      4.3144785834e+02 stress_176
                      4.4697394113e+02 stress_177
                      4.6026252678e+02 stress_178
                      4.7223020636e+02 stress_179
                      4.8339856508e+02 stress_180
                      4.9406173096e+02 stress_181
                      5.0437903269e+02 stress_182
                      5.1443023698e+02 stress_183
                      5.2424546349e+02 stress_184
                      5.3382483905e+02 stress_185
                      5.4314910449e+02 stress_186
                      5.5218715624e+02 stress_187
                      5.6090099084e+02 stress_188
                      5.6924803478e+02 stress_189
                      5.7718429495e+02 stress_190
                      5.8466552548e+02 stress_191
                      5.9164733268e+02 stress_192
                      5.9808889133e+02 stress_193
                      6.0395058427e+02 stress_194
                      6.0919523523e+02 stress_195
                      6.1379092280e+02 stress_196
                      6.1770757731e+02 stress_197
                      6.2092100651e+02 stress_198
                      6.2341069017e+02 stress_199
                      6.2515985860e+02 stress_200
                      6.2615788372e+02 stress_201
                      6.2620676872e+02 stress_202
                      2.6420995060e+02 stress_203
                     -7.9930091268e+01 stress_204
                      2.8997197585e+01 stress_205
                      4.6806032083e+02 stress_206
                      4.8723686429e+02 stress_207
                      4.2240946265e+02 stress_208
                      3.0529881870e+02 stress_209
                      1.4335995535e+02 stress_210
                     -4.0019753837e+01 stress_211
                     -2.0583660027e+02 stress_212
                     -3.2623897451e+02 stress_213
                     -4.0211933673e+02 stress_214
                     -4.4832316226e+02 stress_215
                     -4.7786252947e+02 stress_216
                     -4.9856929402e+02 stress_217
                     -5.1461146156e+02 stress_218
                     -5.2813030354e+02 stress_219
                     -5.4021833942e+02 stress_220
                     -5.5142815737e+02 stress_221
                     -5.6202732862e+02 stress_222
                     -5.7212980974e+02 stress_223
                     -5.8176407739e+02 stress_224
                     -5.9091155075e+02 stress_225
                     -5.9952703120e+02 stress_226
                     -6.0755147778e+02 stress_227
                     -6.1492117332e+02 stress_228
                     -6.2156943148e+02 stress_229
                     -6.2743456747e+02 stress_230
                     -6.3245923642e+02 stress_231
                     -6.3659147065e+02 stress_232
                     -6.3979043428e+02 stress_233
                     -6.4202261159e+02 stress_234
                     -6.4326368696e+02 stress_235
                     -6.3677095947e+02 stress_236
                     -2.7213912173e+02 stress_237
                      2.2950643912e+01 stress_238
                     -1.9713378593e+02 stress_239
                     -4.4714907019e+02 stress_240
                     -1.1617527023e+02 stress_241
                      6.0502057209e+01 stress_242
                     -2.7198665948e+02 stress_243
                     -3.9580330951e+02 stress_244
                     -5.0431470639e+02 stress_245
                     -3.1929715820e+02 stress_246
                      1.5282805040e+01 stress_247
                      2.7652196502e+02 stress_248
                      3.9084305182e+02 stress_249
                      4.3379580370e+02 stress_250
                      4.4619068523e+02 stress_251
                      3.4076772653e+02 stress_252
                      1.9195158141e+01 stress_253
                     -3.1464698628e+02 stress_254
                     -4.8445561899e+02 stress_255
                     -5.4589465001e+02 stress_256
                     -5.5822812861e+02 stress_257
                     -2.8093684166e+02 stress_258
                      9.8302728387e+01 stress_259
                      2.1646260361e+02 stress_260
                      1.8172436541e+00 stress_261
                     -3.6368874571e+02 stress_262
                     -5.2136679523e+02 stress_263
                     -5.4320328448e+02 stress_264
                     -5.0115774048e+02 stress_265
                     -4.0693898692e+02 stress_266
                     -2.6423476934e+02 stress_267
                     -8.6848503596e+01 stress_268
                      9.4361268921e+01 stress_269
                      2.4346376063e+02 stress_270
                      3.4575056641e+02 stress_271
                      4.0970102584e+02 stress_272
                      4.4965068373e+02 stress_273
                      4.7621863805e+02 stress_274
                      4.9557240667e+02 stress_275
                      5.1101172907e+02 stress_276
                      5.2426657942e+02 stress_277
                      5.3623799451e+02 stress_278
                      5.4738916459e+02 stress_279
                      5.5794684408e+02 stress_280
                      5.6800692672e+02 stress_281
                      5.7759156232e+02 stress_282
                      5.8668066705e+02 stress_283
                      5.9523132960e+02 stress_284
                      6.0318741394e+02 stress_285
                      6.1048851639e+02 stress_286
                      6.1707328540e+02 stress_287
                      6.2288199641e+02 stress_288
                      6.2786124178e+02 stress_289
                      6.3196327533e+02 stress_290
                      6.3514753325e+02 stress_291
                      6.3738330585e+02 stress_292
                      6.3864774353e+02 stress_293
                      6.3866641365e+02 stress_294
                      2.6479477424e+02 stress_295
                     -7.1585205626e+01 stress_296
                      5.9039001453e+01 stress_297
                      4.8351415292e+02 stress_298
                      4.9839731714e+02 stress_299
                      4.5487750898e+02 stress_300
                      3.7652536002e+02 stress_301
                      2.6514521798e+02 stress_302
                      1.2707784066e+02 stress_303
                     -2.3170525054e+01 stress_304
                     -1.6393674979e+02 stress_305
                     -2.7725528429e+02 stress_306
                     -3.5828641619e+02 stress_307
                     -4.1278279473e+02 stress_308
                     -4.4928855853e+02 stress_309
                     -4.7469699383e+02 stress_310
                     -4.9353283175e+02 stress_311
                     -5.0852736883e+02 stress_312
                     -5.2127936912e+02 stress_313
                     -5.3272181376e+02 stress_314
                     -5.4339919757e+02 stress_315
                     -5.5362858810e+02 stress_316
                     -5.6359257870e+02 stress_317
                     -5.7339162590e+02 stress_318
                     -5.8307554422e+02 stress_319
                     -5.9266246218e+02 stress_320
                     -6.0214949084e+02 stress_321
                     -6.1152084556e+02 stress_322
                     -6.2075149205e+02 stress_323
                     -6.2981108180e+02 stress_324
                     -6.3866610448e+02 stress_325
                     -6.4727998393e+02 stress_326
                     -6.5561638282e+02 stress_327
                     -6.6363709873e+02 stress_328
                     -6.7130614576e+02 stress_329
                     -6.7858765578e+02 stress_330
                     -6.8544652543e+02 stress_331
                     -6.9185037950e+02 stress_332
                     -6.9776767219e+02 stress_333
                     -7.0316985852e+02 stress_334
                     -7.0803101689e+02 stress_335
                     -7.1232576954e+02 stress_336
                     -7.1603426119e+02 stress_337
                     -7.1913754089e+02 stress_338
                     -7.2162008383e+02 stress_339
                     -7.2347006532e+02 stress_340
                     -7.2467804677e+02 stress_341
                     -7.2523779983e+02 stress_342


Active response data for evaluation 141:
Active set vector = { 1 1 1 1 1 1 1 1 1 1 1 1 1 1 1 1 1 1 1 1 1 1 1 1 1 1 1 1 1 1 1 1 1 1 1 1 1 1 1 1 1 1 1 1 1 1 1 1 1 1 1 1 1 1 1 1 1 1 1 1 1 1 1 1 1 1 1 1 1 1 1 1 1 1 1 1 1 1 1 1 1 1 1 1 1 1 1 1 1 1 1 1 1 1 1 1 1 1 1 1 1 1 1 1 1 1 1 1 1 1 1 1 1 1 1 1 1 1 1 1 1 1 1 1 1 1 1 1 1 1 1 1 1 1 1 1 1 1 1 1 1 1 1 1 1 1 1 1 1 1 1 1 1 1 1 1 1 1 1 1 1 1 1 1 1 1 1 1 1 1 1 1 1 1 1 1 1 1 1 1 1 1 1 1 1 1 1 1 1 1 1 1 1 1 1 1 1 1 1 1 1 1 1 1 1 1 1 1 1 1 1 1 1 1 1 1 1 1 1 1 1 1 1 1 1 1 1 1 1 1 1 1 1 1 1 1 1 1 1 1 1 1 1 1 1 1 1 1 1 1 1 1 1 1 1 1 1 1 1 1 1 1 1 1 1 1 1 1 1 1 1 1 1 1 1 1 1 1 1 1 1 1 1 1 1 1 1 1 1 1 1 1 1 1 1 1 1 1 1 1 1 1 1 1 1 1 1 1 1 1 1 1 1 1 1 1 1 1 1 1 1 1 1 1 1 1 1 1 1 1 1 1 1 1 1 1 1 1 1 1 1 1 }
                      2.4220149393e+00 stress_1
                     -2.5171559214e+02 stress_2
                     -4.9424617592e+02 stress_3
                     -4.9576579185e+02 stress_4
                     -1.6682216194e+02 stress_5
                      2.5330118668e+02 stress_6
                      4.0136561793e+02 stress_7
                      4.0223389787e+02 stress_8
                      1.5257254651e+02 stress_9
                     -2.3137561966e+02 stress_10
                     -4.3993608456e+02 stress_11
                     -4.8922568251e+02 stress_12
                     -5.0314246992e+02 stress_13
                     -5.0413574970e+02 stress_14
                     -1.7338100190e+02 stress_15
                     -3.4134482196e+02 stress_16
                     -5.0980990931e+02 stress_17
                     -3.1501075030e+02 stress_18
                      2.1460987686e+01 stress_19
                      2.9858000900e+02 stress_20
                      4.1858091956e+02 stress_21
                      4.6352510035e+02 stress_22
                      4.8208791731e+02 stress_23
                      4.8821125151e+02 stress_24
                      1.5751340578e+02 stress_25
                      2.8562588791e+02 stress_26
                      4.2950127558e+02 stress_27
                      4.6527777502e+02 stress_28
                      3.4240696714e+02 stress_29
                      1.2876885779e+02 stress_30
                     -1.2498827808e+02 stress_31
                     -3.2063157466e+02 stress_32
                     -4.2445842191e+02 stress_33
                     -4.7426311558e+02 stress_34
                     -5.0121803530e+02 stress_35
                     -5.1870340856e+02 stress_36
                     -5.3170245271e+02 stress_37
                     -5.4201784548e+02 stress_38
                     -5.5025652706e+02 stress_39
                     -5.5656336335e+02 stress_40
                     -5.6092402588e+02 stress_41
                     -5.6327921736e+02 stress_42
                     -5.4781241249e+02 stress_43
                     -1.6075413904e+02 stress_44
                      1.0637208018e+02 stress_45
                     -9.9833556893e+01 stress_46
                     -4.5321704540e+02 stress_47
                     -1.5679855715e+02 stress_48
                     -2.5973466460e+02 stress_49
                     -4.1954305250e+02 stress_50
                     -5.6864142113e+02 stress_51
                     -3.9866884472e+02 stress_52
                     -6.1062953482e+01 stress_53
                      2.2651538065e+02 stress_54
                      3.5829713479e+02 stress_55
                      4.0785570729e+02 stress_56
                      4.2290901985e+02 stress_57
                      3.3653991355e+02 stress_58
                      2.1707428057e+01 stress_59
                     -3.1588937545e+02 stress_60
                     -4.7140073369e+02 stress_61
                     -5.2132419952e+02 stress_62
                     -5.3233974731e+02 stress_63
                     -2.6386997112e+02 stress_64
                      1.1341188391e+02 stress_65
                      2.0044198591e+02 stress_66
                     -7.1883542904e+01 stress_67
                     -4.4064395115e+02 stress_68
                     -5.3484327871e+02 stress_69
                     -5.3592263122e+02 stress_70
                     -4.4052448814e+02 stress_71
                     -2.6827936288e+02 stress_72
                     -4.4789252621e+01 stress_73
                      1.6689754943e+02 stress_74
                      3.1137705579e+02 stress_75
                      3.9202500579e+02 stress_76
                      4.3625634078e+02 stress_77
                      4.6308450466e+02 stress_78
                      4.8170708486e+02 stress_79
                      4.9617384990e+02 stress_80
                      5.0823045307e+02 stress_81
                      5.1860483534e+02 stress_82
                      5.2756525386e+02 stress_83
                      5.3517167285e+02 stress_84
                      5.4138968391e+02 stress_85
                      5.4615345840e+02 stress_86
                      5.4939515608e+02 stress_87
                      5.5105895023e+02 stress_88
                      4.7733082325e+02 stress_89
                      4.3715639602e+01 stress_90
                     -1.5948295434e+02 stress_91
                      1.3074618823e+02 stress_92
                      4.7807633335e+02 stress_93
                      4.8441759846e+02 stress_94
                      4.2421279825e+02 stress_95
                      3.1603613393e+02 stress_96
                      1.6534791378e+02 stress_97
                     -1.0203893444e+01 stress_98
                     -1.7743030295e+02 stress_99
                     -3.0619479057e+02 stress_100
                     -3.9078716655e+02 stress_101
                     -4.4296516970e+02 stress_102
                     -4.7591741594e+02 stress_103
                     -4.9839551234e+02 stress_104
                     -5.1527635780e+02 stress_105
                     -5.2913667787e+02 stress_106
                     -5.4132012186e+02 stress_107
                     -5.5252514448e+02 stress_108
                     -5.6310842216e+02 stress_109
                     -5.7324152162e+02 stress_110
                     -5.8299246838e+02 stress_111
                     -5.9236964366e+02 stress_112
                     -6.0134879736e+02 stress_113
                     -6.0988652494e+02 stress_114
                     -6.1792875704e+02 stress_115
                     -6.2541720515e+02 stress_116
                     -6.3229201148e+02 stress_117
                     -6.3849672396e+02 stress_118
                     -6.4397782097e+02 stress_119
                     -6.4868559566e+02 stress_120
                     -6.5257879030e+02 stress_121
                     -6.5562143482e+02 stress_122
                     -6.5778513862e+02 stress_123
                     -6.5905070367e+02 stress_124
                     -6.5939066006e+02 stress_125
                     -5.5681438648e+02 stress_126
                     -3.0590755536e+02 stress_127
                      9.0432016067e-01 stress_128
                      2.1969677416e+02 stress_129
                      3.2872160315e+02 stress_130
                      3.7956213076e+02 stress_131
                      4.0439013559e+02 stress_132
                      4.1566884823e+02 stress_133
                      4.1629796837e+02 stress_134
                      1.1367726350e+01 stress_135
                     -1.0524652305e+01 stress_136
                      1.7459534557e+02 stress_137
                      1.3845523963e+02 stress_138
                     -3.3910581837e+01 stress_139
                     -3.2098524957e+02 stress_140
                     -5.3001829735e+02 stress_141
                     -6.1375039048e+02 stress_142
                     -6.4625750775e+02 stress_143
                     -6.6105689851e+02 stress_144
                     -6.6717170612e+02 stress_145
                     -6.4677090394e+02 stress_146
                     -4.0872654798e+02 stress_147
                     -5.7885366783e+01 stress_148
                      1.9431690561e+02 stress_149
                      3.0670010206e+02 stress_150
                      3.4828148216e+02 stress_151
                      3.5341597037e+02 stress_152
                      1.3696402402e+02 stress_153
                     -2.3144291207e+02 stress_154
                     -4.9336749253e+02 stress_155
                     -5.9021710398e+02 stress_156
                     -6.1725475115e+02 stress_157
                     -4.9452767148e+02 stress_158
                     -8.9455592904e+01 stress_159
                      9.3892119732e+01 stress_160
                     -7.2925633261e+01 stress_161
                     -4.6827953602e+02 stress_162
                     -6.2384440962e+02 stress_163
                     -6.3481099423e+02 stress_164
                     -5.9304779242e+02 stress_165
                     -5.1075780221e+02 stress_166
                     -3.8997016590e+02 stress_167
                     -2.3775339912e+02 stress_168
                     -7.1347366129e+01 stress_169
                      8.3550558992e+01 stress_170
                      2.0613246171e+02 stress_171
                      2.9192574203e+02 stress_172
                      3.4857927259e+02 stress_173
                      3.8610447881e+02 stress_174
                      4.1214785952e+02 stress_175
                      4.3152392261e+02 stress_176
                      4.4705036795e+02 stress_177
                      4.6033919492e+02 stress_178
                      4.7230703852e+02 stress_179
                      4.8347551116e+02 stress_180
                      4.9413875781e+02 stress_181
                      5.0445611796e+02 stress_182
                      5.1450736526e+02 stress_183
                      5.2432262398e+02 stress_184
                      5.3390202402e+02 stress_185
                      5.4322630834e+02 stress_186
                      5.5226437481e+02 stress_187
                      5.6097822103e+02 stress_188
                      5.6932527422e+02 stress_189
                      5.7726154181e+02 stress_190
                      5.8474277835e+02 stress_191
                      5.9172459042e+02 stress_192
                      5.9816615303e+02 stress_193
                      6.0402784920e+02 stress_194
                      6.0927250278e+02 stress_195
                      6.1386819245e+02 stress_196
                      6.1778484863e+02 stress_197
                      6.2099827913e+02 stress_198
                      6.2348796374e+02 stress_199
                      6.2523713283e+02 stress_200
                      6.2623515831e+02 stress_201
                      6.2628404332e+02 stress_202
                      2.6428713938e+02 stress_203
                     -7.9853783695e+01 stress_204
                      2.9073505228e+01 stress_205
                      4.6814116157e+02 stress_206
                      4.8731872296e+02 stress_207
                      4.2249132082e+02 stress_208
                      3.0538065582e+02 stress_209
                      1.4344159589e+02 stress_210
                     -3.9938923595e+01 stress_211
                     -2.0575749857e+02 stress_212
                     -3.2616198446e+02 stress_213
                     -4.0204408562e+02 stress_214
                     -4.4824906684e+02 stress_215
                     -4.7778913915e+02 stress_216
                     -4.9849632687e+02 stress_217
                     -5.1453875222e+02 stress_218
                     -5.2805775556e+02 stress_219
                     -5.4014589552e+02 stress_220
                     -5.5135578265e+02 stress_221
                     -5.6195500116e+02 stress_222
                     -5.7205751540e+02 stress_223
                     -5.8169180679e+02 stress_224
                     -5.9083929749e+02 stress_225
                     -5.9945479083e+02 stress_226
                     -6.0747924710e+02 stress_227
                     -6.1484895002e+02 stress_228
                     -6.2149721381e+02 stress_229
                     -6.2736235412e+02 stress_230
                     -6.3238702634e+02 stress_231
                     -6.3651926302e+02 stress_232
                     -6.3971822840e+02 stress_233
                     -6.4195040686e+02 stress_234
                     -6.4319148285e+02 stress_235
                     -6.3669875536e+02 stress_236
                     -2.7206660329e+02 stress_237
                      2.3025488542e+01 stress_238
                     -1.9705898330e+02 stress_239
                     -4.4707494301e+02 stress_240
                     -1.1610077129e+02 stress_241
                      6.0577947385e+01 stress_242
                     -2.7191099163e+02 stress_243
                     -3.9572814504e+02 stress_244
                     -5.0424041243e+02 stress_245
                     -3.1922282837e+02 stress_246
                      1.5358642235e+01 stress_247
                      2.7660296222e+02 stress_248
                      3.9092811707e+02 stress_249
                      4.3388262390e+02 stress_250
                      4.4627800894e+02 stress_251
                      3.4085504750e+02 stress_252
                      1.9281987768e+01 stress_253
                     -3.1456383703e+02 stress_254
                     -4.8437693741e+02 stress_255
                     -5.4581809687e+02 stress_256
                     -5.5815202437e+02 stress_257
                     -2.8086062498e+02 stress_258
                      9.8381421725e+01 stress_259
                      2.1654340770e+02 stress_260
                      1.8979984610e+00 stress_261
                     -3.6360995144e+02 stress_262
                     -5.2129082388e+02 stress_263
                     -5.4312783678e+02 stress_264
                     -5.0108229264e+02 stress_265
                     -4.0686352977e+02 stress_266
                     -2.6415919277e+02 stress_267
                     -8.6772281789e+01 stress_268
                      9.4439322987e+01 stress_269
                      2.4354475959e+02 stress_270
                      3.4583455121e+02 stress_271
                      4.0978725655e+02 stress_272
                      4.4973836877e+02 stress_273
                      4.7630721592e+02 stress_274
                      4.9566153051e+02 stress_275
                      5.1110119283e+02 stress_276
                      5.2435626047e+02 stress_277
                      5.3632781848e+02 stress_278
                      5.4747908518e+02 stress_279
                      5.5803683169e+02 stress_280
                      5.6809696192e+02 stress_281
                      5.7768163201e+02 stress_282
                      5.8677076220e+02 stress_283
                      5.9532144382e+02 stress_284
                      6.0327754262e+02 stress_285
                      6.1057865614e+02 stress_286
                      6.1716343367e+02 stress_287
                      6.2297215124e+02 stress_288
                      6.2795140161e+02 stress_289
                      6.3205343890e+02 stress_290
                      6.3523769951e+02 stress_291
                      6.3747347390e+02 stress_292
                      6.3873791256e+02 stress_293
                      6.3875658270e+02 stress_294
                      2.6488461683e+02 stress_295
                     -7.1498378602e+01 stress_296
                      5.9125828610e+01 stress_297
                      4.8360228820e+02 stress_298
                      4.9848565508e+02 stress_299
                      4.5496584674e+02 stress_300
                      3.7661368993e+02 stress_301
                      2.6523347077e+02 stress_302
                      1.2716571720e+02 stress_303
                     -2.3083769857e+01 stress_304
                     -1.6385216278e+02 stress_305
                     -2.7717354351e+02 stress_306
                     -3.5820742095e+02 stress_307
                     -4.1270595500e+02 stress_308
                     -4.4921322889e+02 stress_309
                     -4.7462266961e+02 stress_310
                     -4.9345916768e+02 stress_311
                     -5.0845414059e+02 stress_312
                     -5.2120643287e+02 stress_313
                     -5.3264907679e+02 stress_314
                     -5.4332659935e+02 stress_315
                     -5.5355608837e+02 stress_316
                     -5.6352015021e+02 stress_317
                     -5.7331924984e+02 stress_318
                     -5.8300320738e+02 stress_319
                     -5.9259015512e+02 stress_320
                     -6.0207720671e+02 stress_321
                     -6.1144857930e+02 stress_322
                     -6.2067923990e+02 stress_323
                     -6.2973884088e+02 stress_324
                     -6.3859387261e+02 stress_325
                     -6.4720775939e+02 stress_326
                     -6.5554416428e+02 stress_327
                     -6.6356488513e+02 stress_328
                     -6.7123393625e+02 stress_329
                     -6.7851544967e+02 stress_330
                     -6.8537432216e+02 stress_331
                     -6.9177817861e+02 stress_332
                     -6.9769547328e+02 stress_333
                     -7.0309766127e+02 stress_334
                     -7.0795882102e+02 stress_335
                     -7.1225357480e+02 stress_336
                     -7.1596206738e+02 stress_337
                     -7.1906534781e+02 stress_338
                     -7.2154789132e+02 stress_339
                     -7.2339787321e+02 stress_340
                     -7.2460585492e+02 stress_341
                     -7.2516560811e+02 stress_342

>>>>> Total response returned to iterator:

Active set vector = { 2 2 2 2 2 2 2 2 2 2 2 2 2 2 2 2 2 2 2 2 2 2 2 2 2 2 2 2 2 2 2 2 2 2 2 2 2 2 2 2 2 2 2 2 2 2 2 2 2 2 2 2 2 2 2 2 2 2 2 2 2 2 2 2 2 2 2 2 2 2 2 2 2 2 2 2 2 2 2 2 2 2 2 2 2 2 2 2 2 2 2 2 2 2 2 2 2 2 2 2 2 2 2 2 2 2 2 2 2 2 2 2 2 2 2 2 2 2 2 2 2 2 2 2 2 2 2 2 2 2 2 2 2 2 2 2 2 2 2 2 2 2 2 2 2 2 2 2 2 2 2 2 2 2 2 2 2 2 2 2 2 2 2 2 2 2 2 2 2 2 2 2 2 2 2 2 2 2 2 2 2 2 2 2 2 2 2 2 2 2 2 2 2 2 2 2 2 2 2 2 2 2 2 2 2 2 2 2 2 2 2 2 2 2 2 2 2 2 2 2 2 2 2 2 2 2 2 2 2 2 2 2 2 2 2 2 2 2 2 2 2 2 2 2 2 2 2 2 2 2 2 2 2 2 2 2 2 2 2 2 2 2 2 2 2 2 2 2 2 2 2 2 2 2 2 2 2 2 2 2 2 2 2 2 2 2 2 2 2 2 2 2 2 2 2 2 2 2 2 2 2 2 2 2 2 2 2 2 2 2 2 2 2 2 2 2 2 2 2 2 2 2 2 2 2 2 2 2 2 2 2 2 2 2 2 2 2 2 2 2 2 2 } Deriv vars vector = { 1 2 3 4 5 6 7 }
 [  0.0000000000e+00  1.1653237292e-05  0.0000000000e+00  0.0000000000e+00 
    0.0000000000e+00  0.0000000000e+00  0.0000000000e+00 ] stress_1 gradient
 [ -1.9957179578e-05 -1.2110527795e-03 -5.4369662318e-04  2.4709263022e-03 
   -2.8643754802e-02  6.8893655325e-02  0.0000000000e+00 ] stress_2 gradient
 [ -9.9810976609e-01 -7.0259299715e-05 -2.2761797026e+02  2.2096976742e-01 
   -2.5622477308e+00 -4.6318551901e+02  0.0000000000e+00 ] stress_3 gradient
 [ -1.0006235799e+00 -7.1846574353e-05 -3.0614967142e+02  5.5716514974e-02 
   -6.4603526081e-01 -4.6961659190e+02  0.0000000000e+00 ] stress_4 gradient
 [ -9.8330180937e-01  1.4705035726e-03 -3.0517862726e+02 -2.3509840914e+01 
    3.0035440005e+01 -4.6499472629e+02  5.8269232502e+00 ] stress_5 gradient
 [ -2.9388076963e-01  1.8942186706e-03 -2.2915880965e+02 -5.2286873827e+02 
    6.8542662776e+02 -2.9129834695e+02  2.2480717973e+02 ] stress_6 gradient
 [  4.6015060894e-01  8.6518414435e-04 -2.6737967318e+01 -6.2754360083e+02 
    8.2295697145e+02 -1.1174001622e+02  4.5117981344e+02 ] stress_7 gradient
 [  4.6531494017e-01  8.5744725103e-04 -2.4292958592e+01 -6.2639833223e+02 
    8.2144596777e+02 -1.1055334798e+02  4.5267538109e+02 ] stress_8 gradient
 [  4.5823738343e-01 -3.2728005659e-04 -2.4619720933e+01 -6.1488788407e+02 
    8.0609948314e+02 -1.1243993582e+02  4.5090226484e+02 ] stress_9 gradient
 [  9.4029531514e-03 -1.1345256936e-03 -6.8424360221e+01 -7.9034830331e+01 
    8.6473671584e+01 -2.4188062898e+02  3.2920978218e+02 ] stress_10 gradient
 [ -8.3943526723e-01 -1.7733841531e-04 -3.6642345886e+02  4.0021516310e+02 
   -5.4957933273e+02 -5.1536697084e+02  7.2094347716e+01 ] stress_11 gradient
 [ -9.9619452197e-01 -5.1709789550e-05 -7.7925804396e+02  2.4368777419e+02 
   -3.3155638890e+02 -5.7941560429e+02  1.1879479537e+01 ] stress_12 gradient
 [ -1.0099724885e+00 -8.6413608120e-05 -1.0691033076e+03  1.5978737967e+02 
   -2.1670587843e+02 -5.8892193016e+02  2.9424145377e+00 ] stress_13 gradient
 [ -1.0102972140e+00 -9.0412154530e-05 -1.0959695876e+03  1.5375762993e+02 
   -2.0847709323e+02 -5.8936923969e+02  2.5214991029e+00 ] stress_14 gradient
 [ -9.7836220972e-01  1.4268560700e-03 -1.0917999697e+03  3.9566138384e+01 
   -1.6343506232e+02 -5.8076052824e+02  1.5166134212e+01 ] stress_15 gradient
 [ -9.7836254268e-01  6.1871883599e-04 -1.0917999697e+03  3.9568804686e+01 
   -1.6345221209e+02 -5.8074754827e+02  1.5166932914e+01 ] stress_16 gradient
 [ -9.9068971169e-01 -1.6301276854e-04 -1.1172558977e+03  3.1454868837e+01 
   -1.6662145200e+02 -6.7651072662e+02  1.0113950944e+01 ] stress_17 gradient
 [ -9.8664799783e-01  7.6485674368e-04 -1.1167687446e+03  1.2857217919e+01 
   -1.5952528100e+02 -6.7528212311e+02  1.1688989346e+01 ] stress_18 gradient
 [ -7.9908740230e-01  1.9487738436e-03 -1.0872419884e+03 -4.5573842632e+02 
    2.7656950172e+01 -6.1516676819e+02  8.8735123612e+01 ] stress_19 gradient
 [ -6.1206963373e-02  1.5743637779e-03 -8.8645675200e+02 -1.1675370306e+03 
    3.4844689963e+02 -3.6982862629e+02  4.0317309027e+02 ] stress_20 gradient
 [  5.2158917133e-01  8.0564681506e-04 -4.9578111188e+02 -1.0010837239e+03 
    3.3173755609e+02 -1.7034355481e+02  6.5884527199e+02 ] stress_21 gradient
 [  7.5524264827e-01  4.8272981511e-04 -8.4906557122e+01 -7.0483641662e+02 
    2.4021035988e+02 -8.8548315325e+01  7.6367997169e+02 ] stress_22 gradient
 [  8.3971483423e-01  3.7717172143e-04  2.2008938770e+02 -5.4161773630e+02 
    1.8649711634e+02 -5.8529153411e+01  8.0215419826e+02 ] stress_23 gradient
 [  8.6418685227e-01  3.5018136477e-04  3.5040775462e+02 -4.8573304897e+02 
    1.6778617640e+02 -4.9763683937e+01  8.1338872673e+02 ] stress_24 gradient
 [  8.3105196155e-01 -1.1640483764e-03  3.4547206656e+02 -3.4450193507e+02 
    1.2798504042e+02 -6.4498439120e+01  8.0068938060e+02 ] stress_25 gradient
 [  8.3105133724e-01 -5.4764905913e-04  3.4547152286e+02 -3.4450404973e+02 
    1.2798759464e+02 -6.4499437580e+01  8.0068778320e+02 ] stress_26 gradient
 [  8.2846693451e-01  1.5059108150e-04  3.4622835011e+02 -3.5694435917e+02 
    1.5114032348e+02 -6.6423966844e+01  7.9493394109e+02 ] stress_27 gradient
 [  8.3097995755e-01  3.1697609897e-04  3.4988199891e+02 -3.6783316824e+02 
    1.9917316377e+02 -6.7521273023e+01  7.9165287732e+02 ] stress_28 gradient
 [  8.3013116351e-01 -2.7223193835e-04  3.4977434675e+02 -3.6261353755e+02 
    1.9769609473e+02 -6.7872231278e+01  7.9135296509e+02 ] stress_29 gradient
 [  7.9311571471e-01 -1.2142466224e-03  3.4420361974e+02 -2.1255413727e+02 
    1.5416543240e+02 -8.4408705296e+01  7.7721555778e+02 ] stress_30 gradient
 [  5.2198868951e-01 -1.8067679693e-03  2.9090547426e+02  4.3934915372e+02 
   -4.2018746432e+01 -2.1267121712e+02  6.6756349292e+02 ] stress_31 gradient
 [ -4.7866036236e-02 -1.4294921777e-03  1.0269308490e+02  1.0349805000e+03 
   -2.3883199320e+02 -4.9467541068e+02  4.2647519236e+02 ] stress_32 gradient
 [ -5.1591452732e-01 -8.4766171972e-04 -2.3850116787e+02  9.7447465183e+02 
   -2.4639923538e+02 -7.3517117735e+02  2.2087237918e+02 ] stress_33 gradient
 [ -7.5601227952e-01 -5.3301278958e-04 -6.7558358465e+02  6.9747727406e+02 
   -1.8151529233e+02 -8.6253108245e+02  1.1199106079e+02 ] stress_34 gradient
 [ -8.6579670368e-01 -4.0932839483e-04 -1.1564641163e+03  4.7402294996e+02 
   -1.2494095730e+02 -9.2233976077e+02  6.0860218598e+01 ] stress_35 gradient
 [ -9.1753403736e-01 -3.7405543798e-04 -1.6463243599e+03  3.2968821472e+02 
   -8.7482406114e+01 -9.5115877525e+02  3.6222289056e+01 ] stress_36 gradient
 [ -9.4360294193e-01 -3.7643307820e-04 -2.1188982775e+03  2.4024568191e+02 
   -6.3999453093e+01 -9.6595094181e+02  2.3576056546e+01 ] stress_37 gradient
 [ -9.5763021707e-01 -3.9368799004e-04 -2.5521133723e+03  1.8458079210e+02 
   -4.9290611289e+01 -9.7403296626e+02  1.6666893419e+01 ] stress_38 gradient
 [ -9.6556657765e-01 -4.1500813404e-04 -2.9269135822e+03  1.4960481880e+02 
   -4.0012771367e+01 -9.7866132185e+02  1.2710128592e+01 ] stress_39 gradient
 [ -9.7015968404e-01 -4.3475000068e-04 -3.2270282087e+03  1.2778807957e+02 
   -3.4211590002e+01 -9.8136564741e+02  1.0397889155e+01 ] stress_40 gradient
 [ -9.7274489838e-01 -4.4976285702e-04 -3.4398358526e+03  1.1486681295e+02 
   -3.0770690528e+01 -9.8289828161e+02  9.0880194923e+00 ] stress_41 gradient
 [ -9.7397256667e-01 -4.5826042971e-04 -3.5562964516e+03  1.0854110370e+02 
   -2.9084722764e+01 -9.8362915342e+02  8.4630359522e+00 ] stress_42 gradient
 [ -9.7397212965e-01 -3.8384472217e-04 -3.5562964516e+03  1.0853508154e+02 
   -2.9083992987e+01 -9.8362865420e+02  8.4634352984e+00 ] stress_43 gradient
 [ -9.0790870421e-01  1.3252010650e-03 -3.5438517541e+03 -1.9324623869e+02 
    3.5425209480e+00 -9.5245427549e+02  6.3097779490e+01 ] stress_44 gradient
 [ -5.5236012476e-01  1.7865838405e-03 -3.4566980943e+03 -1.0204419029e+03 
    9.5108030465e+01 -7.7998150737e+02  3.6536657775e+02 ] stress_45 gradient
 [ -5.5265483133e-01  7.9514257888e-04 -3.4567058691e+03 -1.0197394301e+03 
    9.4436270557e+01 -7.8046566002e+02  3.6518095963e+02 ] stress_46 gradient
 [ -8.0183995727e-01 -3.2684765777e-04 -3.4803810240e+03 -4.4474948382e+02 
   -3.3247463106e+02 -1.2220346467e+03  1.9577879071e+02 ] stress_47 gradient
 [ -7.7225336568e-01  1.0306940678e-03 -3.4751038938e+03 -5.8760364002e+02 
   -3.1113521611e+02 -1.2031852429e+03  2.1947904526e+02 ] stress_48 gradient
 [ -7.7226191876e-01  5.3544932111e-04 -3.4751044375e+03 -5.8758241304e+02 
   -3.1115145365e+02 -1.2031992214e+03  2.1947345435e+02 ] stress_49 gradient
 [ -7.8625061141e-01 -2.0089623645e-04 -3.4759792471e+03 -5.5315351432e+02 
   -3.3066423628e+02 -1.2272830452e+03  2.0948410077e+02 ] stress_50 gradient
 [ -1.0150404051e+00 -3.8909490127e-04 -3.5665147069e+03  3.0506010152e+01 
   -2.3987904103e+02 -1.7152922459e+03  7.0880721502e+00 ] stress_51 gradient
 [ -1.0122242785e+00  4.2217319472e-04 -3.5660389714e+03  1.0115317197e+01 
   -2.3743209810e+02 -1.7130981328e+03  9.3004739627e+00 ] stress_52 gradient
 [ -8.6082071079e-01  1.6954107275e-03 -3.5359889062e+03 -5.3607251797e+02 
   -1.6234457451e+02 -1.5896277238e+03  1.3380310627e+02 ] stress_53 gradient
 [ -2.3204150287e-01  1.6231608536e-03 -3.3430777722e+03 -1.4391474098e+03 
    6.7533581608e+00 -1.0632103106e+03  6.6462547123e+02 ] stress_54 gradient
 [  3.2110962543e-01  9.7863882110e-04 -2.9942190125e+03 -1.4075114508e+03 
    6.8218477502e+01 -5.9191381184e+02  1.1398693475e+03 ] stress_55 gradient
 [  5.6614602000e-01  6.5125060466e-04 -2.6786084567e+03 -1.1565566709e+03 
    7.0431526845e+01 -3.8077423047e+02  1.3527782783e+03 ] stress_56 gradient
 [  6.4044670370e-01  5.5216521392e-04 -2.5311260960e+03 -1.0439164383e+03 
    6.7262104488e+01 -3.1638412412e+02  1.4177078785e+03 ] stress_57 gradient
 [  6.4028269689e-01  1.3699142403e-04 -2.5311440380e+03 -1.0428807984e+03 
    6.6885904345e+01 -3.1648996075e+02  1.4176020506e+03 ] stress_58 gradient
 [  5.8069694116e-01 -1.2395581728e-03 -2.5401566979e+03 -8.0773518080e+02 
   -1.5014052872e+01 -3.6037511888e+02  1.3737996896e+03 ] stress_59 gradient
 [  5.2050134896e-02 -1.6394233699e-03 -2.6723086311e+03  3.4463287118e+02 
   -3.6840958991e+02 -7.8649545233e+02  9.4847782150e+02 ] stress_60 gradient
 [ -5.1143034260e-01 -1.0847853948e-03 -2.9982494438e+03  7.5029788635e+02 
   -4.1070236768e+02 -1.2735376458e+03  4.6234525427e+02 ] stress_61 gradient
 [ -7.2473282381e-01 -8.3220318514e-04 -3.2994498347e+03  6.5987493595e+02 
   -3.2706424538e+02 -1.4677408704e+03  2.6850371288e+02 ] stress_62 gradient
 [ -7.7023246713e-01 -7.8010434731e-04 -3.4054197859e+03  6.1370331051e+02 
   -2.9827307549e+02 -1.5102527483e+03  2.2607072473e+02 ] stress_63 gradient
 [ -7.5527380145e-01  4.7690693731e-04 -3.4025659165e+03  5.1623189918e+02 
   -2.8574535528e+02 -1.4984619488e+03  2.3786474326e+02 ] stress_64 gradient
 [ -4.0269390969e-01  1.4751290419e-03 -3.3126007956e+03 -5.6215754678e+02 
   -1.2157194088e+02 -1.2076932842e+03  5.2871171766e+02 ] stress_65 gradient
 [ -1.9079692170e-01  1.4033685432e-03 -3.2375275557e+03 -9.0296979127e+02 
   -5.6443157576e+01 -1.0297120191e+03  7.0674177443e+02 ] stress_66 gradient
 [ -2.0362007552e-01  1.2289431786e-04 -3.2386606218e+03 -8.6576729961e+02 
   -8.8019211972e+01 -1.0377625921e+03  6.9869446236e+02 ] stress_67 gradient
 [ -6.6122306413e-01 -5.9189615596e-04 -3.3478704678e+03  6.3264930458e+01 
   -6.5878027305e+02 -1.3796957783e+03  3.5690314245e+02 ] stress_68 gradient
 [ -9.2233807802e-01 -4.4141963344e-04 -3.5819035277e+03  2.9659951195e+02 
   -5.5527214218e+02 -1.6172825354e+03  1.1941338932e+02 ] stress_69 gradient
 [ -9.2502066425e-01 -4.4040794433e-04 -3.5875895186e+03  2.9627106264e+02 
   -5.5023412532e+02 -1.6201186575e+03  1.1657840007e+02 ] stress_70 gradient
 [ -9.2465504622e-01  1.7740668881e-05 -3.5875286245e+03  2.9293935755e+02 
   -5.4979917811e+02 -1.6198425836e+03  1.1685395191e+02 ] stress_71 gradient
 [ -9.0900924173e-01  8.1018226349e-04 -3.5847432609e+03  2.0132511037e+02 
   -5.3623937050e+02 -1.6075525547e+03  1.2914436312e+02 ] stress_72 gradient
 [ -7.7774899650e-01  1.5811438175e-03 -3.5580491157e+03 -2.7189989819e+02 
   -4.5222499333e+02 -1.5015201781e+03  2.3517863188e+02 ] stress_73 gradient
 [ -3.8443144634e-01  1.6887626401e-03 -3.4499355818e+03 -1.0276489973e+03 
   -2.6808383494e+02 -1.1772752381e+03  5.5943015803e+02 ] stress_74 gradient
 [  1.2513028826e-01  1.2055321527e-03 -3.2126251120e+03 -1.3333862246e+03 
   -9.9001939132e+01 -7.5061733440e+02  9.8610063279e+02 ] stress_75 gradient
 [  5.0131573599e-01  7.2465385327e-04 -2.8598713016e+03 -1.1546505753e+03 
   -1.6011311654e+01 -4.3167116510e+02  1.3050570907e+03 ] stress_76 gradient
 [  7.1591716114e-01  4.4213287258e-04 -2.4311520434e+03 -8.6245217387e+02 
    1.1743757063e+01 -2.4784192702e+02  1.4888933045e+03 ] stress_77 gradient
 [  8.3045301725e-01  3.0693960602e-04 -1.9585384358e+03 -6.2199007329e+02 
    1.7906725473e+01 -1.4888767447e+02  1.5878511621e+03 ] stress_78 gradient
 [  8.9253840868e-01  2.5331185561e-04 -1.4647467140e+03 -4.5311429339e+02 
    1.7322903717e+01 -9.4863566994e+01  1.6418772955e+03 ] stress_79 gradient
 [  9.2763755203e-01  2.4195141492e-04 -9.6759765860e+02 -3.3918157104e+02 
    1.5119706365e+01 -6.4136497818e+01  1.6726053203e+03 ] stress_80 gradient
 [  9.4842227824e-01  2.5201648746e-04 -4.8253826610e+02 -2.6242539447e+02 
    1.2875094158e+01 -4.5848227902e+01  1.6908947748e+03 ] stress_81 gradient
 [  9.6126077974e-01  2.7231753282e-04 -2.3596481795e+01 -2.1015431618e+02 
    1.0997924768e+01 -3.4503240219e+01  1.7022399233e+03 ] stress_82 gradient
 [  9.6946700967e-01  2.9650068916e-04  3.9639044704e+02 -1.7413692215e+02 
    9.5356337156e+00 -2.7225474300e+01  1.7095180863e+03 ] stress_83 gradient
 [  9.7483696852e-01  3.2071146283e-04  7.6594723595e+02 -1.4916066118e+02 
    8.4369541484e+00 -2.2448847584e+01  1.7142947178e+03 ] stress_84 gradient
 [  9.7837815049e-01  3.4246039711e-04  1.0749714373e+03 -1.3194524643e+02 
    7.6376656744e+00 -1.9291720976e+01  1.7174519829e+03 ] stress_85 gradient
 [  9.8067241454e-01  3.6008867213e-04  1.3151384950e+03 -1.2042131736e+02 
    7.0826701193e+00 -1.7242384364e+01  1.7195014497e+03 ] stress_86 gradient
 [  9.8205699329e-01  3.7249197968e-04  1.4800115717e+03 -1.1330821010e+02 
    6.7318297346e+00 -1.6003796269e+01  1.7207402349e+03 ] stress_87 gradient
 [  9.8271784856e-01  3.7897271762e-04  1.5650377423e+03 -1.0986758888e+02 
    6.5597847593e+00 -1.5412708684e+01  1.7213312737e+03 ] stress_88 gradient
 [  9.8259113399e-01  2.4532606953e-05  1.5650154507e+03 -1.0852099151e+02 
    6.4532372893e+00 -1.5532523734e+01  1.7212318354e+03 ] stress_89 gradient
 [  8.3935154488e-01 -1.7295983571e-03  1.5350859233e+03  4.6558966356e+02 
   -3.9679719301e+01 -1.5983707279e+02  1.6011647493e+03 ] stress_90 gradient
 [  4.9769170779e-01 -1.9158203285e-03  1.4412073205e+03  1.1663494575e+03 
   -9.6102899225e+01 -5.1024437816e+02  1.3096120826e+03 ] stress_91 gradient
 [  5.0298741511e-01 -5.3178285622e-04  1.4414383920e+03  1.1529857226e+03 
   -8.3438893120e+01 -5.0625254003e+02  1.3156718272e+03 ] stress_92 gradient
 [  9.3487915719e-01  1.3887815903e-04  1.5163686393e+03  1.1397966995e+02 
    5.7982166457e+02 -1.3880174328e+02  1.8735033851e+03 ] stress_93 gradient
 [  9.5210765551e-01  1.2956977239e-04  1.5240146606e+03  7.4054350828e+01 
    5.8917521888e+02 -1.2215194420e+02  1.8987802755e+03 ] stress_94 gradient
 [  9.5203267562e-01 -1.5992443921e-04  1.5240021556e+03  7.4841289138e+01 
    5.8909165939e+02 -1.2222033862e+02  1.8987143826e+03 ] stress_95 gradient
 [  9.4890387266e-01 -6.7314383226e-04  1.5234595452e+03  9.7342314052e+01 
    5.8638710510e+02 -1.2516329582e+02  1.8958662148e+03 ] stress_96 gradient
 [  9.1912674099e-01 -1.3290846194e-03  1.5179910334e+03  2.4381238933e+02 
    5.6583329530e+02 -1.5378461547e+02  1.8681684617e+03 ] stress_97 gradient
 [  7.8943842145e-01 -1.8730337312e-03  1.4911530801e+03  6.5805907026e+02 
    4.9365433521e+02 -2.8046711622e+02  1.7455736865e+03 ] stress_98 gradient
 [  4.8529082832e-01 -1.9730952020e-03  1.4111468163e+03  1.2141818097e+03 
    3.5693566796e+02 -5.8128771447e+02  1.4544589076e+03 ] stress_99 gradient
 [  7.1470156288e-02 -1.6352236597e-03  1.2497833086e+03  1.5099829711e+03 
    2.0736710212e+02 -9.9465912737e+02  1.0544219169e+03 ] stress_100 gradient
 [ -3.0012112372e-01 -1.1834909751e-03  1.0040911944e+03  1.4297710030e+03 
    1.0049925949e+02 -1.3688989445e+03  6.9225253932e+02 ] stress_101 gradient
 [ -5.6010704821e-01 -8.3420322817e-04  6.8934783656e+02  1.1679915202e+03 
    4.1999224892e+01 -1.6325649452e+03  4.3708952949e+02 ] stress_102 gradient
 [ -7.2243600009e-01 -6.1810091031e-04  3.2263349941e+02  8.9398442292e+02 
    1.4173002900e+01 -1.7981852908e+03  2.7681020342e+02 ] stress_103 gradient
 [ -8.2047430259e-01 -5.0004871832e-04 -8.3234686579e+01  6.7028581042e+02 
    1.9238751293e+00 -1.8987385751e+03  1.7949926728e+02 ] stress_104 gradient
 [ -8.8002350900e-01 -4.4389393430e-04 -5.1901494728e+02  5.0322007023e+02 
   -3.0856804241e+00 -1.9600993575e+03  1.2011704491e+02 ] stress_105 gradient
 [ -9.1701689876e-01 -4.2524838897e-04 -9.7763214403e+02  3.8217555078e+02 
   -4.8572145635e+00 -1.9983762726e+03  8.3074889265e+01 ] stress_106 gradient
 [ -9.4065512707e-01 -4.2934383660e-04 -1.4530550378e+03  2.9493091266e+02 
   -5.2224680489e+00 -2.0229243798e+03  5.9317926942e+01 ] stress_107 gradient
 [ -9.5620432966e-01 -4.4739084612e-04 -1.9397547664e+03  2.3166495935e+02 
   -5.0088257757e+00 -2.0391263701e+03  4.3638627325e+01 ] stress_108 gradient
 [ -9.6672034820e-01 -4.7405590531e-04 -2.4324465878e+03  1.8527806451e+02 
   -4.5866496696e+00 -2.0501164057e+03  3.3002725264e+01 ] stress_109 gradient
 [ -9.7401732986e-01 -5.0597975597e-04 -2.9260028885e+03  1.5082376697e+02 
   -4.1194098192e+00 -2.0577636013e+03  2.5602361019e+01 ] stress_110 gradient
 [ -9.7919962046e-01 -5.4094233061e-04 -3.4153928335e+03  1.2489219992e+02 
   -3.6749755097e+00 -2.0632071985e+03  2.0334129126e+01 ] stress_111 gradient
 [ -9.8295704337e-01 -5.7739311356e-04 -3.8956459380e+03  1.0512862806e+02 
   -3.2790713807e+00 -2.0671630921e+03  1.6505555814e+01 ] stress_112 gradient
 [ -9.8573173645e-01 -6.1419541602e-04 -4.3619716812e+03  8.9890425555e+01 
   -2.9373532078e+00 -2.0700905732e+03  1.3672962666e+01 ] stress_113 gradient
 [ -9.8781352625e-01 -6.5047207508e-04 -4.8097399334e+03  7.8021681591e+01 
   -2.6476316639e+00 -2.0722906771e+03  1.1543625761e+01 ] stress_114 gradient
 [ -9.8939624089e-01 -6.8551567338e-04 -5.2344901981e+03  6.8700025922e+01 
   -2.4044334117e+00 -2.0739655917e+03  9.9222627008e+00 ] stress_115 gradient
 [ -9.9061240103e-01 -7.1874042528e-04 -5.6320180608e+03  6.1332941914e+01 
   -2.2021026836e+00 -2.0752556004e+03  8.6742923701e+00 ] stress_116 gradient
 [ -9.9155375976e-01 -7.4964647637e-04 -5.9983463725e+03  5.5490063161e+01 
   -2.0346188194e+00 -2.0762545584e+03  7.7070654371e+00 ] stress_117 gradient
 [ -9.9228522473e-01 -7.7781249402e-04 -6.3298981459e+03  5.0854352580e+01 
   -1.8972382634e+00 -2.0770318585e+03  6.9550884302e+00 ] stress_118 gradient
 [ -9.9285297423e-01 -8.0287464158e-04 -6.6234008643e+03  4.7192255917e+01 
   -1.7857647977e+00 -2.0776359261e+03  6.3708386378e+00 ] stress_119 gradient
 [ -9.9328997195e-01 -8.2451758114e-04 -6.8758924623e+03  4.4331670284e+01 
   -1.6967319777e+00 -2.0781012079e+03  5.9203712715e+00 ] stress_120 gradient
 [ -9.9362012905e-01 -8.4248765667e-04 -7.0849420675e+03  4.2144337366e+01 
   -1.6274031431e+00 -2.0784526654e+03  5.5801246373e+00 ] stress_121 gradient
 [ -9.9386038519e-01 -8.5657278250e-04 -7.2484607930e+03  4.0537718099e+01 
   -1.5759538537e+00 -2.0787087700e+03  5.3325273216e+00 ] stress_122 gradient
 [ -9.9402245663e-01 -8.6660937168e-04 -7.3648121088e+03  3.9446476595e+01 
   -1.5405596565e+00 -2.0788815034e+03  5.1651994626e+00 ] stress_123 gradient
 [ -9.9411406404e-01 -8.7248724356e-04 -7.4328928520e+03  3.8827021117e+01 
   -1.5204907864e+00 -2.0789793524e+03  5.0705533899e+00 ] stress_124 gradient
 [ -9.9413824573e-01 -8.7406701244e-04 -7.4511828439e+03  3.8662940118e+01 
   -1.5150174552e+00 -2.0790048131e+03  5.0457936615e+00 ] stress_125 gradient
 [ -9.9374347232e-01 -3.8144942418e-04 -7.4511072699e+03  3.4512266624e+01 
   -1.3270998278e+00 -2.0786179103e+03  5.6196603371e+00 ] stress_126 gradient
 [ -9.5912812930e-01  7.4546812865e-04 -7.4440348497e+03 -1.6516858596e+02 
    7.8210221959e+00 -2.0438001556e+03  5.7234115992e+01 ] stress_127 gradient
 [ -6.5937116836e-01  1.5269432135e-03 -7.3684744252e+03 -1.0454247120e+03 
    4.8423214536e+01 -1.7378552787e+03  5.1078101926e+02 ] stress_128 gradient
 [ -6.5921685772e-02  1.2062790715e-03 -7.1266170427e+03 -1.6555106121e+03 
    7.6565304167e+01 -1.1264162449e+03  1.4172306547e+03 ] stress_129 gradient
 [  3.9036686555e-01  6.7633603931e-04 -6.7543993971e+03 -1.4980111953e+03 
    6.9129239441e+01 -6.5317075459e+02  2.1188287946e+03 ] stress_130 gradient
 [  6.2715867661e-01  3.7414492967e-04 -6.3649052121e+03 -1.1868001767e+03 
    5.4655933225e+01 -4.0641764686e+02  2.4846514306e+03 ] stress_131 gradient
 [  7.3832008373e-01  2.3700069618e-04 -6.0461102187e+03 -9.6884749069e+02 
    4.4554904628e+01 -2.9021002690e+02  2.6569360316e+03 ] stress_132 gradient
 [  7.8518024898e-01  1.8311404535e-04 -5.8538679417e+03 -8.5897520130e+02 
    3.9472006467e+01 -2.4112829030e+02  2.7297020869e+03 ] stress_133 gradient
 [  7.8769660168e-01  1.8033354818e-04 -5.8420544773e+03 -8.5272214878e+02 
    3.9182832253e+01 -2.3849086148e+02  2.7336121277e+03 ] stress_134 gradient
 [  7.3616124548e-01 -1.6484019845e-03 -5.8510228259e+03 -6.1167729920e+02 
   -1.7934347539e+01 -3.1022747763e+02  2.6647752821e+03 ] stress_135 gradient
 [  7.2499836044e-01 -1.7278487320e-03 -5.8531326449e+03 -5.6854882407e+02 
   -2.7995566791e+01 -3.2618319811e+02  2.6494644632e+03 ] stress_136 gradient
 [  7.3611137126e-01 -8.6286515487e-04 -5.8466465484e+03 -7.0194735213e+02 
   -1.8438185715e+01 -3.1472917872e+02  2.6648351846e+03 ] stress_137 gradient
 [  7.3609751153e-01 -1.0367167623e-03 -5.8466476358e+03 -7.0183759703e+02 
   -1.8464457693e+01 -3.1474665175e+02  2.6648184119e+03 ] stress_138 gradient
 [  7.2572310156e-01 -1.8419466808e-03 -5.8480332495e+03 -6.5203662561e+02 
   -3.0152897645e+01 -3.2913718828e+02  2.6509868672e+03 ] stress_139 gradient
 [  4.6957197930e-01 -2.6291115759e-03 -5.8932425319e+03  2.1046361869e+01 
   -1.7632821847e+02 -7.1003997031e+02  2.2848779368e+03 ] stress_140 gradient
 [ -2.2836748808e-01 -2.0197002605e-03 -6.1257195288e+03  7.5864864037e+02 
   -2.8895546272e+02 -1.7985182768e+03  1.2386610754e+03 ] stress_141 gradient
 [ -6.6992377012e-01 -1.4026599230e-03 -6.5234877059e+03  6.6465252368e+02 
   -2.1281726065e+02 -2.5132355272e+03  5.5168395624e+02 ] stress_142 gradient
 [ -8.3684118766e-01 -1.1738160094e-03 -6.9352593619e+03  4.6737280235e+02 
   -1.4164646951e+02 -2.7909992664e+03  2.8469897334e+02 ] stress_143 gradient
 [ -8.9833668731e-01 -1.1031172862e-03 -7.2568206894e+03  3.5414478818e+02 
   -1.0485840112e+02 -2.8952388604e+03  1.8450432719e+02 ] stress_144 gradient
 [ -9.1921048206e-01 -1.0843724340e-03 -7.4262396228e+03  3.0783731925e+02 
   -9.0325982952e+01 -2.9309916718e+03  1.5013861864e+02 ] stress_145 gradient
 [ -9.1920942073e-01 -9.8621881529e-04 -7.4262396228e+03  3.0781904589e+02 
   -9.0325253174e+01 -2.9309901741e+03  1.5014021604e+02 ] stress_146 gradient
 [ -9.0864924251e-01  1.3460757713e-04 -7.4240496083e+03  2.2843833185e+02 
   -8.6289037955e+01 -2.9155699769e+03  1.6559188586e+02 ] stress_147 gradient
 [ -6.8421117118e-01  1.3023719564e-03 -7.3685673203e+03 -6.1558247295e+02 
   -3.8596018411e+01 -2.5813315131e+03  5.0051521568e+02 ] stress_148 gradient
 [ -1.0836480067e-01  1.1827988098e-03 -7.1457111635e+03 -1.4816418372e+03 
    2.4112385848e+01 -1.7139647950e+03  1.3696680093e+03 ] stress_149 gradient
 [  3.1967772381e-01  7.3397633725e-04 -6.8314924740e+03 -1.4908720916e+03 
    4.1331478759e+01 -1.0645252808e+03  2.0204519919e+03 ] stress_150 gradient
 [  5.0188379765e-01  5.1311806537e-04 -6.6014169900e+03 -1.3372772440e+03 
    4.1369062285e+01 -7.8690082659e+02  2.2986527338e+03 ] stress_151 gradient
 [  5.2482506464e-01  4.8483628589e-04 -6.5645657010e+03 -1.3103307468e+03 
    4.1022600560e+01 -7.5188837241e+02  2.3337376726e+03 ] stress_152 gradient
 [  5.2019412493e-01 -5.4584811105e-04 -6.5651316904e+03 -1.2868201589e+03 
    3.1535497029e+01 -7.5732448114e+02  2.3283053077e+03 ] stress_153 gradient
 [  3.1496574838e-01 -1.8426473526e-03 -6.6024984048e+03 -6.1207879714e+02 
   -2.1602098254e+02 -1.0282203217e+03  2.0575959819e+03 ] stress_154 gradient
 [ -2.9213225848e-01 -1.6978506174e-03 -6.8148042157e+03  4.8077332525e+02 
   -5.1300928528e+02 -1.9047577837e+03  1.1816509950e+03 ] stress_155 gradient
 [ -6.4936870755e-01 -1.3380827200e-03 -7.1165303623e+03  6.5590357126e+02 
   -4.5908914991e+02 -2.4600990496e+03  6.2667918604e+02 ] stress_156 gradient
 [ -7.5345805188e-01 -1.2276500718e-03 -7.2891185098e+03  6.1613329989e+02 
   -3.9892376375e+02 -2.6296383458e+03  4.5725193791e+02 ] stress_157 gradient
 [ -7.5269401862e-01 -6.3893544161e-04 -7.2889581190e+03  6.0781449552e+02 
   -3.9838810729e+02 -2.6285630057e+03  4.5832738882e+02 ] stress_158 gradient
 [ -6.0305091351e-01  9.6312377204e-04 -7.2522017597e+03 -9.7642621241e+01 
   -3.3469902844e+02 -2.4108349944e+03  6.7607600839e+02 ] stress_159 gradient
 [ -3.1400311101e-01  1.1758320598e-03 -7.1592133531e+03 -8.3402177744e+02 
   -2.4016354467e+02 -1.9855034433e+03  1.1014509102e+03 ] stress_160 gradient
 [ -3.1509306853e-01  3.7574455513e-04 -7.1592853931e+03 -8.3080730229e+02 
   -2.4311494609e+02 -1.9866588598e+03  1.1002958288e+03 ] stress_161 gradient
 [ -5.7522229140e-01 -9.2378888365e-04 -7.2038607239e+03 -2.4027768903e+02 
   -6.5064270999e+02 -2.3134059874e+03  7.7362180257e+02 ] stress_162 gradient
 [ -9.4022277007e-01 -8.2825852620e-04 -7.4245813447e+03  2.7119230994e+02 
   -6.5749294608e+02 -2.8698560417e+03  2.1728860773e+02 ] stress_163 gradient
 [ -9.6436623342e-01 -8.2517933850e-04 -7.4717112393e+03  2.7545194554e+02 
   -6.0440931782e+02 -2.9159998134e+03  1.7115483843e+02 ] stress_164 gradient
 [ -9.6435000130e-01 -6.2427838690e-04 -7.4717085209e+03  2.7522861977e+02 
   -6.0439490472e+02 -2.9159778473e+03  1.7117680271e+02 ] stress_165 gradient
 [ -9.6352322467e-01 -2.3026769753e-04 -7.4715497611e+03  2.6721986493e+02 
   -6.0379648742e+02 -2.9148171390e+03  1.7233771463e+02 ] stress_166 gradient
 [ -9.5444855568e-01  3.2983826794e-04 -7.4697609956e+03  2.0387110687e+02 
   -5.9828593982e+02 -2.9018955850e+03  1.8525870030e+02 ] stress_167 gradient
 [ -9.0720679001e-01  9.5265596764e-04 -7.4598988623e+03 -3.0170722692e+01 
   -5.7376177719e+02 -2.8339105278e+03  2.5324333194e+02 ] stress_168 gradient
 [ -7.6178422675e-01  1.4162311211e-03 -7.4255770727e+03 -5.1840713950e+02 
   -5.0846580193e+02 -2.6229107307e+03  4.6424145035e+02 ] stress_169 gradient
 [ -4.7920499150e-01  1.5070688952e-03 -7.3419570676e+03 -1.1010777223e+03 
   -3.9782130759e+02 -2.2102439301e+03  8.7690802068e+02 ] stress_170 gradient
 [ -1.1504494108e-01  1.2543312010e-03 -7.1894766566e+03 -1.4609367160e+03 
   -2.7272412324e+02 -1.6756549307e+03  1.4115007736e+03 ] stress_171 gradient
 [  2.2540768643e-01  8.8017919859e-04 -6.9654416544e+03 -1.4887036296e+03 
   -1.6962667449e+02 -1.1736842811e+03  1.9134787702e+03 ] stress_172 gradient
 [  4.8410190900e-01  5.5523670341e-04 -6.6797029397e+03 -1.3087739023e+03 
   -1.0029765854e+02 -7.9082476953e+02  2.2963460853e+03 ] stress_173 gradient
 [  6.6026988509e-01  3.2907701122e-04 -6.3448188429e+03 -1.0674026733e+03 
   -5.8388196243e+01 -5.2923905765e+02  2.5579374402e+03 ] stress_174 gradient
 [  7.7501642575e-01  1.8955658092e-04 -5.9710522024e+03 -8.4218806129e+02 
   -3.4109421195e+01 -3.5835583588e+02  2.7288255125e+03 ] stress_175 gradient
 [  8.4913443570e-01  1.1175760639e-04 -5.5659908639e+03 -6.5770155515e+02 
   -2.0151885012e+01 -2.4768766514e+02  2.8394967199e+03 ] stress_176 gradient
 [  8.9748033910e-01  7.4918352528e-05 -5.1353741006e+03 -5.1454048692e+02 
   -1.2052817705e+01 -1.7532985787e+02  2.9118566357e+03 ] stress_177 gradient
 [  9.2959179485e-01  6.4774613898e-05 -4.6838146442e+03 -4.0574759008e+02 
   -7.2749664102e+00 -1.2716620410e+02  2.9600215016e+03 ] stress_178 gradient
 [  9.5137494192e-01  7.2104945520e-05 -4.2153891402e+03 -3.2348817794e+02 
   -4.4045702592e+00 -9.4430235894e+01  2.9927582595e+03 ] stress_179 gradient
 [  9.6647563863e-01  9.1006071418e-05 -3.7338572586e+03 -2.6110305814e+02 
   -2.6487263285e+00 -7.1696328334e+01  3.0154932839e+03 ] stress_180 gradient
 [  9.7716636053e-01  1.1764986430e-04 -3.2428046860e+03 -2.1345454281e+02 
   -1.5577094228e+00 -5.5575213164e+01  3.0316146645e+03 ] stress_181 gradient
 [  9.8488564776e-01  1.4948417516e-04 -2.7457828559e+03 -1.7673691125e+02 
   -8.7044174992e-01 -4.3917707887e+01  3.0432729038e+03 ] stress_182 gradient
 [  9.9056241443e-01  1.8474981871e-04 -2.2462638220e+03 -1.4816756716e+02 
   -4.3312276438e-01 -3.5332460215e+01  3.0518581410e+03 ] stress_183 gradient
 [  9.9480759164e-01  2.2218226775e-04 -1.7477152887e+03 -1.2572207488e+02 
   -1.5307076773e-01 -2.8904382707e+01  3.0582864861e+03 ] stress_184 gradient
 [  9.9803118600e-01  2.6083651892e-04 -1.2535380851e+03 -1.0792125747e+02 
    2.6819312442e-02 -2.4016927065e+01  3.0631737377e+03 ] stress_185 gradient
 [  1.0005130350e+00  2.9997426577e-04 -7.6710096255e+02 -9.3679229019e+01 
    1.4194166498e-01 -2.0250740612e+01  3.0669404116e+03 ] stress_186 gradient
 [  1.0024476120e+00  3.3899730931e-04 -2.9170470994e+02 -8.2192111003e+01 
    2.1510182872e-01 -1.7311777246e+01  3.0698792320e+03 ] stress_187 gradient
 [  1.0039723281e+00  3.7740584324e-04  1.6945046785e+02 -7.2859617736e+01 
    2.6053045779e-01 -1.4993356006e+01  3.0721978611e+03 ] stress_188 gradient
 [  1.0051855331e+00  4.1476823857e-04  6.1323613404e+02 -6.5230328223e+01 
    2.8807954801e-01 -1.3147205749e+01  3.0740440585e+03 ] stress_189 gradient
 [  1.0061587110e+00  4.5070776416e-04  1.0366706502e+03 -5.8961185952e+01 
    3.0376975770e-01 -1.1664993721e+01  3.0755260482e+03 ] stress_190 gradient
 [  1.0069445119e+00  4.8489017336e-04  1.4369142831e+03 -5.3789732578e+01 
    3.1161486047e-01 -1.0467841663e+01  3.0767237004e+03 ] stress_191 gradient
 [  1.0075819555e+00  5.1701191612e-04  1.8112306020e+03 -4.9514340514e+01 
    3.1453397156e-01 -9.4958420592e+00  3.0776957195e+03 ] stress_192 gradient
 [  1.0081005508e+00  5.4680855895e-04  2.1571577436e+03 -4.5977709445e+01 
    3.1435152712e-01 -8.7040642570e+00  3.0784872322e+03 ] stress_193 gradient
 [  1.0085224193e+00  5.7403813749e-04  2.4723578075e+03 -4.3058016956e+01 
    3.1234464032e-01 -8.0605575851e+00  3.0791309852e+03 ] stress_194 gradient
 [  1.0088645216e+00  5.9848308108e-04  2.7546701391e+03 -4.0660390970e+01 
    3.0960797367e-01 -7.5378644284e+00  3.0796537350e+03 ] stress_195 gradient
 [  1.0091397809e+00  6.1995969119e-04  3.0022521466e+03 -3.8710025630e+01 
    3.0632397783e-01 -7.1175132853e+00  3.0800738518e+03 ] stress_196 gradient
 [  1.0093580612e+00  6.3830077232e-04  3.2133884636e+03 -3.7149537983e+01 
    3.0322242437e-01 -6.7835288311e+00  3.0804077088e+03 ] stress_197 gradient
 [  1.0095267712e+00  6.5337261620e-04  3.3867008165e+03 -3.5934187023e+01 
    3.0030331535e-01 -6.5259264704e+00  3.0806656892e+03 ] stress_198 gradient
 [  1.0096515087e+00  6.6506374312e-04  3.5210289542e+03 -3.5030494572e+01 
    2.9811398410e-01 -6.3352208488e+00  3.0808561794e+03 ] stress_199 gradient
 [  1.0097361655e+00  6.7328437271e-04  3.6154279301e+03 -3.4414521376e+01 
    2.9647198411e-01 -6.2059204387e+00  3.0809859683e+03 ] stress_200 gradient
 [  1.0097834051e+00  6.7797729764e-04  3.6692980456e+03 -3.4069832904e+01 
    2.9537731952e-01 -6.1335321778e+00  3.0810582508e+03 ] stress_201 gradient
 [  1.0097856942e+00  6.7820718543e-04  3.6719366107e+03 -3.4053076575e+01 
    2.9537731952e-01 -6.1300375693e+00  3.0810614456e+03 ] stress_202 gradient
 [  9.7495242465e-01 -9.8270713254e-04  3.6645983224e+03  1.7606299196e+02 
   -7.4871491299e+00 -6.6621162447e+01  3.0292453179e+03 ] stress_203 gradient
 [  6.2194721190e-01 -1.8204946376e-03  3.5704185110e+03  1.1889229863e+03 
   -4.5206832841e+01 -6.8773365272e+02  2.4972053333e+03 ] stress_204 gradient
 [  6.2195001506e-01 -1.2964105541e-03  3.5704185654e+03  1.1889145828e+03 
   -4.5199535069e+01 -6.8773010819e+02  2.4972109641e+03 ] stress_205 gradient
 [  7.8677659443e-01  4.3337303151e-04  3.5857333345e+03  7.1275065565e+02 
    2.8141540474e+02 -4.6364381158e+02  2.8574946485e+03 ] stress_206 gradient
 [  8.2215655340e-01  4.4369955451e-04  3.5908848706e+03  6.1059701137e+02 
    3.4010043786e+02 -4.1333097532e+02  2.9383926782e+03 ] stress_207 gradient
 [  8.2205605995e-01  1.3202328809e-04  3.5908652975e+03  6.1175705955e+02 
    3.4003858924e+02 -4.1349771794e+02  2.9382393276e+03 ] stress_208 gradient
 [  8.1793944943e-01 -4.2189091099e-04  3.5900579063e+03  6.4282867048e+02 
    3.3809263835e+02 -4.2042951789e+02  2.9318537130e+03 ] stress_209 gradient
 [  7.7993040779e-01 -1.1128863626e-03  3.5821933186e+03  8.2876749516e+02 
    3.2375470580e+02 -4.8516209559e+02  2.8722214972e+03 ] stress_210 gradient
 [  6.2453703574e-01 -1.6349959755e-03  3.5453988460e+03  1.2847223815e+03 
    2.7620667474e+02 -7.5198147869e+02  2.6264243350e+03 ] stress_211 gradient
 [  2.9506985543e-01 -1.6698566547e-03  3.4425277001e+03  1.7524979058e+03 
    1.9375511544e+02 -1.3211481534e+03  2.1020992031e+03 ] stress_212 gradient
 [ -1.0550534680e-01 -1.3226346743e-03  3.2482449255e+03  1.8346603657e+03 
    1.1154662667e+02 -2.0164239140e+03  1.4615957006e+03 ] stress_213 gradient
 [ -4.3409683354e-01 -9.2846289986e-04  2.9671069811e+03  1.5729267961e+03 
    5.6315811454e+01 -2.5889591389e+03  9.3416070647e+02 ] stress_214 gradient
 [ -6.5175634789e-01 -6.4817670948e-04  2.6183140088e+03  1.2165603693e+03 
    2.6482337288e+01 -2.9694523033e+03  5.8363878577e+02 ] stress_215 gradient
 [ -7.8417156859e-01 -4.8467293950e-04  2.2196025161e+03  9.0496688585e+02 
    1.1808342345e+01 -3.2015879747e+03  3.6978738787e+02 ] stress_216 gradient
 [ -8.6344591857e-01 -4.0137099590e-04  1.7838565084e+03  6.6942219294e+02 
    4.8101439355e+00 -3.3409099150e+03  2.4143972900e+02 ] stress_217 gradient
 [ -9.1163434962e-01 -3.6737387299e-04  1.3205075102e+03  5.0020302325e+02 
    1.5016990233e+00 -3.4257849006e+03  1.6324969514e+02 ] stress_218 gradient
 [ -9.4173499986e-01 -3.6297453854e-04  8.3718305718e+02  3.8013851914e+02 
   -4.5246186709e-02 -3.4789054029e+03  1.1431288464e+02 ] stress_219 gradient
 [ -9.6111858223e-01 -3.7641797047e-04  3.4066740965e+02  2.9459391279e+02 
   -7.4437274011e-01 -3.5131720083e+03  8.2745425094e+01 ] stress_220 gradient
 [ -9.7398114056e-01 -4.0068056271e-04 -1.6269937305e+02  2.3294677248e+02 
   -1.0326347305e+00 -3.5359463535e+03  6.1764747497e+01 ] stress_221 gradient
 [ -9.8275813750e-01 -4.3143019580e-04 -6.6678220568e+02  1.8789349978e+02 
   -1.1218499928e+00 -3.5515083318e+03  4.7428862985e+01 ] stress_222 gradient
 [ -9.8890078674e-01 -4.6586712706e-04 -1.1656145493e+03  1.5448550736e+02 
   -1.1169239949e+00 -3.5624129991e+03  3.7383200980e+01 ] stress_223 gradient
 [ -9.9329738046e-01 -5.0207931362e-04 -1.6533619834e+03  1.2936817373e+02 
   -1.0702182568e+00 -3.5702264382e+03  3.0184908088e+01 ] stress_224 gradient
 [ -9.9650655320e-01 -5.3868843912e-04 -2.1243950617e+03  1.1024627270e+02 
   -1.0080047514e+00 -3.5759356254e+03  2.4925461904e+01 ] stress_225 gradient
 [ -9.9888824177e-01 -5.7464682532e-04 -2.5732925740e+03  9.5532860468e+01 
   -9.4323702373e-01 -3.5801765790e+03  2.1018216547e+01 ] stress_226 gradient
 [ -1.0006797888e+00 -6.0912277688e-04 -2.9948931977e+03  8.4116721246e+01 
   -8.8193573845e-01 -3.5833691509e+03  1.8077399413e+01 ] stress_227 gradient
 [ -1.0020411432e+00 -6.4144092022e-04 -3.3844205482e+03  7.5208744611e+01 
   -8.2720244898e-01 -3.5857969033e+03  1.5840637223e+01 ] stress_228 gradient
 [ -1.0030814554e+00 -6.7102841232e-04 -3.7373543225e+03  6.8246065043e+01 
   -7.7958448865e-01 -3.5876530382e+03  1.4131017698e+01 ] stress_229 gradient
 [ -1.0038769956e+00 -6.9741272742e-04 -4.0497162842e+03  6.2819795957e+01 
   -7.3981163110e-01 -3.5890733458e+03  1.2822346087e+01 ] stress_230 gradient
 [ -1.0044811009e+00 -7.2019480957e-04 -4.3179511940e+03  5.8634127251e+01 
   -7.0715410062e-01 -3.5901526797e+03  1.1828362672e+01 ] stress_231 gradient
 [ -1.0049311675e+00 -7.3903834324e-04 -4.5389268090e+03  5.5475973135e+01 
   -6.8142945691e-01 -3.5909564390e+03  1.1087567479e+01 ] stress_232 gradient
 [ -1.0052536456e+00 -7.5368596764e-04 -4.7102079071e+03  5.3190952432e+01 
   -6.6227280487e-01 -3.5915330489e+03  1.0556431305e+01 ] stress_233 gradient
 [ -1.0054662863e+00 -7.6393521985e-04 -4.8298257589e+03  5.1673298005e+01 
   -6.4913681531e-01 -3.5919129625e+03  1.0206600261e+01 ] stress_234 gradient
 [ -1.0055803898e+00 -7.6964329810e-04 -4.8963662064e+03  5.0855432892e+01 
   -6.4202148617e-01 -3.5921171473e+03  1.0018506172e+01 ] stress_235 gradient
 [ -1.0055803690e+00 -7.3840439566e-04 -4.8963662064e+03  5.0855099604e+01 
   -6.4202148617e-01 -3.5921171473e+03  1.0018506177e+01 ] stress_236 gradient
 [ -9.6911708269e-01  9.3140924532e-04 -4.8887055053e+03 -1.6617196592e+02 
    9.7646013106e+00 -3.5294383993e+03  7.2710146199e+01 ] stress_237 gradient
 [ -7.0338814159e-01  1.7353513159e-03 -4.8210477045e+03 -1.0003816073e+03 
    4.9943688901e+01 -3.0656133674e+03  5.3663602978e+02 ] stress_238 gradient
 [ -7.1012689451e-01  6.9206199045e-04 -4.8248552741e+03 -8.7845480052e+02 
    3.2506100698e+01 -3.0740543378e+03  5.2820653927e+02 ] stress_239 gradient
 [ -8.0035619612e-01 -3.0172296225e-04 -4.9084178105e+03  5.8482849098e+01 
   -8.8546421262e+01 -3.2098227634e+03  3.9262664272e+02 ] stress_240 gradient
 [ -7.5716165907e-01  1.1905408513e-03 -4.8999638544e+03 -1.6645491571e+02 
   -7.5754521704e+01 -3.1356692280e+03  4.6679082412e+02 ] stress_241 gradient
 [ -5.9735315955e-01  1.6702066586e-03 -4.8637845215e+03 -6.6086804376e+02 
   -4.4431663504e+01 -2.8581643392e+03  7.4433547306e+02 ] stress_242 gradient
 [ -6.2792056640e-01  1.4135770430e-04 -4.8800666920e+03 -3.0324425801e+02 
   -9.2737896581e+01 -2.9026933535e+03  6.9983660481e+02 ] stress_243 gradient
 [ -6.9108745383e-01 -3.0792281176e-04 -4.9256861943e+03  1.7261917578e+02 
   -1.4904495071e+02 -3.0035087332e+03  5.9908845885e+02 ] stress_244 gradient
 [ -7.9320734293e-01 -5.9331556151e-04 -5.0415307838e+03  6.0669052286e+02 
   -1.8385933667e+02 -3.1778486192e+03  4.2486421242e+02 ] stress_245 gradient
 [ -7.8894945057e-01  2.8699946237e-04 -5.0406913144e+03  5.7132557979e+02 
   -1.8184734095e+02 -3.1706906683e+03  4.3202257026e+02 ] stress_246 gradient
 [ -6.1403882466e-01  1.4913896001e-03 -5.0003112097e+03 -1.4726089351e+02 
   -1.3302896848e+02 -2.8699012220e+03  7.3283094371e+02 ] stress_247 gradient
 [ -2.2769997349e-02  1.3799466917e-03 -4.7831422401e+03 -1.1512153327e+03 
   -3.4866929924e+01 -1.8403132614e+03  1.7624983207e+03 ] stress_248 gradient
 [  4.3957330005e-01  8.6166048126e-04 -4.4285202843e+03 -1.1908041116e+03 
    6.5351547791e+00 -1.0286636374e+03  2.5742221552e+03 ] stress_249 gradient
 [  6.3801269777e-01  6.1017627689e-04 -4.1245954240e+03 -1.0090954209e+03 
    1.4887272330e+01 -6.7853160715e+02  2.9243886539e+03 ] stress_250 gradient
 [  6.9480373456e-01  5.3873645670e-04 -3.9951382743e+03 -9.2948256616e+02 
    1.5974457905e+01 -5.7807816878e+02  3.0248524623e+03 ] stress_251 gradient
 [  6.9444635745e-01  3.2335512431e-05 -3.9952067802e+03 -9.2564586120e+02 
    1.5538233586e+01 -5.7862532418e+02  3.0243053521e+03 ] stress_252 gradient
 [  6.3491256115e-01 -1.3767994951e-03 -4.0084603912e+03 -5.8300151106e+02 
   -2.2379529899e+01 -6.7672449664e+02  2.9262106906e+03 ] stress_253 gradient
 [  2.0676495452e-01 -1.9911213783e-03 -4.1437140112e+03  6.5634688992e+02 
   -1.4857077798e+02 -1.4114926960e+03  2.1914686551e+03 ] stress_254 gradient
 [ -2.9942106165e-01 -1.6370625214e-03 -4.4426966591e+03  1.1533020357e+03 
   -1.8026700843e+02 -2.3033784661e+03  1.2996023621e+03 ] stress_255 gradient
 [ -5.3662223422e-01 -1.3843947173e-03 -4.7115959674e+03  1.0976161028e+03 
   -1.5993359134e+02 -2.7282661024e+03  8.7472097763e+02 ] stress_256 gradient
 [ -5.8628832897e-01 -1.3289718406e-03 -4.7916641584e+03  1.0592434448e+03 
   -1.5242454890e+02 -2.8178762786e+03  7.8511191536e+02 ] stress_257 gradient
 [ -5.7293314671e-01 -2.5789339707e-05 -4.7884797207e+03  9.4552207282e+02 
   -1.4610394861e+02 -2.7954279302e+03  8.0755940737e+02 ] stress_258 gradient
 [ -2.8590113797e-01  1.1337510372e-03 -4.7008078626e+03 -2.4305978310e+02 
   -7.0211571998e+01 -2.3010245496e+03  1.3019548960e+03 ] stress_259 gradient
 [ -4.3834935682e-02  1.1418650706e-03 -4.5969931836e+03 -7.7863227408e+02 
   -2.8832219855e+01 -1.8796844873e+03  1.7232920847e+03 ] stress_260 gradient
 [ -5.0327001210e-02  1.2417335473e-04 -4.5987370506e+03 -7.1502463166e+02 
   -3.7201377703e+01 -1.8895220918e+03  1.7134545282e+03 ] stress_261 gradient
 [ -2.8488426452e-01 -1.0911240045e-03 -4.6910757274e+03  3.5672700960e+02 
   -1.6123368942e+02 -2.2809051563e+03  1.3220798054e+03 ] stress_262 gradient
 [ -6.0572437438e-01 -1.1074341536e-03 -4.9360838698e+03  8.7396859822e+02 
   -1.9033300773e+02 -2.8444183079e+03  7.5857307741e+02 ] stress_263 gradient
 [ -6.6378765535e-01 -1.0782329673e-03 -5.0108569885e+03  8.8233937249e+02 
   -1.8287687413e+02 -2.9489454580e+03  6.5404627695e+02 ] stress_264 gradient
 [ -6.6377163134e-01 -8.7597299297e-04 -5.0108542700e+03  8.8208902743e+02 
   -1.8286410303e+02 -2.9489199973e+03  6.5407223473e+02 ] stress_265 gradient
 [ -6.6264992963e-01 -4.2525218996e-04 -5.0106106934e+03  8.7000597946e+02 
   -1.8220712110e+02 -2.9470598686e+03  6.5593201004e+02 ] stress_266 gradient
 [ -6.4852524097e-01  2.2859704165e-04 -5.0074262558e+03  7.6306586361e+02 
   -1.7600383250e+02 -2.9232216657e+03  6.7977004052e+02 ] stress_267 gradient
 [ -5.7318516489e-01  9.0741181311e-04 -4.9888758327e+03  3.7161698158e+02 
   -1.5120675145e+02 -2.7944103011e+03  8.0857819045e+02 ] stress_268 gradient
 [ -3.6135337798e-01  1.2885236323e-03 -4.9256414480e+03 -3.3760990101e+02 
   -9.9810039664e+01 -2.4286428059e+03  1.1743393664e+03 ] stress_269 gradient
 [ -2.3521148962e-02  1.2239879853e-03 -4.7838457849e+03 -9.6851524879e+02 
   -4.1500969513e+01 -1.8407885277e+03  1.7621884247e+03 ] stress_270 gradient
 [  3.1685366844e-01  9.2908024817e-04 -4.5517477453e+03 -1.1899862235e+03 
   -2.4755866896e+00 -1.2447895219e+03  2.3581879074e+03 ] stress_271 gradient
 [  5.7153060857e-01  6.4832172451e-04 -4.2415698174e+03 -1.0959884289e+03 
    1.4349426537e+01 -7.9650050836e+02  2.8064800173e+03 ] stress_272 gradient
 [  7.3570238435e-01  4.6138893406e-04 -3.8720809907e+03 -8.9301930209e+02 
    1.8434536829e+01 -5.0621859243e+02  3.0967651056e+03 ] stress_273 gradient
 [  8.3609388597e-01  3.5743606148e-04 -3.4585515598e+03 -6.9385814853e+02 
    1.7385664555e+01 -3.2801616870e+02  3.2749704772e+03 ] stress_274 gradient
 [  8.9727448256e-01  3.0932585861e-04 -3.0120370747e+03 -5.3255788389e+02 
    1.4867203457e+01 -2.1904437939e+02  3.3839440456e+03 ] stress_275 gradient
 [  9.3525041484e-01  2.9595570402e-04 -2.5410105208e+03 -4.1056351738e+02 
    1.2278318858e+01 -1.5119910650e+02  3.4517905019e+03 ] stress_276 gradient
 [  9.5946196984e-01  3.0384887101e-04 -2.0525209393e+03 -3.2037616694e+02 
    1.0047572417e+01 -1.0782755557e+02  3.4951623631e+03 ] stress_277 gradient
 [  9.7534703157e-01  3.2478593283e-04 -1.5529633029e+03 -2.5391490368e+02 
    8.2439280807e+00 -7.9304084872e+01  3.5236867718e+03 ] stress_278 gradient
 [  9.8606370405e-01  3.5370541277e-04 -1.0483878802e+03 -2.0465698785e+02 
    6.8214098837e+00 -6.0018853889e+01  3.5429722065e+03 ] stress_279 gradient
 [  9.9348321738e-01  3.8737901841e-04 -5.4464648971e+02 -1.6779730676e+02 
    5.7084996624e+00 -4.6641503388e+01  3.5563496498e+03 ] stress_280 gradient
 [  9.9874181975e-01  4.2364576603e-04 -4.7442520845e+01 -1.3991191507e+02 
    4.8380579135e+00 -3.7144163640e+01  3.5658474029e+03 ] stress_281 gradient
 [  1.0025473563e+00  4.6097852325e-04  4.3767395992e+02 -1.1858441925e+02 
    4.1549864587e+00 -3.0259291249e+01  3.5727322056e+03 ] stress_282 gradient
 [  1.0053517250e+00  4.9823757012e-04  9.0531762650e+02 -1.0210827118e+02 
    3.6165933314e+00 -2.5179632296e+01  3.5778123434e+03 ] stress_283 gradient
 [  1.0074504545e+00  5.3453453321e-04  1.3503565160e+03 -8.9269338117e+01 
    3.1900385628e+00 -2.1373008265e+01  3.5816189525e+03 ] stress_284 gradient
 [  1.0090406193e+00  5.6914433739e-04  1.7678745134e+03 -7.9198669984e+01 
    2.8510570545e+00 -1.8485465522e+01  3.5845062566e+03 ] stress_285 gradient
 [  1.0102565713e+00  6.0146652230e-04  2.1533192376e+03 -7.1266789686e+01 
    2.5812219384e+00 -1.6275377052e+01  3.5867162624e+03 ] stress_286 gradient
 [  1.0111911042e+00  6.3099156266e-04  2.5024775748e+03 -6.5015369128e+01 
    2.3666674430e+00 -1.4575501006e+01  3.5884162975e+03 ] stress_287 gradient
 [  1.0119091881e+00  6.5728224829e-04  2.8114898148e+03 -6.0109132341e+01 
    2.1969942454e+00 -1.3268518488e+01  3.5897237710e+03 ] stress_288 gradient
 [  1.0124569804e+00  6.7997512743e-04  3.0770165661e+03 -5.6300561466e+01 
    2.0647221276e+00 -1.2270558958e+01  3.5907217479e+03 ] stress_289 gradient
 [  1.0128670287e+00  6.9876520666e-04  3.2961533953e+03 -5.3408991566e+01 
    1.9636479869e+00 -1.1523212572e+01  3.5914689327e+03 ] stress_290 gradient
 [  1.0131622451e+00  7.1340450737e-04  3.4664797603e+03 -5.1304233557e+01 
    1.8899404898e+00 -1.0985043298e+01  3.5920068579e+03 ] stress_291 gradient
 [  1.0133584248e+00  7.2370894613e-04  3.5861769919e+03 -4.9894518385e+01 
    1.8404980851e+00 -1.0627095832e+01  3.5923646759e+03 ] stress_292 gradient
 [  1.0134655360e+00  7.2954544013e-04  3.6539075938e+03 -4.9120957554e+01 
    1.8133138858e+00 -1.0431397918e+01  3.5925603577e+03 ] stress_293 gradient
 [  1.0134670967e+00  7.2963166008e-04  3.6549079976e+03 -4.9109660250e+01 
    1.8129489948e+00 -1.0428901775e+01  3.5925631531e+03 ] stress_294 gradient
 [  9.7582602470e-01 -9.8190786590e-04  3.6468841064e+03  1.7708376035e+02 
   -6.5968209522e+00 -7.5603796704e+01  3.5273903484e+03 ] stress_295 gradient
 [  6.3259404049e-01 -1.8050143507e-03  3.5546979803e+03  1.1761424291e+03 
   -4.4022860564e+01 -6.7759774867e+02  2.9254081958e+03 ] stress_296 gradient
 [  6.3261628265e-01 -1.1765837275e-03  3.5546986327e+03  1.1760739385e+03 
   -4.3958804371e+01 -6.7757094005e+02  2.9254349523e+03 ] stress_297 gradient
 [  8.2630910348e-01  4.1634459138e-04  3.5778138333e+03  5.9718082395e+02 
    3.6614563861e+02 -4.1642070596e+02  3.1865778366e+03 ] stress_298 gradient
 [  8.5447209680e-01  4.2275878792e-04  3.5833867351e+03  5.1319671675e+02 
    4.1325421608e+02 -3.7596465461e+02  3.2270332410e+03 ] stress_299 gradient
 [  8.5444895563e-01  2.1342208988e-04  3.5833823855e+03  5.1349896275e+02 
    4.1323797854e+02 -3.7600259604e+02  3.2269957021e+03 ] stress_300 gradient
 [  8.5350768015e-01 -1.6137627347e-04  3.5832007905e+03  5.2208408700e+02 
    4.1270943741e+02 -3.7756817938e+02  3.2254298487e+03 ] stress_301 gradient
 [  8.4435545077e-01 -6.7603835916e-04  3.5813919081e+03  5.8146276756e+02 
    4.0842746972e+02 -3.9296341503e+02  3.2100348867e+03 ] stress_302 gradient
 [  8.0007336189e-01 -1.2376366226e-03  3.5721436096e+03  7.8155002431e+02 
    3.9084585998e+02 -4.6807846617e+02  3.1349222478e+03 ] stress_303 gradient
 [  6.6895705391e-01 -1.6566115960e-03  3.5413504183e+03  1.1702713979e+03 
    3.4618459033e+02 -6.9193157274e+02  2.9110736691e+03 ] stress_304 gradient
 [  4.1673013331e-01 -1.7496963766e-03  3.4679472004e+03  1.5992925221e+03 
    2.7195384341e+02 -1.1247538110e+03  2.4782578290e+03 ] stress_305 gradient
 [  8.6995530959e-02 -1.5319449097e-03  3.3347059145e+03  1.8136303694e+03 
    1.8770726938e+02 -1.6929038051e+03  1.9101110474e+03 ] stress_306 gradient
 [ -2.2997523763e-01 -1.1890646234e-03  3.1379346353e+03  1.7374235314e+03 
    1.1716974240e+02 -2.2409313605e+03  1.3620819470e+03 ] stress_307 gradient
 [ -4.7808493381e-01 -8.7812680774e-04  2.8849645833e+03  1.4877309581e+03 
    6.8974161787e+01 -2.6711707357e+03  9.3183848327e+02 ] stress_308 gradient
 [ -6.5144564852e-01 -6.5350771978e-04  2.5860270624e+03  1.1975967455e+03 
    3.9549362850e+01 -2.9725764807e+03  6.3042828860e+02 ] stress_309 gradient
 [ -7.6659803373e-01 -5.0997844672e-04  2.2498674506e+03  9.3716560693e+02 
    2.2479509374e+01 -3.1732502174e+03  4.2975106457e+02 ] stress_310 gradient
 [ -8.4204593269e-01 -4.2650363020e-04  1.8829361781e+03  7.2700006241e+02 
    1.2733699828e+01 -3.3050098310e+03  2.9798895887e+02 ] stress_311 gradient
 [ -8.9176147297e-01 -3.8394162338e-04  1.4899438419e+03  5.6507415923e+02 
    7.1614860566e+00 -3.3919975553e+03  2.1099963594e+02 ] stress_312 gradient
 [ -9.2500928096e-01 -3.6859192224e-04  1.0746207523e+03  4.4256013969e+02 
    3.9488243994e+00 -3.4502731002e+03  1.5272241642e+02 ] stress_313 gradient
 [ -9.4766615294e-01 -3.7137814495e-04  6.4008120981e+02  3.5021594640e+02 
    2.0789527839e+00 -3.4900487019e+03  1.1294630720e+02 ] stress_314 gradient
 [ -9.6341621757e-01 -3.8641818560e-04  1.8913721922e+02  2.8036598586e+02 
    9.8246254796e-01 -3.5177394580e+03  8.5254544328e+01 ] stress_315 gradient
 [ -9.7458195780e-01 -4.0987876872e-04 -2.7553513923e+02  2.2714688785e+02 
    3.3788684166e-01 -3.5373976133e+03  6.5596116265e+01 ] stress_316 gradient
 [ -9.8264767587e-01 -4.3921380764e-04 -7.5134786432e+02  1.8622861262e+02 
   -3.9043079780e-02 -3.5516151668e+03  5.1378040156e+01 ] stress_317 gradient
 [ -9.8857724735e-01 -4.7268283336e-04 -1.2357287220e+03  1.5445833866e+02 
   -2.5578690641e-01 -3.5620795139e+03  4.0913459463e+01 ] stress_318 gradient
 [ -9.9300805338e-01 -5.0905528702e-04 -1.7261147213e+03  1.2954468981e+02 
   -3.7565281033e-01 -3.5699079298e+03  3.3084991470e+01 ] stress_319 gradient
 [ -9.9636920452e-01 -5.4742845730e-04 -2.2199613566e+03  1.0981646944e+02 
   -4.3731898450e-01 -3.5758522541e+03  2.7140659172e+01 ] stress_320 gradient
 [ -9.9895435643e-01 -5.8711099685e-04 -2.7147050932e+03  9.4048534814e+01 
   -4.6340851917e-01 -3.5804281906e+03  2.2564501707e+01 ] stress_321 gradient
 [ -1.0009681170e+00 -6.2755503369e-04 -3.2078144744e+03  8.1334170913e+01 
   -4.6833451500e-01 -3.5839961830e+03  1.8996704279e+01 ] stress_322 gradient
 [ -1.0025550354e+00 -6.6830671023e-04 -3.6967504318e+03  7.0997803500e+01 
   -4.6103674141e-01 -3.5868098397e+03  1.6182481256e+01 ] stress_323 gradient
 [ -1.0038188721e+00 -7.0898058675e-04 -4.1790163053e+03  6.2530582653e+01 
   -4.4680608726e-01 -3.5890523781e+03  1.3940128154e+01 ] stress_324 gradient
 [ -1.0048351067e+00 -7.4924126185e-04 -4.6521752417e+03  5.5545963559e+01 
   -4.2910899077e-01 -3.5908565931e+03  1.2135463215e+01 ] stress_325 gradient
 [ -1.0056593028e+00 -7.8878475248e-04 -5.1137871256e+03  4.9748595821e+01 
   -4.0995233873e-01 -3.5923213321e+03  1.0671044906e+01 ] stress_326 gradient
 [ -1.0063329357e+00 -8.2734046657e-04 -5.5615385231e+03  4.4909671663e+01 
   -3.9079568669e-01 -3.5935189834e+03  9.4733927333e+00 ] stress_327 gradient
 [ -1.0068871376e+00 -8.6465282354e-04 -5.9930996894e+03  4.0852008432e+01 
   -3.7236881450e-01 -3.5945049614e+03  8.4873963297e+00 ] stress_328 gradient
 [ -1.0073457365e+00 -9.0049366770e-04 -6.4063192125e+03  3.7435832146e+01 
   -3.5503660482e-01 -3.5953212015e+03  7.6711238901e+00 ] stress_329 gradient
 [ -1.0077269832e+00 -9.3464836334e-04 -6.7990995065e+03  3.4551203825e+01 
   -3.3916395069e-01 -3.5960001534e+03  6.9922280341e+00 ] stress_330 gradient
 [ -1.0080449870e+00 -9.6691550604e-04 -7.1694169286e+03  3.2111031936e+01 
   -3.2475085210e-01 -3.5965667788e+03  6.4255496598e+00 ] stress_331 gradient
 [ -1.0083107775e+00 -9.9711375486e-04 -7.5154201878e+03  3.0045486953e+01 
   -3.1143241603e-01 -3.5970400482e+03  5.9519199593e+00 ] stress_332 gradient
 [ -1.0085329910e+00 -1.0250715359e-03 -7.8353254120e+03  2.8298898331e+01 
   -2.9993842854e-01 -3.5974364364e+03  5.5557642552e+00 ] stress_333 gradient
 [ -1.0087184742e+00 -1.0506356068e-03 -8.1275237995e+03  2.6826375659e+01 
   -2.8972154593e-01 -3.5977669262e+03  5.2251020362e+00 ] stress_334 gradient
 [ -1.0088726377e+00 -1.0736688911e-03 -8.3905631336e+03  2.5591728489e+01 
   -2.8078177649e-01 -3.5980420016e+03  4.9499495364e+00 ] stress_335 gradient
 [ -1.0089996852e+00 -1.0940395572e-03 -8.6230287129e+03  2.4566374522e+01 
   -2.7330155846e-01 -3.5982691510e+03  4.7231184500e+00 ] stress_336 gradient
 [ -1.0091030505e+00 -1.1116441121e-03 -8.8238130251e+03  2.3726857199e+01 
   -2.6691600917e-01 -3.5984533666e+03  4.5386185146e+00 ] stress_337 gradient
 [ -1.0091852932e+00 -1.1263854141e-03 -8.9918640149e+03  2.3055041069e+01 
   -2.6180756890e-01 -3.5986001400e+03  4.3920568757e+00 ] stress_338 gradient
 [ -1.0092484944e+00 -1.1381841235e-03 -9.1263220964e+03  2.2536721180e+01 
   -2.5761134877e-01 -3.5987129659e+03  4.2790406878e+00 ] stress_339 gradient
 [ -1.0092941316e+00 -1.1469798093e-03 -9.2265315701e+03  2.2161059933e+01 
   -2.5469224183e-01 -3.5987948395e+03  4.1975731833e+00 ] stress_340 gradient
 [ -1.0093232870e+00 -1.1527245984e-03 -9.2919704860e+03  2.1920506638e+01 
   -2.5268535295e-01 -3.5988467594e+03  4.1456576170e+00 ] stress_341 gradient
 [ -1.0093366265e+00 -1.1553870243e-03 -9.3222952273e+03  2.1810280340e+01 
   -2.5177313281e-01 -3.5988702231e+03  4.1216965857e+00 ] stress_342 gradient



---------------------
Begin Evaluation  142
---------------------
Parameters for evaluation 142:
                      4.8052883289e+02 fy
                      2.0784053164e+05 E
                      1.8392572101e-02 b
                      8.7011903563e-01 cR1
                      5.4811228727e-02 cR2
                      2.0030869453e-02 a1
                      2.5040656223e-02 a3

blocking fork: workflow_driver1 paramsDakota.in results.out

Active response data for evaluation 142:
Active set vector = { 1 1 1 1 1 1 1 1 1 1 1 1 1 1 1 1 1 1 1 1 1 1 1 1 1 1 1 1 1 1 1 1 1 1 1 1 1 1 1 1 1 1 1 1 1 1 1 1 1 1 1 1 1 1 1 1 1 1 1 1 1 1 1 1 1 1 1 1 1 1 1 1 1 1 1 1 1 1 1 1 1 1 1 1 1 1 1 1 1 1 1 1 1 1 1 1 1 1 1 1 1 1 1 1 1 1 1 1 1 1 1 1 1 1 1 1 1 1 1 1 1 1 1 1 1 1 1 1 1 1 1 1 1 1 1 1 1 1 1 1 1 1 1 1 1 1 1 1 1 1 1 1 1 1 1 1 1 1 1 1 1 1 1 1 1 1 1 1 1 1 1 1 1 1 1 1 1 1 1 1 1 1 1 1 1 1 1 1 1 1 1 1 1 1 1 1 1 1 1 1 1 1 1 1 1 1 1 1 1 1 1 1 1 1 1 1 1 1 1 1 1 1 1 1 1 1 1 1 1 1 1 1 1 1 1 1 1 1 1 1 1 1 1 1 1 1 1 1 1 1 1 1 1 1 1 1 1 1 1 1 1 1 1 1 1 1 1 1 1 1 1 1 1 1 1 1 1 1 1 1 1 1 1 1 1 1 1 1 1 1 1 1 1 1 1 1 1 1 1 1 1 1 1 1 1 1 1 1 1 1 1 1 1 1 1 1 1 1 1 1 1 1 1 1 1 1 1 1 1 1 1 1 1 1 1 1 1 1 1 1 1 1 }
                      2.4220149734e+00 stress_1
                     -2.5171559568e+02 stress_2
                     -4.9424618566e+02 stress_3
                     -4.9576580163e+02 stress_4
                     -1.6682231370e+02 stress_5
                      2.5329554325e+02 stress_6
                      4.0135430666e+02 stress_7
                      4.0222254921e+02 stress_8
                      1.5256123910e+02 stress_9
                     -2.3138386896e+02 stress_10
                     -4.3993788498e+02 stress_11
                     -4.8922598123e+02 stress_12
                     -5.0314254773e+02 stress_13
                     -5.0413581717e+02 stress_14
                     -1.7338138272e+02 stress_15
                     -3.4134520516e+02 stress_16
                     -5.0981016807e+02 stress_17
                     -3.1501104598e+02 stress_18
                      2.1458761860e+01 stress_19
                      2.9856990490e+02 stress_20
                      4.1856441704e+02 stress_21
                      4.6350597685e+02 stress_22
                      4.8206783254e+02 stress_23
                      4.8819088615e+02 stress_24
                      1.5749335517e+02 stress_25
                      2.8560583913e+02 stress_26
                      4.2948137238e+02 stress_27
                      4.6525795345e+02 stress_28
                      3.4238715141e+02 stress_29
                      1.2874939457e+02 stress_30
                     -1.2500499258e+02 stress_31
                     -3.2064224897e+02 stress_32
                     -4.2446394993e+02 stress_33
                     -4.7426592060e+02 stress_34
                     -5.0121956251e+02 stress_35
                     -5.1870432038e+02 stress_36
                     -5.3170304881e+02 stress_37
                     -5.4201826915e+02 stress_38
                     -5.5025685200e+02 stress_39
                     -5.5656363061e+02 stress_40
                     -5.6092426047e+02 stress_41
                     -5.6327943636e+02 stress_42
                     -5.4781263128e+02 stress_43
                     -1.6075572246e+02 stress_44
                      1.0636292602e+02 stress_45
                     -9.9842709281e+01 stress_46
                     -4.5322194863e+02 stress_47
                     -1.5680405075e+02 stress_48
                     -2.5974015951e+02 stress_49
                     -4.1954829891e+02 stress_50
                     -5.6864159976e+02 stress_51
                     -3.9866907649e+02 stress_52
                     -6.1066302210e+01 stress_53
                      2.2649873578e+02 stress_54
                      3.5826858963e+02 stress_55
                      4.0782183218e+02 stress_56
                      4.2287351953e+02 stress_57
                      3.3650441468e+02 stress_58
                      2.1673024345e+01 stress_59
                     -3.1591312079e+02 stress_60
                     -4.7141230486e+02 stress_61
                     -5.2133091929e+02 stress_62
                     -5.3234540540e+02 stress_63
                     -2.6387592146e+02 stress_64
                      1.1339864745e+02 stress_65
                      2.0042428964e+02 stress_66
                     -7.1901040674e+01 stress_67
                     -4.4065287928e+02 stress_68
                     -5.3484626203e+02 stress_69
                     -5.3592554367e+02 stress_70
                     -4.4052740616e+02 stress_71
                     -2.6828258694e+02 stress_72
                     -4.4795132614e+01 stress_73
                      1.6688354548e+02 stress_74
                      3.1135236442e+02 stress_75
                      3.9199232732e+02 stress_76
                      4.3621905994e+02 stress_77
                      4.6304474690e+02 stress_78
                      4.8166597505e+02 stress_79
                      4.9613197121e+02 stress_80
                      5.0818811678e+02 stress_81
                      5.1856221521e+02 stress_82
                      5.2752245165e+02 stress_83
                      5.3512875115e+02 stress_84
                      5.4134668323e+02 stress_85
                      5.4611040646e+02 stress_86
                      5.4935207315e+02 stress_87
                      5.5101585251e+02 stress_88
                      4.7728772700e+02 stress_89
                      4.3675547473e+01 stress_90
                     -1.5951574391e+02 stress_91
                      1.3071325066e+02 stress_92
                      4.7802941280e+02 stress_93
                      4.8437004463e+02 stress_94
                      4.2416524523e+02 stress_95
                      3.1598865086e+02 stress_96
                      1.6530112328e+02 stress_97
                     -1.0247613038e+01 stress_98
                     -1.7746672939e+02 stress_99
                     -3.0622119648e+02 stress_100
                     -3.9080450213e+02 stress_101
                     -4.4297611595e+02 stress_102
                     -4.7592434938e+02 stress_103
                     -4.9840000979e+02 stress_104
                     -5.1527936891e+02 stress_105
                     -5.2913876190e+02 stress_106
                     -5.4132161135e+02 stress_107
                     -5.5252624160e+02 stress_108
                     -5.6310925315e+02 stress_109
                     -5.7324216743e+02 stress_110
                     -5.8299298236e+02 stress_111
                     -5.9237006185e+02 stress_112
                     -6.0134914466e+02 stress_113
                     -6.0988681896e+02 stress_114
                     -6.1792901048e+02 stress_115
                     -6.2541742736e+02 stress_116
                     -6.3229220948e+02 stress_117
                     -6.3849690313e+02 stress_118
                     -6.4397798552e+02 stress_119
                     -6.4868574893e+02 stress_120
                     -6.5257893505e+02 stress_121
                     -6.5562157337e+02 stress_122
                     -6.5778527298e+02 stress_123
                     -6.5905083566e+02 stress_124
                     -6.5939079142e+02 stress_125
                     -5.5681453080e+02 stress_126
                     -3.0590898979e+02 stress_127
                      8.9152718717e-01 stress_128
                      2.1966128079e+02 stress_129
                      3.2866854197e+02 stress_130
                      3.7949991058e+02 stress_131
                      4.0432360231e+02 stress_132
                      4.1560049337e+02 stress_133
                      4.1622951563e+02 stress_134
                      1.1300994084e+01 stress_135
                     -1.0591001041e+01 stress_136
                      1.7452861372e+02 stress_137
                      1.3838850770e+02 stress_138
                     -3.3976969339e+01 stress_139
                     -3.2104246634e+02 stress_140
                     -5.3004931004e+02 stress_141
                     -6.1376420156e+02 stress_142
                     -6.4626463512e+02 stress_143
                     -6.6106151797e+02 stress_144
                     -6.6717546547e+02 stress_145
                     -6.4677466304e+02 stress_146
                     -4.0873069112e+02 stress_147
                     -5.7897897457e+01 stress_148
                      1.9428260640e+02 stress_149
                      3.0664950582e+02 stress_150
                      3.4822391990e+02 stress_151
                      3.5335752963e+02 stress_152
                      1.3690571658e+02 stress_153
                     -2.3149443706e+02 stress_154
                     -4.9339707324e+02 stress_155
                     -5.9023278766e+02 stress_156
                     -6.1726619345e+02 stress_157
                     -4.9453913904e+02 stress_158
                     -8.9472512431e+01 stress_159
                      9.3864544561e+01 stress_160
                     -7.2953181773e+01 stress_161
                     -4.6829889799e+02 stress_162
                     -6.2384983859e+02 stress_163
                     -6.3481526904e+02 stress_164
                     -5.9305206720e+02 stress_165
                     -5.1076210495e+02 stress_166
                     -3.8997479092e+02 stress_167
                     -2.3775972613e+02 stress_168
                     -7.1358978490e+01 stress_169
                      8.3528609201e+01 stress_170
                      2.0609712120e+02 stress_171
                      2.9187782897e+02 stress_172
                      3.4852177114e+02 stress_173
                      3.8604042674e+02 stress_174
                      4.1207952851e+02 stress_175
                      4.3145282063e+02 stress_176
                      4.4697745434e+02 stress_177
                      4.6026507551e+02 stress_178
                      4.7223209957e+02 stress_179
                      4.8340000308e+02 stress_180
                      4.9406284617e+02 stress_181
                      5.0437991449e+02 stress_182
                      5.1443094689e+02 stress_183
                      5.2424604470e+02 stress_184
                      5.3382532240e+02 stress_185
                      5.4314951242e+02 stress_186
                      5.5218750532e+02 stress_187
                      5.6090129349e+02 stress_188
                      5.6924830046e+02 stress_189
                      5.7718453094e+02 stress_190
                      5.8466573749e+02 stress_191
                      5.9164752522e+02 stress_192
                      5.9808906801e+02 stress_193
                      6.0395074805e+02 stress_194
                      6.0919538854e+02 stress_195
                      6.1379106768e+02 stress_196
                      6.1770771550e+02 stress_197
                      6.2092113953e+02 stress_198
                      6.2341081937e+02 stress_199
                      6.2515998521e+02 stress_200
                      6.2615800888e+02 stress_201
                      6.2620689381e+02 stress_202
                      2.6421128355e+02 stress_203
                     -7.9916314530e+01 stress_204
                      2.9010975782e+01 stress_205
                      4.6806960658e+02 stress_206
                      4.8724514058e+02 stress_207
                      4.2241774137e+02 stress_208
                      3.0530723483e+02 stress_209
                      1.4336966718e+02 stress_210
                     -4.0004696092e+01 stress_211
                     -2.0581013828e+02 stress_212
                     -3.2619858282e+02 stress_213
                     -4.0206747576e+02 stress_214
                     -4.4826367991e+02 stress_215
                     -4.7779839783e+02 stress_216
                     -4.9850237222e+02 stress_217
                     -5.1454284011e+02 stress_218
                     -5.2806061839e+02 stress_219
                     -5.4014796814e+02 stress_220
                     -5.5135733010e+02 stress_221
                     -5.6195618976e+02 stress_222
                     -5.7205845254e+02 stress_223
                     -5.8169256375e+02 stress_224
                     -5.9083992280e+02 stress_225
                     -5.9945531833e+02 stress_226
                     -6.0747970098e+02 stress_227
                     -6.1484934791e+02 stress_228
                     -6.2149756889e+02 stress_229
                     -6.2736267644e+02 stress_230
                     -6.3238732378e+02 stress_231
                     -6.3651954190e+02 stress_232
                     -6.3971849399e+02 stress_233
                     -6.4195066369e+02 stress_234
                     -6.4319173497e+02 stress_235
                     -6.3669900739e+02 stress_236
                     -2.7206842141e+02 stress_237
                      2.3012051392e+01 stress_238
                     -1.9707221155e+02 stress_239
                     -4.4708477266e+02 stress_240
                     -1.1611245492e+02 stress_241
                      6.0559312522e+01 stress_242
                     -2.7192851417e+02 stress_243
                     -3.9574314290e+02 stress_244
                     -5.0425104586e+02 stress_245
                     -3.1923363866e+02 stress_246
                      1.5340298971e+01 stress_247
                      2.7655882890e+02 stress_248
                      3.9086365524e+02 stress_249
                      4.3380939355e+02 stress_250
                      4.4620226302e+02 stress_251
                      3.4077931382e+02 stress_252
                      1.9208708552e+01 stress_253
                     -3.1461871183e+02 stress_254
                     -4.8440947556e+02 stress_255
                     -5.4583999564e+02 stress_256
                     -5.5817167942e+02 stress_257
                     -2.8088083894e+02 stress_258
                      9.8348824551e+01 stress_259
                      2.1650025688e+02 stress_260
                      1.8550914514e+00 stress_261
                     -3.6364305464e+02 stress_262
                     -5.2130981375e+02 stress_263
                     -5.4314420926e+02 stress_264
                     -5.0109866519e+02 stress_265
                     -4.0687994763e+02 stress_266
                     -2.6417620623e+02 stress_267
                     -8.6792520878e+01 stress_268
                      9.4409922051e+01 stress_269
                      2.4350063451e+02 stress_270
                      3.4577549937e+02 stress_271
                      4.0971697846e+02 stress_272
                      4.4966082196e+02 stress_273
                      4.7622520725e+02 stress_274
                      4.9557679357e+02 stress_275
                      5.1101475738e+02 stress_276
                      5.2426873928e+02 stress_277
                      5.3623958326e+02 stress_278
                      5.4739036722e+02 stress_279
                      5.5794777887e+02 stress_280
                      5.6800767136e+02 stress_281
                      5.7759216912e+02 stress_282
                      5.8668117215e+02 stress_283
                      5.9523175848e+02 stress_284
                      6.0318778500e+02 stress_285
                      6.1048884320e+02 stress_286
                      6.1707357817e+02 stress_287
                      6.2288226300e+02 stress_288
                      6.2786148839e+02 stress_289
                      6.3196350697e+02 stress_290
                      6.3514775411e+02 stress_291
                      6.3738351954e+02 stress_292
                      6.3864795330e+02 stress_293
                      6.3866662337e+02 stress_294
                      2.6479628561e+02 stress_295
                     -7.1571633187e+01 stress_296
                      5.9052575189e+01 stress_297
                      4.8352248971e+02 stress_298
                      4.9840484228e+02 stress_299
                      4.5488503427e+02 stress_300
                      3.7653291562e+02 stress_301
                      2.6515308080e+02 stress_302
                      1.2708720767e+02 stress_303
                     -2.3156672755e+01 stress_304
                     -1.6391422469e+02 stress_305
                     -2.7722137551e+02 stress_306
                     -3.5824152796e+02 stress_307
                     -4.1272928770e+02 stress_308
                     -4.4922901409e+02 stress_309
                     -4.7463343006e+02 stress_310
                     -4.9346662912e+02 stress_311
                     -5.0845942413e+02 stress_312
                     -5.2121025743e+02 stress_313
                     -5.3265190557e+02 stress_314
                     -5.4332873490e+02 stress_315
                     -5.5355773181e+02 stress_316
                     -5.6352143773e+02 stress_317
                     -5.7332027540e+02 stress_318
                     -5.8300403698e+02 stress_319
                     -5.9259083591e+02 stress_320
                     -6.0207777295e+02 stress_321
                     -6.1144905622e+02 stress_322
                     -6.2067964636e+02 stress_323
                     -6.2973919120e+02 stress_324
                     -6.3859417774e+02 stress_325
                     -6.4720802784e+02 stress_326
                     -6.5554440274e+02 stress_327
                     -6.6356509889e+02 stress_328
                     -6.7123412956e+02 stress_329
                     -6.7851562598e+02 stress_330
                     -6.8537448427e+02 stress_331
                     -6.9177832885e+02 stress_332
                     -6.9769561359e+02 stress_333
                     -7.0309779329e+02 stress_334
                     -7.0795894614e+02 stress_335
                     -7.1225369423e+02 stress_336
                     -7.1596218219e+02 stress_337
                     -7.1906545894e+02 stress_338
                     -7.2154799962e+02 stress_339
                     -7.2339797946e+02 stress_340
                     -7.2460595987e+02 stress_341
                     -7.2516571246e+02 stress_342



------------------------------------------
Begin Dakota derivative estimation routine
------------------------------------------

>>>>> map at X performed previously and results retrieved

>>>>> Dakota finite difference gradient evaluation for x[1] + h:

---------------------
Begin Evaluation  143
---------------------
Parameters for evaluation 143:
                      4.8100935069e+02 fy
                      2.0784052872e+05 E
                      1.8392572411e-02 b
                      8.7011903122e-01 cR1
                      5.4811249634e-02 cR2
                      2.0030872338e-02 a1
                      2.5040659319e-02 a3

Duplication detected: analysis_drivers not invoked.


>>>>> Dakota finite difference gradient evaluation for x[2] + h:

---------------------
Begin Evaluation  144
---------------------
Parameters for evaluation 144:
                      4.8052882187e+02 fy
                      2.0804836925e+05 E
                      1.8392572411e-02 b
                      8.7011903122e-01 cR1
                      5.4811249634e-02 cR2
                      2.0030872338e-02 a1
                      2.5040659319e-02 a3

Duplication detected: analysis_drivers not invoked.


>>>>> Dakota finite difference gradient evaluation for x[3] + h:

---------------------
Begin Evaluation  145
---------------------
Parameters for evaluation 145:
                      4.8052882187e+02 fy
                      2.0784052872e+05 E
                      1.8410964983e-02 b
                      8.7011903122e-01 cR1
                      5.4811249634e-02 cR2
                      2.0030872338e-02 a1
                      2.5040659319e-02 a3

Duplication detected: analysis_drivers not invoked.


>>>>> Dakota finite difference gradient evaluation for x[4] + h:

---------------------
Begin Evaluation  146
---------------------
Parameters for evaluation 146:
                      4.8052882187e+02 fy
                      2.0784052872e+05 E
                      1.8392572411e-02 b
                      8.7098915025e-01 cR1
                      5.4811249634e-02 cR2
                      2.0030872338e-02 a1
                      2.5040659319e-02 a3

Duplication detected: analysis_drivers not invoked.


>>>>> Dakota finite difference gradient evaluation for x[5] + h:

---------------------
Begin Evaluation  147
---------------------
Parameters for evaluation 147:
                      4.8052882187e+02 fy
                      2.0784052872e+05 E
                      1.8392572411e-02 b
                      8.7011903122e-01 cR1
                      5.4866060884e-02 cR2
                      2.0030872338e-02 a1
                      2.5040659319e-02 a3

Duplication detected: analysis_drivers not invoked.


>>>>> Dakota finite difference gradient evaluation for x[6] + h:

---------------------
Begin Evaluation  148
---------------------
Parameters for evaluation 148:
                      4.8052882187e+02 fy
                      2.0784052872e+05 E
                      1.8392572411e-02 b
                      8.7011903122e-01 cR1
                      5.4811249634e-02 cR2
                      2.0050903210e-02 a1
                      2.5040659319e-02 a3

Duplication detected: analysis_drivers not invoked.


>>>>> Dakota finite difference gradient evaluation for x[7] + h:

---------------------
Begin Evaluation  149
---------------------
Parameters for evaluation 149:
                      4.8052882187e+02 fy
                      2.0784052872e+05 E
                      1.8392572411e-02 b
                      8.7011903122e-01 cR1
                      5.4811249634e-02 cR2
                      2.0030872338e-02 a1
                      2.5065699978e-02 a3

Duplication detected: analysis_drivers not invoked.



Blocking synchronize of 0 asynchronous evaluations, 0 cached evaluations, and 7 duplicates

Active response data for evaluation 143:
Active set vector = { 1 1 1 1 1 1 1 1 1 1 1 1 1 1 1 1 1 1 1 1 1 1 1 1 1 1 1 1 1 1 1 1 1 1 1 1 1 1 1 1 1 1 1 1 1 1 1 1 1 1 1 1 1 1 1 1 1 1 1 1 1 1 1 1 1 1 1 1 1 1 1 1 1 1 1 1 1 1 1 1 1 1 1 1 1 1 1 1 1 1 1 1 1 1 1 1 1 1 1 1 1 1 1 1 1 1 1 1 1 1 1 1 1 1 1 1 1 1 1 1 1 1 1 1 1 1 1 1 1 1 1 1 1 1 1 1 1 1 1 1 1 1 1 1 1 1 1 1 1 1 1 1 1 1 1 1 1 1 1 1 1 1 1 1 1 1 1 1 1 1 1 1 1 1 1 1 1 1 1 1 1 1 1 1 1 1 1 1 1 1 1 1 1 1 1 1 1 1 1 1 1 1 1 1 1 1 1 1 1 1 1 1 1 1 1 1 1 1 1 1 1 1 1 1 1 1 1 1 1 1 1 1 1 1 1 1 1 1 1 1 1 1 1 1 1 1 1 1 1 1 1 1 1 1 1 1 1 1 1 1 1 1 1 1 1 1 1 1 1 1 1 1 1 1 1 1 1 1 1 1 1 1 1 1 1 1 1 1 1 1 1 1 1 1 1 1 1 1 1 1 1 1 1 1 1 1 1 1 1 1 1 1 1 1 1 1 1 1 1 1 1 1 1 1 1 1 1 1 1 1 1 1 1 1 1 1 1 1 1 1 1 1 }
                      2.4220149393e+00 stress_1
                     -2.5171560173e+02 stress_2
                     -4.9472579643e+02 stress_3
                     -4.9624662032e+02 stress_4
                     -1.6729481271e+02 stress_5
                      2.5315433918e+02 stress_6
                      4.0157543572e+02 stress_7
                      4.0244615982e+02 stress_8
                      1.5278145189e+02 stress_9
                     -2.3137934490e+02 stress_10
                     -4.4034126269e+02 stress_11
                     -4.8970468016e+02 stress_12
                     -5.0362786449e+02 stress_13
                     -5.0462128977e+02 stress_14
                     -1.7385151291e+02 stress_15
                     -3.4181533315e+02 stress_16
                     -5.1028621753e+02 stress_17
                     -3.1548515580e+02 stress_18
                      2.1074781172e+01 stress_19
                      2.9854050157e+02 stress_20
                      4.1881506027e+02 stress_21
                      4.6386889316e+02 stress_22
                      4.8247133802e+02 stress_23
                      4.8860615041e+02 stress_24
                      1.5789270041e+02 stress_25
                      2.8600518228e+02 stress_26
                      4.2987947215e+02 stress_27
                      4.6565726133e+02 stress_28
                      3.4278605309e+02 stress_29
                      1.2913051076e+02 stress_30
                     -1.2475416370e+02 stress_31
                     -3.2066525489e+02 stress_32
                     -4.2471186450e+02 stress_33
                     -4.7462920560e+02 stress_34
                     -5.0163559955e+02 stress_35
                     -5.1914521714e+02 stress_36
                     -5.3215647148e+02 stress_37
                     -5.4247843175e+02 stress_38
                     -5.5072082790e+02 stress_39
                     -5.5702981341e+02 stress_40
                     -5.6139168541e+02 stress_41
                     -5.6374745117e+02 stress_42
                     -5.4828064610e+02 stress_43
                     -1.6119199535e+02 stress_44
                      1.0609750620e+02 stress_45
                     -1.0010826784e+02 stress_46
                     -4.5360725504e+02 stress_47
                     -1.5717514305e+02 stress_48
                     -2.6011125447e+02 stress_49
                     -4.1992611420e+02 stress_50
                     -5.6912935479e+02 stress_51
                     -3.9915548055e+02 stress_52
                     -6.1479953162e+01 stress_53
                      2.2638723536e+02 stress_54
                      3.5842289414e+02 stress_55
                      4.0809388231e+02 stress_56
                      4.2318127261e+02 stress_57
                      3.3681209015e+02 stress_58
                      2.1952068824e+01 stress_59
                     -3.1588811437e+02 stress_60
                     -4.7165806814e+02 stress_61
                     -5.2167917804e+02 stress_62
                     -5.3271552717e+02 stress_63
                     -2.6423885824e+02 stress_64
                      1.1320513859e+02 stress_65
                      2.0033260521e+02 stress_66
                     -7.1998883989e+01 stress_67
                     -4.4097062498e+02 stress_68
                     -5.3528947893e+02 stress_69
                     -5.3637004951e+02 stress_70
                     -4.4097173764e+02 stress_71
                     -2.6871940188e+02 stress_72
                     -4.5168872458e+01 stress_73
                      1.6669881054e+02 stress_74
                      3.1141249189e+02 stress_75
                      3.9223322296e+02 stress_76
                      4.3656307674e+02 stress_77
                      4.6344380043e+02 stress_78
                      4.8209486160e+02 stress_79
                      4.9657772334e+02 stress_80
                      5.0864385619e+02 stress_81
                      5.1902412364e+02 stress_82
                      5.2798830324e+02 stress_83
                      5.3559718304e+02 stress_84
                      5.4181681668e+02 stress_85
                      5.4658164231e+02 stress_86
                      5.4982397430e+02 stress_87
                      5.5148807121e+02 stress_88
                      4.7775988583e+02 stress_89
                      4.4078877990e+01 stress_90
                     -1.5927659268e+02 stress_91
                      1.3095494289e+02 stress_92
                      4.7847865597e+02 stress_93
                      4.8482756692e+02 stress_94
                      4.2462273233e+02 stress_95
                      3.1644463585e+02 stress_96
                      1.6574280050e+02 stress_97
                     -9.8682558454e+00 stress_98
                     -1.7723352733e+02 stress_99
                     -3.0618685052e+02 stress_100
                     -3.9094871786e+02 stress_101
                     -4.4324526229e+02 stress_102
                     -4.7627149877e+02 stress_103
                     -4.9879426867e+02 stress_104
                     -5.1570224227e+02 stress_105
                     -5.2957941117e+02 stress_106
                     -5.4177361912e+02 stress_107
                     -5.5298572096e+02 stress_108
                     -5.6357378556e+02 stress_109
                     -5.7371020612e+02 stress_110
                     -5.8346351120e+02 stress_111
                     -5.9284239616e+02 stress_112
                     -6.0182281225e+02 stress_113
                     -6.1036148687e+02 stress_114
                     -6.1840443891e+02 stress_115
                     -6.2589344017e+02 stress_116
                     -6.3276867463e+02 stress_117
                     -6.3897371977e+02 stress_118
                     -6.4445507497e+02 stress_119
                     -6.4916304837e+02 stress_120
                     -6.5305639314e+02 stress_121
                     -6.5609914691e+02 stress_122
                     -6.5826292440e+02 stress_123
                     -6.5952853110e+02 stress_124
                     -6.5986849849e+02 stress_125
                     -5.5729204958e+02 stress_126
                     -3.0636987725e+02 stress_127
                      5.7468301647e-01 stress_128
                      2.1962960850e+02 stress_129
                      3.2885612881e+02 stress_130
                      3.7980128127e+02 stress_131
                      4.0467838824e+02 stress_132
                      4.1597779643e+02 stress_133
                      4.1660802784e+02 stress_134
                      1.1654745316e+01 stress_135
                     -1.0242614034e+01 stress_136
                      1.7488233907e+02 stress_137
                      1.3874222689e+02 stress_138
                     -3.3628233429e+01 stress_139
                     -3.2081682155e+02 stress_140
                     -5.3015905140e+02 stress_141
                     -6.1408612269e+02 stress_142
                     -6.4666676311e+02 stress_143
                     -6.6149319529e+02 stress_144
                     -6.6761717282e+02 stress_145
                     -6.4721637017e+02 stress_146
                     -4.0916732666e+02 stress_147
                     -5.8226683202e+01 stress_148
                      1.9423053581e+02 stress_149
                      3.0680312297e+02 stress_150
                      3.4846509201e+02 stress_151
                      3.5360972561e+02 stress_152
                      1.3715568999e+02 stress_153
                     -2.3134308551e+02 stress_154
                     -4.9353745982e+02 stress_155
                     -5.9054483682e+02 stress_156
                     -6.1762825935e+02 stress_157
                     -4.9490083947e+02 stress_158
                     -8.9762305638e+01 stress_159
                      9.3713651130e+01 stress_160
                     -7.3104596695e+01 stress_161
                     -4.6857531891e+02 stress_162
                     -6.2430165481e+02 stress_163
                     -6.3527868583e+02 stress_164
                     -5.9351547677e+02 stress_165
                     -5.1122511834e+02 stress_166
                     -3.9043344494e+02 stress_167
                     -2.3819567951e+02 stress_168
                     -7.1725050318e+01 stress_169
                      8.3298328827e+01 stress_170
                      2.0604183439e+02 stress_171
                      2.9198614215e+02 stress_172
                      3.4875439549e+02 stress_173
                      3.8635770508e+02 stress_174
                      4.1245194566e+02 stress_175
                      4.3186085331e+02 stress_176
                      4.4740871831e+02 stress_177
                      4.6071176968e+02 stress_178
                      4.7268926096e+02 stress_179
                      4.8386442062e+02 stress_180
                      4.9453240078e+02 stress_181
                      5.0485317834e+02 stress_182
                      5.1490693851e+02 stress_183
                      5.2472407619e+02 stress_184
                      5.3430490288e+02 stress_185
                      5.4363028548e+02 stress_186
                      5.5266920798e+02 stress_187
                      5.6138372881e+02 stress_188
                      5.6973131875e+02 stress_189
                      5.7766801687e+02 stress_190
                      5.8514960102e+02 stress_191
                      5.9213169506e+02 stress_192
                      5.9857348705e+02 stress_193
                      6.0443536982e+02 stress_194
                      6.0968017470e+02 stress_195
                      6.1427598612e+02 stress_196
                      6.1819273883e+02 stress_197
                      6.2140624394e+02 stress_198
                      6.2389598372e+02 stress_199
                      6.2564519024e+02 stress_200
                      6.2664323661e+02 stress_201
                      6.2669212264e+02 stress_202
                      2.6467977782e+02 stress_203
                     -7.9617451802e+01 stress_204
                      2.9309838327e+01 stress_205
                      4.6844767685e+02 stress_206
                      4.8764021359e+02 stress_207
                      4.2281276700e+02 stress_208
                      3.0570028375e+02 stress_209
                      1.4374445261e+02 stress_210
                     -3.9704582946e+01 stress_211
                     -2.0566834695e+02 stress_212
                     -3.2624928214e+02 stress_213
                     -4.0227607366e+02 stress_214
                     -4.4857686925e+02 stress_215
                     -4.7817521591e+02 stress_216
                     -4.9891728333e+02 stress_217
                     -5.1498090668e+02 stress_218
                     -5.2851314884e+02 stress_219
                     -5.4060981270e+02 stress_220
                     -5.5182535529e+02 stress_221
                     -5.6242843242e+02 stress_222
                     -5.7253364683e+02 stress_223
                     -5.8216987066e+02 stress_224
                     -5.9131877176e+02 stress_225
                     -5.9993531173e+02 stress_226
                     -6.0796055525e+02 stress_227
                     -6.1533085633e+02 stress_228
                     -6.2197957721e+02 stress_229
                     -6.2784506703e+02 stress_230
                     -6.3287000465e+02 stress_231
                     -6.3700243905e+02 stress_232
                     -6.4020154609e+02 stress_233
                     -6.4243381797e+02 stress_234
                     -6.4367494408e+02 stress_235
                     -6.3718221658e+02 stress_236
                     -2.7253411269e+02 stress_237
                      2.2674052547e+01 stress_238
                     -1.9741344638e+02 stress_239
                     -4.4746936886e+02 stress_240
                     -1.1647629804e+02 stress_241
                      6.0272263324e+01 stress_242
                     -2.7223024993e+02 stress_243
                     -3.9607523405e+02 stress_244
                     -5.0463221030e+02 stress_245
                     -3.1961275945e+02 stress_246
                      1.5045228312e+01 stress_247
                      2.7654788646e+02 stress_248
                      3.9107488449e+02 stress_249
                      4.3411597877e+02 stress_250
                      4.4653613786e+02 stress_251
                      3.4111301839e+02 stress_252
                      1.9513807308e+01 stress_253
                     -3.1451935633e+02 stress_254
                     -4.8455336076e+02 stress_255
                     -5.4609786291e+02 stress_256
                     -5.5845341253e+02 stress_257
                     -2.8115615769e+02 stress_258
                      9.8211436179e+01 stress_259
                      2.1647919138e+02 stress_260
                      1.8309088553e+00 stress_261
                     -3.6377995229e+02 stress_262
                     -5.2160088707e+02 stress_263
                     -5.4346318363e+02 stress_264
                     -5.0141763244e+02 stress_265
                     -4.0719837713e+02 stress_266
                     -2.6448784973e+02 stress_267
                     -8.7067961112e+01 stress_268
                      9.4236276042e+01 stress_269
                      2.4348933064e+02 stress_270
                      3.4592775795e+02 stress_271
                      4.0999161737e+02 stress_272
                      4.5001434993e+02 stress_273
                      4.7662697571e+02 stress_274
                      4.9600796057e+02 stress_275
                      5.1146417250e+02 stress_276
                      5.2472978843e+02 stress_277
                      5.3670826540e+02 stress_278
                      5.4786419885e+02 stress_279
                      5.5842517567e+02 stress_280
                      5.6848759498e+02 stress_281
                      5.7807392134e+02 stress_282
                      5.8716427190e+02 stress_283
                      5.9571586670e+02 stress_284
                      6.0367265732e+02 stress_285
                      6.1097429980e+02 stress_286
                      6.1755948383e+02 stress_287
                      6.2336851372e+02 stress_288
                      6.2834800233e+02 stress_289
                      6.3245021795e+02 stress_290
                      6.3563460695e+02 stress_291
                      6.3787046665e+02 stress_292
                      6.3913495188e+02 stress_293
                      6.3915362270e+02 stress_294
                      2.6526520118e+02 stress_295
                     -7.1267653083e+01 stress_296
                      5.9356564147e+01 stress_297
                      4.8391955953e+02 stress_298
                      4.9881544651e+02 stress_299
                      4.5529562799e+02 stress_300
                      3.7694305808e+02 stress_301
                      2.6555882651e+02 stress_302
                      1.2747167499e+02 stress_303
                     -2.2835211916e+01 stress_304
                     -1.6371396915e+02 stress_305
                     -2.7717957009e+02 stress_306
                     -3.5835203811e+02 stress_307
                     -4.1295902244e+02 stress_308
                     -4.4954205364e+02 stress_309
                     -4.7500180331e+02 stress_310
                     -4.9387125686e+02 stress_311
                     -5.0888794125e+02 stress_312
                     -5.2165475076e+02 stress_313
                     -5.3310728594e+02 stress_314
                     -5.4379168344e+02 stress_315
                     -5.5402604566e+02 stress_316
                     -5.6399362728e+02 stress_317
                     -5.7379531420e+02 stress_318
                     -5.8348120484e+02 stress_319
                     -5.9306961886e+02 stress_320
                     -6.0255779810e+02 stress_321
                     -6.1193004902e+02 stress_322
                     -6.2116140171e+02 stress_323
                     -6.3022155385e+02 stress_324
                     -6.3907702872e+02 stress_325
                     -6.4769127488e+02 stress_326
                     -6.5602797348e+02 stress_327
                     -6.6404893595e+02 stress_328
                     -6.7171818700e+02 stress_329
                     -6.7899986662e+02 stress_330
                     -6.8585887773e+02 stress_331
                     -6.9226285004e+02 stress_332
                     -6.9818024157e+02 stress_333
                     -7.0358251041e+02 stress_334
                     -7.0844373735e+02 stress_335
                     -7.1273854650e+02 stress_336
                     -7.1644708413e+02 stress_337
                     -7.1955040041e+02 stress_338
                     -7.2203297146e+02 stress_339
                     -7.2388297324e+02 stress_340
                     -7.2509096766e+02 stress_341
                     -7.2565072666e+02 stress_342


Active response data for evaluation 144:
Active set vector = { 1 1 1 1 1 1 1 1 1 1 1 1 1 1 1 1 1 1 1 1 1 1 1 1 1 1 1 1 1 1 1 1 1 1 1 1 1 1 1 1 1 1 1 1 1 1 1 1 1 1 1 1 1 1 1 1 1 1 1 1 1 1 1 1 1 1 1 1 1 1 1 1 1 1 1 1 1 1 1 1 1 1 1 1 1 1 1 1 1 1 1 1 1 1 1 1 1 1 1 1 1 1 1 1 1 1 1 1 1 1 1 1 1 1 1 1 1 1 1 1 1 1 1 1 1 1 1 1 1 1 1 1 1 1 1 1 1 1 1 1 1 1 1 1 1 1 1 1 1 1 1 1 1 1 1 1 1 1 1 1 1 1 1 1 1 1 1 1 1 1 1 1 1 1 1 1 1 1 1 1 1 1 1 1 1 1 1 1 1 1 1 1 1 1 1 1 1 1 1 1 1 1 1 1 1 1 1 1 1 1 1 1 1 1 1 1 1 1 1 1 1 1 1 1 1 1 1 1 1 1 1 1 1 1 1 1 1 1 1 1 1 1 1 1 1 1 1 1 1 1 1 1 1 1 1 1 1 1 1 1 1 1 1 1 1 1 1 1 1 1 1 1 1 1 1 1 1 1 1 1 1 1 1 1 1 1 1 1 1 1 1 1 1 1 1 1 1 1 1 1 1 1 1 1 1 1 1 1 1 1 1 1 1 1 1 1 1 1 1 1 1 1 1 1 1 1 1 1 1 1 1 1 1 1 1 1 1 1 1 1 1 1 }
                      2.4244369543e+00 stress_1
                     -2.5196729799e+02 stress_2
                     -4.9426077865e+02 stress_3
                     -4.9578072448e+02 stress_4
                     -1.6651667761e+02 stress_5
                      2.5368925277e+02 stress_6
                      4.0153414042e+02 stress_7
                      4.0240077487e+02 stress_8
                      1.5249323356e+02 stress_9
                     -2.3161966371e+02 stress_10
                     -4.3997474796e+02 stress_11
                     -4.8923672737e+02 stress_12
                     -5.0316050385e+02 stress_13
                     -5.0415460415e+02 stress_14
                     -1.7308482315e+02 stress_15
                     -3.4121660690e+02 stress_16
                     -5.0984404323e+02 stress_17
                     -3.1485207477e+02 stress_18
                      2.1863799886e+01 stress_19
                      2.9889712988e+02 stress_20
                      4.1873186770e+02 stress_21
                      4.6360630812e+02 stress_22
                      4.8214622241e+02 stress_23
                      4.8826366560e+02 stress_24
                      1.5725141956e+02 stress_25
                      2.8549201449e+02 stress_26
                      4.2951266884e+02 stress_27
                      4.6532383199e+02 stress_28
                      3.4233057031e+02 stress_29
                      1.2849702614e+02 stress_30
                     -1.2538051392e+02 stress_31
                     -3.2093936029e+02 stress_32
                     -4.2464013116e+02 stress_33
                     -4.7437670157e+02 stress_34
                     -5.0130463431e+02 stress_35
                     -5.1878205947e+02 stress_36
                     -5.3178128112e+02 stress_37
                     -5.4210008715e+02 stress_38
                     -5.5034310084e+02 stress_39
                     -5.5665398239e+02 stress_40
                     -5.6101773240e+02 stress_41
                     -5.6337467437e+02 stress_42
                     -5.4789240291e+02 stress_43
                     -1.6048028856e+02 stress_44
                      1.0673425569e+02 stress_45
                     -9.9677438411e+01 stress_46
                     -4.5328988002e+02 stress_47
                     -1.5658983305e+02 stress_48
                     -2.5962887229e+02 stress_49
                     -4.1959005250e+02 stress_50
                     -5.6872246831e+02 stress_51
                     -3.9858133291e+02 stress_52
                     -6.0713928938e+01 stress_53
                      2.2683609660e+02 stress_54
                      3.5847199252e+02 stress_55
                      4.0795718910e+02 stress_56
                      4.2298828182e+02 stress_57
                      3.3653288823e+02 stress_58
                      2.1415396781e+01 stress_59
                     -3.1625386458e+02 stress_60
                     -4.7163777349e+02 stress_61
                     -5.2150388858e+02 stress_62
                     -5.3250754557e+02 stress_63
                     -2.6377680682e+02 stress_64
                      1.1370523622e+02 stress_65
                      2.0071596549e+02 stress_66
                     -7.1875496254e+01 stress_67
                     -4.4077590825e+02 stress_68
                     -5.3493801379e+02 stress_69
                     -5.3601708504e+02 stress_70
                     -4.4052372701e+02 stress_71
                     -2.6811420803e+02 stress_72
                     -4.4466515882e+01 stress_73
                      1.6723453425e+02 stress_74
                      3.1160292162e+02 stress_75
                      3.9214293874e+02 stress_76
                      4.3631095104e+02 stress_77
                      4.6310853831e+02 stress_78
                      4.8171861964e+02 stress_79
                      4.9618225407e+02 stress_80
                      5.0824049119e+02 stress_81
                      5.1861880875e+02 stress_82
                      5.2758407126e+02 stress_83
                      5.3519540262e+02 stress_84
                      5.4141785493e+02 stress_85
                      5.4618524197e+02 stress_86
                      5.4942948654e+02 stress_87
                      5.5109461285e+02 stress_88
                      4.7729282134e+02 stress_89
                      4.3316064744e+01 stress_90
                     -1.5991393300e+02 stress_91
                      1.3060271691e+02 stress_92
                      4.7805828410e+02 stress_93
                      4.8439698160e+02 stress_94
                      4.2413201441e+02 stress_95
                      3.1584875362e+02 stress_96
                      1.6502489596e+02 stress_97
                     -1.0636896081e+01 stress_98
                     -1.7787681271e+02 stress_99
                     -3.0656105974e+02 stress_100
                     -3.9105047840e+02 stress_101
                     -4.4314949595e+02 stress_102
                     -4.7605281387e+02 stress_103
                     -4.9850393751e+02 stress_104
                     -5.1537162476e+02 stress_105
                     -5.2922714197e+02 stress_106
                     -5.4141084227e+02 stress_107
                     -5.5261922317e+02 stress_108
                     -5.6320777660e+02 stress_109
                     -5.7334732582e+02 stress_110
                     -5.8310540730e+02 stress_111
                     -5.9249006266e+02 stress_112
                     -6.0147679444e+02 stress_113
                     -6.1002200846e+02 stress_114
                     -6.1807148344e+02 stress_115
                     -6.2556680575e+02 stress_116
                     -6.3244801139e+02 stress_117
                     -6.3865855908e+02 stress_118
                     -6.4414485039e+02 stress_119
                     -6.4885711208e+02 stress_120
                     -6.5275403311e+02 stress_121
                     -6.5579959889e+02 stress_122
                     -6.5796538451e+02 stress_123
                     -6.5923216885e+02 stress_124
                     -6.5957245296e+02 stress_125
                     -5.5689380785e+02 stress_126
                     -3.0575405005e+02 stress_127
                      1.2088905520e+00 stress_128
                      2.1991199945e+02 stress_129
                      3.2880911632e+02 stress_130
                      3.7957767593e+02 stress_131
                      4.0437286251e+02 stress_132
                      4.1563855321e+02 stress_133
                      4.1626699754e+02 stress_134
                      1.0958393880e+01 stress_135
                     -1.0950113636e+01 stress_136
                      1.7434927799e+02 stress_137
                      1.3817303906e+02 stress_138
                     -3.4359795468e+01 stress_139
                     -3.2158890036e+02 stress_140
                     -5.3046908981e+02 stress_141
                     -6.1405573459e+02 stress_142
                     -6.4650860334e+02 stress_143
                     -6.6129079110e+02 stress_144
                     -6.6740084223e+02 stress_145
                     -6.4697963979e+02 stress_146
                     -4.0870271760e+02 stress_147
                     -5.7627214338e+01 stress_148
                      1.9452844175e+02 stress_149
                      3.0680205864e+02 stress_150
                      3.4833056911e+02 stress_151
                      3.5345830067e+02 stress_152
                      1.3679227236e+02 stress_153
                     -2.3187741243e+02 stress_154
                     -4.9374996402e+02 stress_155
                     -5.9051090426e+02 stress_156
                     -6.1752135648e+02 stress_157
                     -4.9467194498e+02 stress_158
                     -8.9272346139e+01 stress_159
                      9.4108924232e+01 stress_160
                     -7.2875090447e+01 stress_161
                     -4.6849090879e+02 stress_162
                     -6.2402199636e+02 stress_163
                     -6.3498678577e+02 stress_164
                     -5.9318182915e+02 stress_165
                     -5.1080997662e+02 stress_166
                     -3.8990625114e+02 stress_167
                     -2.3756173998e+02 stress_168
                     -7.1064640816e+01 stress_169
                      8.3841830633e+01 stress_170
                      2.0635781766e+02 stress_171
                      2.9206076417e+02 stress_172
                      3.4863717126e+02 stress_173
                      3.8610882191e+02 stress_174
                      4.1211892547e+02 stress_175
                      4.3147604750e+02 stress_176
                      4.4699302421e+02 stress_177
                      4.6027853682e+02 stress_178
                      4.7224708421e+02 stress_179
                      4.8341891597e+02 stress_180
                      4.9408729659e+02 stress_181
                      5.0441098127e+02 stress_182
                      5.1446934322e+02 stress_183
                      5.2429222095e+02 stress_184
                      5.3387953253e+02 stress_185
                      5.4321185694e+02 stress_186
                      5.5225796039e+02 stress_187
                      5.6097973140e+02 stress_188
                      5.6933450378e+02 stress_189
                      5.7727820395e+02 stress_190
                      5.8476651499e+02 stress_191
                      5.9175497892e+02 stress_192
                      5.9820271466e+02 stress_193
                      6.0407005412e+02 stress_194
                      6.0931977526e+02 stress_195
                      6.1391991812e+02 stress_196
                      6.1784037796e+02 stress_197
                      6.2105693454e+02 stress_198
                      6.2354904427e+02 stress_199
                      6.2529991869e+02 stress_200
                      6.2629891774e+02 stress_201
                      6.2634785045e+02 stress_202
                      2.6400703871e+02 stress_203
                     -8.0294687931e+01 stress_204
                      2.8741526764e+01 stress_205
                      4.6815968050e+02 stress_206
                      4.8733736242e+02 stress_207
                      4.2244518516e+02 stress_208
                      3.0521955424e+02 stress_209
                      1.4313837068e+02 stress_210
                     -4.0344509420e+01 stress_211
                     -2.0615720041e+02 stress_212
                     -3.2647348087e+02 stress_213
                     -4.0226044984e+02 stress_214
                     -4.4839839893e+02 stress_215
                     -4.7789913355e+02 stress_216
                     -4.9858579384e+02 stress_217
                     -5.1461919528e+02 stress_218
                     -5.2813605885e+02 stress_219
                     -5.4022620243e+02 stress_220
                     -5.5144060694e+02 stress_221
                     -5.6204585749e+02 stress_222
                     -5.7215527757e+02 stress_223
                     -5.8179691507e+02 stress_224
                     -5.9095188293e+02 stress_225
                     -5.9957475204e+02 stress_226
                     -6.0760630017e+02 stress_227
                     -6.1498266410e+02 stress_228
                     -6.2163703456e+02 stress_229
                     -6.2750762583e+02 stress_230
                     -6.3253700820e+02 stress_231
                     -6.3667314278e+02 stress_232
                     -6.3987513923e+02 stress_233
                     -6.4210943914e+02 stress_234
                     -6.4335169679e+02 stress_235
                     -6.3685247659e+02 stress_236
                     -2.7187483941e+02 stress_237
                      2.3372727157e+01 stress_238
                     -1.9692837141e+02 stress_239
                     -4.4714748490e+02 stress_240
                     -1.1586501740e+02 stress_241
                      6.0906445369e+01 stress_242
                     -2.7189913614e+02 stress_243
                     -3.9580714545e+02 stress_244
                     -5.0437436633e+02 stress_245
                     -3.1917399638e+02 stress_246
                      1.5650262868e+01 stress_247
                      2.7684563695e+02 stress_248
                      3.9104274482e+02 stress_249
                      4.3393621464e+02 stress_250
                      4.4631423591e+02 stress_251
                      3.4078603753e+02 stress_252
                      1.8922558788e+01 stress_253
                     -3.1503254857e+02 stress_254
                     -4.8474972825e+02 stress_255
                     -5.4612773379e+02 stress_256
                     -5.5844789830e+02 stress_257
                     -2.8088620687e+02 stress_258
                      9.8584459331e+01 stress_259
                      2.1673758117e+02 stress_260
                      1.8809006856e+00 stress_261
                     -3.6386983698e+02 stress_262
                     -5.2153998875e+02 stress_263
                     -5.4336831504e+02 stress_264
                     -5.0128073373e+02 stress_265
                     -4.0696833938e+02 stress_266
                     -2.6412870293e+02 stress_267
                     -8.6603932169e+01 stress_268
                      9.4677724188e+01 stress_269
                      2.4375502754e+02 stress_270
                      3.4596860116e+02 stress_271
                      4.0985172797e+02 stress_272
                      4.4975671905e+02 stress_273
                      4.7629949820e+02 stress_274
                      4.9564108477e+02 stress_275
                      5.1107626931e+02 stress_276
                      5.2433189141e+02 stress_277
                      5.3630708672e+02 stress_278
                      5.4746388114e+02 stress_279
                      5.5802829141e+02 stress_280
                      5.6809572151e+02 stress_281
                      5.7768797846e+02 stress_282
                      5.8678472538e+02 stress_283
                      5.9534285566e+02 stress_284
                      6.0330607548e+02 stress_285
                      6.1061385152e+02 stress_286
                      6.1720472298e+02 stress_287
                      6.2301887208e+02 stress_288
                      6.2800281396e+02 stress_289
                      6.3210873788e+02 stress_290
                      6.3529602766e+02 stress_291
                      6.3753393477e+02 stress_292
                      6.3879958159e+02 stress_293
                      6.3881826958e+02 stress_294
                      2.6459220840e+02 stress_295
                     -7.1946787889e+01 stress_296
                      5.8808032006e+01 stress_297
                      4.8360902747e+02 stress_298
                      4.9849271445e+02 stress_299
                      4.5492939840e+02 stress_300
                      3.7649938251e+02 stress_301
                      2.6501258121e+02 stress_302
                      1.2682998563e+02 stress_303
                     -2.3500976091e+01 stress_304
                     -1.6427787781e+02 stress_305
                     -2.7753977419e+02 stress_306
                     -3.5848866420e+02 stress_307
                     -4.1291179919e+02 stress_308
                     -4.4936484062e+02 stress_309
                     -4.7473942505e+02 stress_310
                     -4.9355527426e+02 stress_311
                     -5.0853922279e+02 stress_312
                     -5.2128686548e+02 stress_313
                     -5.3272909247e+02 stress_314
                     -5.4340904754e+02 stress_315
                     -5.5364292036e+02 stress_316
                     -5.6361272318e+02 stress_317
                     -5.7341851699e+02 stress_318
                     -5.8310983817e+02 stress_319
                     -5.9270461256e+02 stress_320
                     -6.0219979720e+02 stress_321
                     -6.1157948636e+02 stress_322
                     -6.2081854634e+02 stress_323
                     -6.2988654485e+02 stress_324
                     -6.3874989919e+02 stress_325
                     -6.4737196804e+02 stress_326
                     -6.5571635638e+02 stress_327
                     -6.6374480756e+02 stress_328
                     -6.7142128742e+02 stress_329
                     -6.7870988257e+02 stress_330
                     -6.8557544729e+02 stress_331
                     -6.9198556830e+02 stress_332
                     -6.9790866381e+02 stress_333
                     -7.0331615677e+02 stress_334
                     -7.0818209688e+02 stress_335
                     -7.1248107883e+02 stress_336
                     -7.1619322573e+02 stress_337
                     -7.1929956633e+02 stress_338
                     -7.2178455926e+02 stress_339
                     -7.2363636721e+02 stress_340
                     -7.2484554162e+02 stress_341
                     -7.2540584757e+02 stress_342


Active response data for evaluation 145:
Active set vector = { 1 1 1 1 1 1 1 1 1 1 1 1 1 1 1 1 1 1 1 1 1 1 1 1 1 1 1 1 1 1 1 1 1 1 1 1 1 1 1 1 1 1 1 1 1 1 1 1 1 1 1 1 1 1 1 1 1 1 1 1 1 1 1 1 1 1 1 1 1 1 1 1 1 1 1 1 1 1 1 1 1 1 1 1 1 1 1 1 1 1 1 1 1 1 1 1 1 1 1 1 1 1 1 1 1 1 1 1 1 1 1 1 1 1 1 1 1 1 1 1 1 1 1 1 1 1 1 1 1 1 1 1 1 1 1 1 1 1 1 1 1 1 1 1 1 1 1 1 1 1 1 1 1 1 1 1 1 1 1 1 1 1 1 1 1 1 1 1 1 1 1 1 1 1 1 1 1 1 1 1 1 1 1 1 1 1 1 1 1 1 1 1 1 1 1 1 1 1 1 1 1 1 1 1 1 1 1 1 1 1 1 1 1 1 1 1 1 1 1 1 1 1 1 1 1 1 1 1 1 1 1 1 1 1 1 1 1 1 1 1 1 1 1 1 1 1 1 1 1 1 1 1 1 1 1 1 1 1 1 1 1 1 1 1 1 1 1 1 1 1 1 1 1 1 1 1 1 1 1 1 1 1 1 1 1 1 1 1 1 1 1 1 1 1 1 1 1 1 1 1 1 1 1 1 1 1 1 1 1 1 1 1 1 1 1 1 1 1 1 1 1 1 1 1 1 1 1 1 1 1 1 1 1 1 1 1 1 1 1 1 1 1 }
                      2.4220149393e+00 stress_1
                     -2.5171559215e+02 stress_2
                     -4.9425036240e+02 stress_3
                     -4.9577142273e+02 stress_4
                     -1.6682792087e+02 stress_5
                      2.5329134254e+02 stress_6
                      4.0135382831e+02 stress_7
                      4.0222211577e+02 stress_8
                      1.5256080280e+02 stress_9
                     -2.3138512179e+02 stress_10
                     -4.3994462932e+02 stress_11
                     -4.8924031254e+02 stress_12
                     -5.0316220716e+02 stress_13
                     -5.0415597054e+02 stress_14
                     -1.7340146268e+02 stress_15
                     -3.4136528276e+02 stress_16
                     -5.0983071178e+02 stress_17
                     -3.1503158325e+02 stress_18
                      2.1438768523e+01 stress_19
                      2.9855360906e+02 stress_20
                      4.1855530295e+02 stress_21
                      4.6350441565e+02 stress_22
                      4.8207187885e+02 stress_23
                      4.8819732862e+02 stress_24
                      1.5749971011e+02 stress_25
                      2.8561219227e+02 stress_26
                      4.2948773794e+02 stress_27
                      4.6526438674e+02 stress_28
                      3.4239358439e+02 stress_29
                      1.2875572659e+02 stress_30
                     -1.2499964381e+02 stress_31
                     -3.2064036509e+02 stress_32
                     -4.2446833935e+02 stress_33
                     -4.7427834563e+02 stress_34
                     -5.0124082963e+02 stress_35
                     -5.1873459573e+02 stress_36
                     -5.3174201506e+02 stress_37
                     -5.4206520276e+02 stress_38
                     -5.5031067880e+02 stress_39
                     -5.5662297707e+02 stress_40
                     -5.6098752088e+02 stress_41
                     -5.6334483872e+02 stress_42
                     -5.4787803386e+02 stress_43
                     -1.6082089960e+02 stress_44
                      1.0629935359e+02 stress_45
                     -9.9906278978e+01 stress_46
                     -4.5328596099e+02 stress_47
                     -1.5686796915e+02 stress_48
                     -2.5980407647e+02 stress_49
                     -4.1961223032e+02 stress_50
                     -5.6870719600e+02 stress_51
                     -3.9873466624e+02 stress_52
                     -6.1131339932e+01 stress_53
                      2.2643725019e+02 stress_54
                      3.5821352032e+02 stress_55
                      4.0777256633e+02 stress_56
                      4.2282696559e+02 stress_57
                      3.3645786161e+02 stress_58
                      2.1626307191e+01 stress_59
                     -3.1596227659e+02 stress_60
                     -4.7146745664e+02 stress_61
                     -5.2139160840e+02 stress_62
                     -5.3240804270e+02 stress_63
                     -2.6393850935e+02 stress_64
                      1.1333771737e+02 stress_65
                      2.0036474217e+02 stress_66
                     -7.1960605974e+01 stress_67
                     -4.4071446419e+02 stress_68
                     -5.3491214932e+02 stress_69
                     -5.3599153542e+02 stress_70
                     -4.4059339812e+02 stress_71
                     -2.6834852939e+02 stress_72
                     -4.4860583325e+01 stress_73
                      1.6682008774e+02 stress_74
                      3.1129327474e+02 stress_75
                      3.9193972591e+02 stress_76
                      4.3617434277e+02 stress_77
                      4.6300872126e+02 stress_78
                      4.8163903071e+02 stress_79
                      4.9611417015e+02 stress_80
                      5.0817923683e+02 stress_81
                      5.1856177613e+02 stress_82
                      5.2752973704e+02 stress_83
                      5.3514283352e+02 stress_84
                      5.4136644927e+02 stress_85
                      5.4613458973e+02 stress_86
                      5.4937928883e+02 stress_87
                      5.5104463203e+02 stress_88
                      4.7731650713e+02 stress_89
                      4.3703779560e+01 stress_90
                     -1.5948924038e+02 stress_91
                      1.3073975470e+02 stress_92
                      4.7805730951e+02 stress_93
                      4.8439808230e+02 stress_94
                      4.2419328351e+02 stress_95
                      3.1601668053e+02 stress_96
                      1.6532905337e+02 stress_97
                     -1.0220177619e+01 stress_98
                     -1.7744076894e+02 stress_99
                     -3.0619820726e+02 stress_100
                     -3.9078603319e+02 stress_101
                     -4.4296343583e+02 stress_102
                     -4.7591841339e+02 stress_103
                     -4.9840153802e+02 stress_104
                     -5.1528891163e+02 stress_105
                     -5.2915673929e+02 stress_106
                     -5.4134833264e+02 stress_107
                     -5.5256191430e+02 stress_108
                     -5.6315398752e+02 stress_109
                     -5.7329597944e+02 stress_110
                     -5.8305579542e+02 stress_111
                     -5.9244170792e+02 stress_112
                     -6.0142936762e+02 stress_113
                     -6.0997527749e+02 stress_114
                     -6.1802528124e+02 stress_115
                     -6.2552100966e+02 stress_116
                     -6.3240252949e+02 stress_117
                     -6.3861332123e+02 stress_118
                     -6.4409980188e+02 stress_119
                     -6.4881220926e+02 stress_120
                     -6.5270924034e+02 stress_121
                     -6.5575488619e+02 stress_122
                     -6.5792072580e+02 stress_123
                     -6.5918754066e+02 stress_124
                     -6.5952783283e+02 stress_125
                     -5.5695157223e+02 stress_126
                     -3.0604590349e+02 stress_127
                      7.5600466776e-01 stress_128
                      2.1953020895e+02 stress_129
                      3.2854431550e+02 stress_130
                      3.7938284647e+02 stress_131
                      4.0421240064e+02 stress_132
                      4.1549282700e+02 stress_133
                      4.1612206651e+02 stress_134
                      1.1193383259e+01 stress_135
                     -1.0698650808e+01 stress_136
                      1.7442108147e+02 stress_137
                      1.3828097593e+02 stress_138
                     -3.4084524671e+01 stress_139
                     -3.2115085631e+02 stress_140
                     -5.3016198198e+02 stress_141
                     -6.1388418873e+02 stress_142
                     -6.4639219406e+02 stress_143
                     -6.6119499022e+02 stress_144
                     -6.6731205334e+02 stress_145
                     -6.4691125120e+02 stress_146
                     -4.0886724188e+02 stress_147
                     -5.8033426922e+01 stress_148
                      1.9415118021e+02 stress_149
                      3.0652385989e+02 stress_150
                      3.4810250534e+02 stress_151
                      3.5323679279e+02 stress_152
                      1.3678497206e+02 stress_153
                     -2.3161587256e+02 stress_154
                     -4.9352242363e+02 stress_155
                     -5.9036368774e+02 stress_156
                     -6.1740026668e+02 stress_157
                     -4.9467321099e+02 stress_158
                     -8.9605908939e+01 stress_159
                      9.3732862325e+01 stress_160
                     -7.3084863069e+01 stress_161
                     -4.6843140555e+02 stress_162
                     -6.2398640782e+02 stress_163
                     -6.3495270405e+02 stress_164
                     -5.9318950274e+02 stress_165
                     -5.1089953868e+02 stress_166
                     -3.9011219302e+02 stress_167
                     -2.3789694723e+02 stress_168
                     -7.1495566505e+01 stress_169
                      8.3393563160e+01 stress_170
                      2.0596488383e+02 stress_171
                      2.9174971487e+02 stress_172
                      3.4839891365e+02 stress_173
                      3.8592372883e+02 stress_174
                      4.1196970492e+02 stress_175
                      4.3135044685e+02 stress_176
                      4.4688300040e+02 stress_177
                      4.6017892663e+02 stress_178
                      4.7215456603e+02 stress_179
                      4.8333132598e+02 stress_180
                      4.9400320066e+02 stress_181
                      5.0432941039e+02 stress_182
                      5.1438963015e+02 stress_183
                      5.2421389749e+02 stress_184
                      5.3380226434e+02 stress_185
                      5.4313540117e+02 stress_186
                      5.5218213781e+02 stress_187
                      5.6090440780e+02 stress_188
                      5.6925957712e+02 stress_189
                      5.7720359565e+02 stress_190
                      5.8469216371e+02 stress_191
                      5.9168083608e+02 stress_192
                      5.9812874136e+02 stress_193
                      6.0399621875e+02 stress_194
                      6.0924605169e+02 stress_195
                      6.1384628451e+02 stress_196
                      6.1776681567e+02 stress_197
                      6.2098342737e+02 stress_198
                      6.2347557785e+02 stress_199
                      6.2522647993e+02 stress_200
                      6.2622549441e+02 stress_201
                      6.2627442787e+02 stress_202
                      2.6427868647e+02 stress_203
                     -7.9850646182e+01 stress_204
                      2.9076642601e+01 stress_205
                      4.6813555888e+02 stress_206
                      4.8731118928e+02 stress_207
                      4.2248379062e+02 stress_208
                      3.0537327067e+02 stress_209
                      1.4343555932e+02 stress_210
                     -3.9939481987e+01 stress_211
                     -2.0574681958e+02 stress_212
                     -3.2613884020e+02 stress_213
                     -4.0201290489e+02 stress_214
                     -4.4821552401e+02 stress_215
                     -4.7775757467e+02 stress_216
                     -4.9846956297e+02 stress_217
                     -5.1451855257e+02 stress_218
                     -5.2804522008e+02 stress_219
                     -5.4014170177e+02 stress_220
                     -5.5136032174e+02 stress_221
                     -5.6196845265e+02 stress_222
                     -5.7207989015e+02 stress_223
                     -5.8172297222e+02 stress_224
                     -5.9087899473e+02 stress_225
                     -5.9950264661e+02 stress_226
                     -6.0753478356e+02 stress_227
                     -6.1491159488e+02 stress_228
                     -6.2156630722e+02 stress_229
                     -6.2743715990e+02 stress_230
                     -6.3246674076e+02 stress_231
                     -6.3660302320e+02 stress_232
                     -6.3980512558e+02 stress_233
                     -6.4203949536e+02 stress_234
                     -6.4328179049e+02 stress_235
                     -6.3678906300e+02 stress_236
                     -2.7215833987e+02 stress_237
                      2.2923379353e+01 stress_238
                     -1.9716095144e+02 stress_239
                     -4.4717505307e+02 stress_240
                     -1.1620258298e+02 stress_241
                      6.0469851225e+01 stress_242
                     -2.7201827298e+02 stress_243
                     -3.9583374265e+02 stress_244
                     -5.0434377803e+02 stress_245
                     -3.1932635778e+02 stress_246
                      1.5248323079e+01 stress_247
                      2.7647085381e+02 stress_248
                      3.9078220497e+02 stress_249
                      4.3373353336e+02 stress_250
                      4.4612878377e+02 stress_251
                      3.4070583477e+02 stress_252
                      1.9134987625e+01 stress_253
                     -3.1469492641e+02 stress_254
                     -4.8449119293e+02 stress_255
                     -5.4592665883e+02 stress_256
                     -5.5825981512e+02 stress_257
                     -2.8096891926e+02 stress_258
                      9.8262359967e+01 stress_259
                      2.1641570480e+02 stress_260
                      1.7705098257e+00 stress_261
                     -3.6372933814e+02 stress_262
                     -5.2140060633e+02 stress_263
                     -5.4323637708e+02 stress_264
                     -5.0119083354e+02 stress_265
                     -4.0697211276e+02 stress_266
                     -2.6426831411e+02 stress_267
                     -8.6884287380e+01 stress_268
                      9.4319321538e+01 stress_269
                      2.4341264600e+02 stress_270
                      3.4569178228e+02 stress_271
                      4.0963896706e+02 stress_272
                      4.4958960620e+02 stress_273
                      4.7616159684e+02 stress_274
                      4.9552139521e+02 stress_275
                      5.1096802200e+02 stress_276
                      5.2423098816e+02 stress_277
                      5.3621102005e+02 stress_278
                      5.4737108427e+02 stress_279
                      5.5793776090e+02 stress_280
                      5.6800679816e+02 stress_281
                      5.7760021839e+02 stress_282
                      5.8669782254e+02 stress_283
                      5.9525659425e+02 stress_284
                      6.0322029998e+02 stress_285
                      6.1052844748e+02 stress_286
                      6.1711960436e+02 stress_287
                      6.2293397272e+02 stress_288
                      6.2791808182e+02 stress_289
                      6.3202413089e+02 stress_290
                      6.3521151077e+02 stress_291
                      6.3744947774e+02 stress_292
                      6.3871515724e+02 stress_293
                      6.3873384571e+02 stress_294
                      2.6486336423e+02 stress_295
                     -7.1506252712e+01 stress_296
                      5.9117953842e+01 stress_297
                      4.8358829939e+02 stress_298
                      4.9847075574e+02 stress_299
                      4.5495094826e+02 stress_300
                      3.7659882732e+02 stress_301
                      2.6521896039e+02 stress_302
                      1.2715291759e+02 stress_303
                     -2.3091530517e+01 stress_304
                     -1.6385043552e+02 stress_305
                     -2.7716004013e+02 stress_306
                     -3.5818381369e+02 stress_307
                     -4.1267622693e+02 stress_308
                     -4.4918145154e+02 stress_309
                     -4.7459205001e+02 stress_310
                     -4.9343199748e+02 stress_311
                     -5.0843202026e+02 stress_312
                     -5.2119049210e+02 stress_313
                     -5.3264013230e+02 stress_314
                     -5.4332525546e+02 stress_315
                     -5.5356279874e+02 stress_316
                     -5.6353525597e+02 stress_317
                     -5.7334300257e+02 stress_318
                     -5.8303578354e+02 stress_319
                     -5.9263166554e+02 stress_320
                     -6.0212770215e+02 stress_321
                     -6.1150805495e+02 stress_322
                     -6.2074763787e+02 stress_323
                     -6.2981605281e+02 stress_324
                     -6.3867974196e+02 stress_325
                     -6.4730208230e+02 stress_326
                     -6.5564669250e+02 stress_327
                     -6.6367532618e+02 stress_328
                     -6.7135195703e+02 stress_329
                     -6.7864067769e+02 stress_330
                     -6.8550634708e+02 stress_331
                     -6.9191655556e+02 stress_332
                     -6.9783972419e+02 stress_333
                     -7.0324727818e+02 stress_334
                     -7.0811326901e+02 stress_335
                     -7.1241229275e+02 stress_336
                     -7.1612447365e+02 stress_337
                     -7.1923084130e+02 stress_338
                     -7.2171585501e+02 stress_339
                     -7.2356767797e+02 stress_340
                     -7.2477686197e+02 stress_341
                     -7.2533717231e+02 stress_342


Active response data for evaluation 146:
Active set vector = { 1 1 1 1 1 1 1 1 1 1 1 1 1 1 1 1 1 1 1 1 1 1 1 1 1 1 1 1 1 1 1 1 1 1 1 1 1 1 1 1 1 1 1 1 1 1 1 1 1 1 1 1 1 1 1 1 1 1 1 1 1 1 1 1 1 1 1 1 1 1 1 1 1 1 1 1 1 1 1 1 1 1 1 1 1 1 1 1 1 1 1 1 1 1 1 1 1 1 1 1 1 1 1 1 1 1 1 1 1 1 1 1 1 1 1 1 1 1 1 1 1 1 1 1 1 1 1 1 1 1 1 1 1 1 1 1 1 1 1 1 1 1 1 1 1 1 1 1 1 1 1 1 1 1 1 1 1 1 1 1 1 1 1 1 1 1 1 1 1 1 1 1 1 1 1 1 1 1 1 1 1 1 1 1 1 1 1 1 1 1 1 1 1 1 1 1 1 1 1 1 1 1 1 1 1 1 1 1 1 1 1 1 1 1 1 1 1 1 1 1 1 1 1 1 1 1 1 1 1 1 1 1 1 1 1 1 1 1 1 1 1 1 1 1 1 1 1 1 1 1 1 1 1 1 1 1 1 1 1 1 1 1 1 1 1 1 1 1 1 1 1 1 1 1 1 1 1 1 1 1 1 1 1 1 1 1 1 1 1 1 1 1 1 1 1 1 1 1 1 1 1 1 1 1 1 1 1 1 1 1 1 1 1 1 1 1 1 1 1 1 1 1 1 1 1 1 1 1 1 1 1 1 1 1 1 1 1 1 1 1 1 1 }
                      2.4220149393e+00 stress_1
                     -2.5171558999e+02 stress_2
                     -4.9424598365e+02 stress_3
                     -4.9576574337e+02 stress_4
                     -1.6684276421e+02 stress_5
                      2.5284059932e+02 stress_6
                      4.0080828246e+02 stress_7
                      4.0167752147e+02 stress_8
                      1.5202622997e+02 stress_9
                     -2.3145263300e+02 stress_10
                     -4.3958965502e+02 stress_11
                     -4.8901394261e+02 stress_12
                     -5.0300350956e+02 stress_13
                     -5.0400202540e+02 stress_14
                     -1.7334695442e+02 stress_15
                     -3.4131077218e+02 stress_16
                     -5.0978279309e+02 stress_17
                     -3.1499985569e+02 stress_18
                      2.1062219022e+01 stress_19
                      2.9755401709e+02 stress_20
                      4.1769335964e+02 stress_21
                      4.6289268572e+02 stress_22
                      4.8159655894e+02 stress_23
                      4.8776823815e+02 stress_24
                      1.5719359830e+02 stress_25
                      2.8530607863e+02 stress_26
                      4.2917078583e+02 stress_27
                      4.6493789287e+02 stress_28
                      3.4207163420e+02 stress_29
                      1.2856444840e+02 stress_30
                     -1.2462270825e+02 stress_31
                     -3.1974169765e+02 stress_32
                     -4.2361604376e+02 stress_33
                     -4.7365903166e+02 stress_34
                     -5.0080710289e+02 stress_35
                     -5.1841744760e+02 stress_36
                     -5.3149400073e+02 stress_37
                     -5.4185765557e+02 stress_38
                     -5.5012667133e+02 stress_39
                     -5.5645243288e+02 stress_40
                     -5.6082430565e+02 stress_41
                     -5.6318498560e+02 stress_42
                     -5.4771818598e+02 stress_43
                     -1.6092386628e+02 stress_44
                      1.0547502524e+02 stress_45
                     -1.0072999595e+02 stress_46
                     -4.5360893282e+02 stress_47
                     -1.5731533816e+02 stress_48
                     -2.6025142700e+02 stress_49
                     -4.2002960752e+02 stress_50
                     -5.6861505476e+02 stress_51
                     -3.9866027608e+02 stress_52
                     -6.1532750900e+01 stress_53
                      2.2524650844e+02 stress_54
                      3.5704388921e+02 stress_55
                      4.0681549086e+02 stress_56
                      4.2196518795e+02 stress_57
                      3.3559698543e+02 stress_58
                      2.0970201454e+01 stress_59
                     -3.1561325434e+02 stress_60
                     -4.7075946265e+02 stress_61
                     -5.2075675329e+02 stress_62
                     -5.3181141334e+02 stress_63
                     -2.6342674421e+02 stress_64
                      1.1290950064e+02 stress_65
                      1.9963859743e+02 stress_66
                     -7.2654359278e+01 stress_67
                     -4.4059784022e+02 stress_68
                     -5.3458819202e+02 stress_69
                     -5.3566775933e+02 stress_70
                     -4.4027252213e+02 stress_71
                     -2.6810741993e+02 stress_72
                     -4.5031726925e+01 stress_73
                      1.6598936398e+02 stress_74
                      3.1019215845e+02 stress_75
                      3.9098764286e+02 stress_76
                      4.3546862186e+02 stress_77
                      4.6250353842e+02 stress_78
                      4.8127170780e+02 stress_79
                      4.9583683842e+02 stress_80
                      5.0795977062e+02 stress_81
                      5.1837935086e+02 stress_82
                      5.2737092655e+02 stress_83
                      5.3499895825e+02 stress_84
                      5.4123186971e+02 stress_85
                      5.4600562007e+02 stress_86
                      5.4925347598e+02 stress_87
                      5.5092024908e+02 stress_88
                      4.7719329629e+02 stress_89
                      4.4080663808e+01 stress_90
                     -1.5850088503e+02 stress_91
                      1.3171647776e+02 stress_92
                      4.7812859547e+02 stress_93
                      4.8443448785e+02 stress_94
                      4.2423037402e+02 stress_95
                      3.1607335959e+02 stress_96
                      1.6551327941e+02 stress_97
                     -9.6750140393e+00 stress_98
                     -1.7641024086e+02 stress_99
                     -3.0490732907e+02 stress_100
                     -3.8956043005e+02 stress_101
                     -4.4195982306e+02 stress_102
                     -4.7514647459e+02 stress_103
                     -4.9781677868e+02 stress_104
                     -5.1484150425e+02 stress_105
                     -5.2880621990e+02 stress_106
                     -5.4106498222e+02 stress_107
                     -5.5232466113e+02 stress_108
                     -5.6294803460e+02 stress_109
                     -5.7311092809e+02 stress_110
                     -5.8288430648e+02 stress_111
                     -5.9227858255e+02 stress_112
                     -6.0127092437e+02 stress_113
                     -6.0981892585e+02 stress_114
                     -6.1786922830e+02 stress_115
                     -6.2536405540e+02 stress_116
                     -6.3224392151e+02 stress_117
                     -6.3845264878e+02 stress_118
                     -6.4393691762e+02 stress_119
                     -6.4864717008e+02 stress_120
                     -6.5254225944e+02 stress_121
                     -6.5558629571e+02 stress_122
                     -6.5775094483e+02 stress_123
                     -6.5901704651e+02 stress_124
                     -6.5935714505e+02 stress_125
                     -5.5678449742e+02 stress_126
                     -3.0605270487e+02 stress_127
                     -1.8114070472e-02 stress_128
                      2.1822079448e+02 stress_129
                      3.2736509823e+02 stress_130
                      3.7846725603e+02 stress_131
                      4.0348059152e+02 stress_132
                      4.1485308402e+02 stress_133
                      4.1548754715e+02 stress_134
                      1.0768766561e+01 stress_135
                     -1.1085701794e+01 stress_136
                      1.7391783859e+02 stress_137
                      1.3777782857e+02 stress_138
                     -3.4544313773e+01 stress_139
                     -3.2102415158e+02 stress_140
                     -5.2938919962e+02 stress_141
                     -6.1318587820e+02 stress_142
                     -6.4585796683e+02 stress_143
                     -6.6075337050e+02 stress_144
                     -6.6690761058e+02 stress_145
                     -6.4650682434e+02 stress_146
                     -4.0853192597e+02 stress_147
                     -5.8433530039e+01 stress_148
                      1.9299340346e+02 stress_149
                      3.0535227243e+02 stress_150
                      3.4706033200e+02 stress_151
                      3.5221738832e+02 stress_152
                      1.3578603501e+02 stress_153
                     -2.3202701704e+02 stress_154
                     -4.9297875183e+02 stress_155
                     -5.8966208226e+02 stress_156
                     -6.1673009173e+02 stress_157
                     -4.9401027734e+02 stress_158
                     -8.9557482996e+01 stress_159
                      9.3138840454e+01 stress_160
                     -7.3676086639e+01 stress_161
                     -4.6850797821e+02 stress_162
                     -6.2361388108e+02 stress_163
                     -6.3457560408e+02 stress_164
                     -5.9281259714e+02 stress_165
                     -5.1052960457e+02 stress_166
                     -3.8979741277e+02 stress_167
                     -2.3778599262e+02 stress_168
                     -7.1810066959e+01 stress_169
                      8.2570531956e+01 stress_170
                      2.0482592796e+02 stress_171
                      2.9058247790e+02 stress_172
                      3.4738298149e+02 stress_173
                      3.8511165899e+02 stress_174
                      4.1134672407e+02 stress_175
                      4.3088054110e+02 stress_176
                      4.4652974167e+02 stress_177
                      4.5991202533e+02 stress_178
                      4.7195062466e+02 stress_179
                      4.8317281048e+02 stress_180
                      4.9387711332e+02 stress_181
                      5.0422613025e+02 stress_182
                      5.1430202130e+02 stress_183
                      5.2413664930e+02 stress_184
                      5.3373141579e+02 stress_185
                      5.4306799805e+02 stress_186
                      5.5211598609e+02 stress_187
                      5.6083789463e+02 stress_188
                      5.6919153998e+02 stress_189
                      5.7713322536e+02 stress_190
                      5.8461893169e+02 stress_191
                      5.9160443952e+02 stress_192
                      5.9804905960e+02 stress_193
                      6.0391328013e+02 stress_194
                      6.0916000684e+02 stress_195
                      6.1375738304e+02 stress_196
                      6.1767538867e+02 stress_197
                      6.2088987021e+02 stress_198
                      6.2338033637e+02 stress_199
                      6.2513003818e+02 stress_200
                      6.2612836177e+02 stress_201
                      6.2617726128e+02 stress_202
                      2.6436448084e+02 stress_203
                     -7.8881810846e+01 stress_204
                      3.0045470624e+01 stress_205
                      4.6868978593e+02 stress_206
                      4.8777643575e+02 stress_207
                      4.2295004683e+02 stress_208
                      3.0586657773e+02 stress_209
                      1.4409079994e+02 stress_210
                     -3.8886829598e+01 stress_211
                     -2.0428525474e+02 stress_212
                     -3.2460221088e+02 stress_213
                     -4.0069884408e+02 stress_214
                     -4.4720512921e+02 stress_215
                     -4.7701096996e+02 stress_216
                     -4.9791989569e+02 stress_217
                     -5.1410760393e+02 stress_218
                     -5.2772985227e+02 stress_219
                     -5.3989163575e+02 stress_220
                     -5.5115463786e+02 stress_221
                     -5.6179269910e+02 stress_222
                     -5.7192403072e+02 stress_223
                     -5.8157999693e+02 stress_224
                     -5.9074399426e+02 stress_225
                     -5.9937219218e+02 stress_226
                     -6.0740650821e+02 stress_227
                     -6.1478390612e+02 stress_228
                     -6.2143818546e+02 stress_229
                     -6.2730801450e+02 stress_230
                     -6.3233630386e+02 stress_231
                     -6.3647126996e+02 stress_232
                     -6.3967221028e+02 stress_233
                     -6.4190570052e+02 stress_234
                     -6.4314748344e+02 stress_235
                     -6.3665475624e+02 stress_236
                     -2.7221301339e+02 stress_237
                      2.2141599747e+01 stress_238
                     -1.9783657018e+02 stress_239
                     -4.4703388760e+02 stress_240
                     -1.1625729563e+02 stress_241
                      5.9984274872e+01 stress_242
                     -2.7219237460e+02 stress_243
                     -3.9559294738e+02 stress_244
                     -5.0372315834e+02 stress_245
                     -3.1873652524e+02 stress_246
                      1.5212157159e+01 stress_247
                      2.7555713373e+02 stress_248
                      3.8982751553e+02 stress_249
                      4.3293136215e+02 stress_250
                      4.4539350417e+02 stress_251
                      3.3997389482e+02 stress_252
                      1.8701432813e+01 stress_253
                     -3.1404761293e+02 stress_254
                     -4.8340597026e+02 stress_255
                     -5.4488494380e+02 stress_256
                     -5.5725001621e+02 stress_257
                     -2.8005813005e+02 stress_258
                      9.8137328973e+01 stress_259
                      2.1582275257e+02 stress_260
                      1.2329358901e+00 stress_261
                     -3.6333266223e+02 stress_262
                     -5.2054936234e+02 stress_263
                     -5.4237647425e+02 stress_264
                     -5.0033114859e+02 stress_265
                     -4.0612294598e+02 stress_266
                     -2.6351225653e+02 stress_267
                     -8.6469178112e+01 stress_268
                      9.4116155955e+01 stress_269
                      2.4265790968e+02 stress_270
                      3.4474007097e+02 stress_271
                      4.0876334005e+02 stress_272
                      4.4888379064e+02 stress_273
                      4.7562146932e+02 stress_274
                      4.9511340557e+02 stress_275
                      5.1065751859e+02 stress_276
                      5.2398997390e+02 stress_277
                      5.3601864685e+02 stress_278
                      5.4721229088e+02 stress_279
                      5.5780177472e+02 stress_280
                      5.6788593073e+02 stress_281
                      5.7748898588e+02 stress_282
                      5.8659232507e+02 stress_283
                      5.9515408277e+02 stress_284
                      6.0311887195e+02 stress_285
                      6.1042683181e+02 stress_286
                      6.1701700625e+02 stress_287
                      6.2282996009e+02 stress_288
                      6.2781249938e+02 stress_289
                      6.3191703397e+02 stress_290
                      6.3510311250e+02 stress_291
                      6.3734010455e+02 stress_292
                      6.3860521140e+02 stress_293
                      6.3862389130e+02 stress_294
                      2.6495037260e+02 stress_295
                     -7.0548248841e+01 stress_296
                      6.0075898106e+01 stress_297
                      4.8404211259e+02 stress_298
                      4.9885139027e+02 stress_299
                      4.5533184586e+02 stress_300
                      3.7698719834e+02 stress_301
                      2.6565903120e+02 stress_302
                      1.2776725823e+02 stress_303
                     -2.2138389646e+01 stress_304
                     -1.6252264513e+02 stress_305
                     -2.7564329965e+02 stress_306
                     -3.5672976310e+02 stress_307
                     -4.1143478583e+02 stress_308
                     -4.4818696351e+02 stress_309
                     -4.7381798523e+02 stress_310
                     -4.9283405293e+02 stress_311
                     -5.0796774238e+02 stress_312
                     -5.2082517714e+02 stress_313
                     -5.3234717548e+02 stress_314
                     -5.4308478240e+02 stress_315
                     -5.5336008611e+02 stress_316
                     -5.6335939569e+02 stress_317
                     -5.7318587720e+02 stress_318
                     -5.8289131655e+02 stress_319
                     -5.9249528134e+02 stress_320
                     -6.0199593832e+02 stress_321
                     -6.1137828458e+02 stress_322
                     -6.2061786858e+02 stress_323
                     -6.2968478090e+02 stress_324
                     -6.3854584489e+02 stress_325
                     -6.4716473940e+02 stress_326
                     -6.5550532474e+02 stress_327
                     -6.6352955155e+02 stress_328
                     -6.7120155471e+02 stress_329
                     -6.7848556110e+02 stress_330
                     -6.8534654264e+02 stress_331
                     -6.9175218450e+02 stress_332
                     -6.9767098899e+02 stress_333
                     -7.0307444997e+02 stress_334
                     -7.0793667712e+02 stress_335
                     -7.1223231740e+02 stress_336
                     -7.1594153584e+02 stress_337
                     -7.1904539716e+02 stress_338
                     -7.2152838884e+02 stress_339
                     -7.2337869556e+02 stress_340
                     -7.2458688528e+02 stress_341
                     -7.2514673378e+02 stress_342


Active response data for evaluation 147:
Active set vector = { 1 1 1 1 1 1 1 1 1 1 1 1 1 1 1 1 1 1 1 1 1 1 1 1 1 1 1 1 1 1 1 1 1 1 1 1 1 1 1 1 1 1 1 1 1 1 1 1 1 1 1 1 1 1 1 1 1 1 1 1 1 1 1 1 1 1 1 1 1 1 1 1 1 1 1 1 1 1 1 1 1 1 1 1 1 1 1 1 1 1 1 1 1 1 1 1 1 1 1 1 1 1 1 1 1 1 1 1 1 1 1 1 1 1 1 1 1 1 1 1 1 1 1 1 1 1 1 1 1 1 1 1 1 1 1 1 1 1 1 1 1 1 1 1 1 1 1 1 1 1 1 1 1 1 1 1 1 1 1 1 1 1 1 1 1 1 1 1 1 1 1 1 1 1 1 1 1 1 1 1 1 1 1 1 1 1 1 1 1 1 1 1 1 1 1 1 1 1 1 1 1 1 1 1 1 1 1 1 1 1 1 1 1 1 1 1 1 1 1 1 1 1 1 1 1 1 1 1 1 1 1 1 1 1 1 1 1 1 1 1 1 1 1 1 1 1 1 1 1 1 1 1 1 1 1 1 1 1 1 1 1 1 1 1 1 1 1 1 1 1 1 1 1 1 1 1 1 1 1 1 1 1 1 1 1 1 1 1 1 1 1 1 1 1 1 1 1 1 1 1 1 1 1 1 1 1 1 1 1 1 1 1 1 1 1 1 1 1 1 1 1 1 1 1 1 1 1 1 1 1 1 1 1 1 1 1 1 1 1 1 1 1 }
                      2.4220149393e+00 stress_1
                     -2.5171559371e+02 stress_2
                     -4.9424631636e+02 stress_3
                     -4.9576582726e+02 stress_4
                     -1.6682066157e+02 stress_5
                      2.5333312645e+02 stress_6
                      4.0139942739e+02 stress_7
                      4.0226758706e+02 stress_8
                      1.5260543894e+02 stress_9
                     -2.3137912356e+02 stress_10
                     -4.3996801298e+02 stress_11
                     -4.8924415300e+02 stress_12
                     -5.0315442152e+02 stress_13
                     -5.0414723973e+02 stress_14
                     -1.7339033975e+02 stress_15
                     -3.4135416077e+02 stress_16
                     -5.0981929530e+02 stress_17
                     -3.1501978678e+02 stress_18
                      2.1460281612e+01 stress_19
                      2.9858901209e+02 stress_20
                      4.1858260459e+02 stress_21
                      4.6351914353e+02 stress_22
                      4.8207805298e+02 stress_23
                      4.8820008029e+02 stress_24
                      1.5750037101e+02 stress_25
                      2.8561285332e+02 stress_26
                      4.2948965410e+02 stress_27
                      4.6526886844e+02 stress_28
                      3.4239798711e+02 stress_29
                      1.2875784580e+02 stress_30
                     -1.2500729741e+02 stress_31
                     -3.2065534456e+02 stress_32
                     -4.2447745815e+02 stress_33
                     -4.7427586899e+02 stress_34
                     -5.0122640745e+02 stress_35
                     -5.1870911061e+02 stress_36
                     -5.3170655096e+02 stress_37
                     -5.4202096451e+02 stress_38
                     -5.5025903848e+02 stress_39
                     -5.5656549890e+02 stress_40
                     -5.6092594003e+02 stress_41
                     -5.6328102345e+02 stress_42
                     -5.4781421855e+02 stress_43
                     -1.6075552488e+02 stress_44
                      1.0636814415e+02 stress_45
                     -9.9837525095e+01 stress_46
                     -4.5324017118e+02 stress_47
                     -1.5682110676e+02 stress_48
                     -2.5975721496e+02 stress_49
                     -4.1956642224e+02 stress_50
                     -5.6865474669e+02 stress_51
                     -3.9868209156e+02 stress_52
                     -6.1075202309e+01 stress_53
                      2.2649910815e+02 stress_54
                      3.5827233085e+02 stress_55
                      4.0782569327e+02 stress_56
                      4.2287720623e+02 stress_57
                      3.3650808196e+02 stress_58
                      2.1672204268e+01 stress_59
                     -3.1593331895e+02 stress_60
                     -4.7143482223e+02 stress_61
                     -5.2134884983e+02 stress_62
                     -5.3236175699e+02 stress_63
                     -2.6389158947e+02 stress_64
                      1.1339198111e+02 stress_65
                      2.0042119491e+02 stress_66
                     -7.1905863117e+01 stress_67
                     -4.4068899681e+02 stress_68
                     -5.3487670406e+02 stress_69
                     -5.3595570944e+02 stress_70
                     -4.4055754942e+02 stress_71
                     -2.6831198869e+02 stress_72
                     -4.4819928666e+01 stress_73
                      1.6686884692e+02 stress_74
                      3.1134693676e+02 stress_75
                      3.9199144870e+02 stress_76
                      4.3621970160e+02 stress_77
                      4.6304572531e+02 stress_78
                      4.8166692066e+02 stress_79
                      4.9613279549e+02 stress_80
                      5.0818881765e+02 stress_81
                      5.1856281294e+02 stress_82
                      5.2752296906e+02 stress_83
                      5.3512920822e+02 stress_84
                      5.4134709641e+02 stress_85
                      5.4611078916e+02 stress_86
                      5.4935243659e+02 stress_87
                      5.5101620651e+02 stress_88
                      4.7728807618e+02 stress_89
                      4.3673370486e+01 stress_90
                     -1.5952101541e+02 stress_91
                      1.3070866955e+02 stress_92
                      4.7806120034e+02 stress_93
                      4.8440234518e+02 stress_94
                      4.2419754204e+02 stress_95
                      3.1602080080e+02 stress_96
                      1.6533214764e+02 stress_97
                     -1.0220545949e+01 stress_98
                     -1.7744715947e+02 stress_99
                     -3.0620982794e+02 stress_100
                     -3.9079899252e+02 stress_101
                     -4.4297381268e+02 stress_102
                     -4.7592357061e+02 stress_103
                     -4.9839990167e+02 stress_104
                     -5.1527953474e+02 stress_105
                     -5.2913902435e+02 stress_106
                     -5.4132189347e+02 stress_107
                     -5.5252651176e+02 stress_108
                     -5.6310949997e+02 stress_109
                     -5.7324238851e+02 stress_110
                     -5.8299317899e+02 stress_111
                     -5.9237023670e+02 stress_112
                     -6.0134930074e+02 stress_113
                     -6.0988695912e+02 stress_114
                     -6.1792913729e+02 stress_115
                     -6.2541754306e+02 stress_116
                     -6.3229231599e+02 stress_117
                     -6.3849700211e+02 stress_118
                     -6.4397807838e+02 stress_119
                     -6.4868583691e+02 stress_120
                     -6.5257901923e+02 stress_121
                     -6.5562165473e+02 stress_122
                     -6.5778535240e+02 stress_123
                     -6.5905091398e+02 stress_124
                     -6.5939086945e+02 stress_125
                     -5.5681459994e+02 stress_126
                     -3.0590855986e+02 stress_127
                      8.9418400408e-01 stress_128
                      2.1966548241e+02 stress_129
                      3.2867233534e+02 stress_130
                      3.7950290921e+02 stress_131
                      4.0432604627e+02 stress_132
                      4.1560265820e+02 stress_133
                      4.1623166458e+02 stress_134
                      1.1300015616e+01 stress_135
                     -1.0592531114e+01 stress_136
                      1.7452760572e+02 stress_137
                      1.3838749876e+02 stress_138
                     -3.3978617014e+01 stress_139
                     -3.2105212919e+02 stress_140
                     -5.3006515225e+02 stress_141
                     -6.1377586979e+02 stress_142
                     -6.4627240062e+02 stress_143
                     -6.6106726604e+02 stress_144
                     -6.6718041657e+02 stress_145
                     -6.4677961439e+02 stress_146
                     -4.0873542412e+02 stress_147
                     -5.7900015510e+01 stress_148
                      1.9428392985e+02 stress_149
                      3.0665177404e+02 stress_150
                      3.4822618987e+02 stress_151
                      3.5335978054e+02 stress_152
                      1.3690745022e+02 stress_153
                     -2.3150627601e+02 stress_154
                     -4.9342520053e+02 stress_155
                     -5.9025795969e+02 stress_156
                     -6.1728806655e+02 stress_157
                     -4.9456098445e+02 stress_158
                     -8.9490867565e+01 stress_159
                      9.3851375011e+01 stress_160
                     -7.2966510828e+01 stress_161
                     -4.6833457056e+02 stress_162
                     -6.2388588868e+02 stress_163
                     -6.3484840849e+02 stress_164
                     -5.9308520644e+02 stress_165
                     -5.1079521250e+02 stress_166
                     -3.9000759770e+02 stress_167
                     -2.3779118910e+02 stress_168
                     -7.1386860687e+01 stress_169
                      8.3506795554e+01 stress_170
                      2.0608216845e+02 stress_171
                      2.9186852981e+02 stress_172
                      3.4851627313e+02 stress_173
                      3.8603722604e+02 stress_174
                      4.1207765835e+02 stress_175
                      4.3145171519e+02 stress_176
                      4.4697679251e+02 stress_177
                      4.6026467528e+02 stress_178
                      4.7223185646e+02 stress_179
                      4.8339985604e+02 stress_180
                      4.9406275880e+02 stress_181
                      5.0437986469e+02 stress_182
                      5.1443092098e+02 stress_183
                      5.2424603408e+02 stress_184
                      5.3382532160e+02 stress_185
                      5.4314951791e+02 stress_186
                      5.5218751480e+02 stress_187
                      5.6090130545e+02 stress_188
                      5.6924831392e+02 stress_189
                      5.7718454526e+02 stress_190
                      5.8466575224e+02 stress_191
                      5.9164754013e+02 stress_192
                      5.9808908291e+02 stress_193
                      6.0395076285e+02 stress_194
                      6.0919540319e+02 stress_195
                      6.1379108216e+02 stress_196
                      6.1770772981e+02 stress_197
                      6.2092115369e+02 stress_198
                      6.2341083341e+02 stress_199
                      6.2515999916e+02 stress_200
                      6.2615802277e+02 stress_201
                      6.2620690770e+02 stress_202
                      2.6421087470e+02 stress_203
                     -7.9918793206e+01 stress_204
                      2.9008495976e+01 stress_205
                      4.6808503275e+02 stress_206
                      4.8726378500e+02 stress_207
                      4.2243638331e+02 stress_208
                      3.0532577155e+02 stress_209
                      1.4338741897e+02 stress_210
                     -3.9989551759e+01 stress_211
                     -2.0579951656e+02 stress_212
                     -3.2619246977e+02 stress_213
                     -4.0206439088e+02 stress_214
                     -4.4826223001e+02 stress_215
                     -4.7779775164e+02 stress_216
                     -4.9850210903e+02 stress_217
                     -5.1454275779e+02 stress_218
                     -5.2806062051e+02 stress_219
                     -5.4014800832e+02 stress_220
                     -5.5135738588e+02 stress_221
                     -5.6195625030e+02 stress_222
                     -5.7205851272e+02 stress_223
                     -5.8169262130e+02 stress_224
                     -5.9083997689e+02 stress_225
                     -5.9945536884e+02 stress_226
                     -6.0747974811e+02 stress_227
                     -6.1484939202e+02 stress_228
                     -6.2149761039e+02 stress_229
                     -6.2736271575e+02 stress_230
                     -6.3238736129e+02 stress_231
                     -6.3651957801e+02 stress_232
                     -6.3971852904e+02 stress_233
                     -6.4195069802e+02 stress_234
                     -6.4319176891e+02 stress_235
                     -6.3669904142e+02 stress_236
                     -2.7206788879e+02 stress_237
                      2.3014788298e+01 stress_238
                     -1.9707042824e+02 stress_239
                     -4.4708962798e+02 stress_240
                     -1.1611661224e+02 stress_241
                      6.0556873379e+01 stress_242
                     -2.7193359908e+02 stress_243
                     -3.9575131595e+02 stress_244
                     -5.0426112887e+02 stress_245
                     -3.1924361378e+02 stress_246
                      1.5333000181e+01 stress_247
                      2.7655691700e+02 stress_248
                      3.9086401505e+02 stress_249
                      4.3381021127e+02 stress_250
                      4.4620314022e+02 stress_251
                      3.4078016857e+02 stress_252
                      1.9207486873e+01 stress_253
                     -3.1462685620e+02 stress_254
                     -4.8441936097e+02 stress_255
                     -5.4584876662e+02 stress_256
                     -5.5818003867e+02 stress_257
                     -2.8088885494e+02 stress_258
                      9.8344971532e+01 stress_259
                      2.1649867500e+02 stress_260
                      1.8530533759e+00 stress_261
                     -3.6365189461e+02 stress_262
                     -5.2132025144e+02 stress_263
                     -5.4315423824e+02 stress_264
                     -5.0110869405e+02 stress_265
                     -4.0688994174e+02 stress_266
                     -2.6418586165e+02 stress_267
                     -8.6800816951e+01 stress_268
                      9.4404446042e+01 stress_269
                      2.4349835851e+02 stress_270
                      3.4577536494e+02 stress_271
                      4.0971776695e+02 stress_272
                      4.4966183415e+02 stress_273
                      4.7622616143e+02 stress_274
                      4.9557760921e+02 stress_275
                      5.1101543071e+02 stress_276
                      5.2426929002e+02 stress_277
                      5.3624003490e+02 stress_278
                      5.4739074071e+02 stress_279
                      5.5794809124e+02 stress_280
                      5.6800793593e+02 stress_281
                      5.7759239618e+02 stress_282
                      5.8668136965e+02 stress_283
                      5.9523193257e+02 stress_284
                      6.0318794049e+02 stress_285
                      6.1048898388e+02 stress_286
                      6.1707370708e+02 stress_287
                      6.2288238261e+02 stress_288
                      6.2786160074e+02 stress_289
                      6.3196361378e+02 stress_290
                      6.3514785688e+02 stress_291
                      6.3738361960e+02 stress_292
                      6.3864805187e+02 stress_293
                      6.3866672192e+02 stress_294
                      2.6479592707e+02 stress_295
                     -7.1574045700e+01 stress_296
                      5.9050164353e+01 stress_297
                      4.8354256309e+02 stress_298
                      4.9842749902e+02 stress_299
                      4.5490769073e+02 stress_300
                      3.7655554416e+02 stress_301
                      2.6517547580e+02 stress_302
                      1.2710863943e+02 stress_303
                     -2.3137690251e+01 stress_304
                     -1.6389931386e+02 stress_305
                     -2.7721108548e+02 stress_306
                     -3.5823510616e+02 stress_307
                     -4.1272550829e+02 stress_308
                     -4.4922684748e+02 stress_309
                     -4.7463219873e+02 stress_310
                     -4.9346593157e+02 stress_311
                     -5.0845903163e+02 stress_312
                     -5.2121004070e+02 stress_313
                     -5.3265179109e+02 stress_314
                     -5.4332868033e+02 stress_315
                     -5.5355771242e+02 stress_316
                     -5.6352143889e+02 stress_317
                     -5.7332028836e+02 stress_318
                     -5.8300405644e+02 stress_319
                     -5.9259085871e+02 stress_320
                     -6.0207779714e+02 stress_321
                     -6.1144908066e+02 stress_322
                     -6.2067967039e+02 stress_323
                     -6.2973921444e+02 stress_324
                     -6.3859420001e+02 stress_325
                     -6.4720804907e+02 stress_326
                     -6.5554442292e+02 stress_327
                     -6.6356511807e+02 stress_328
                     -6.7123414780e+02 stress_329
                     -6.7851564335e+02 stress_330
                     -6.8537450086e+02 stress_331
                     -6.9177834472e+02 stress_332
                     -6.9769562884e+02 stress_333
                     -7.0309780799e+02 stress_334
                     -7.0795896036e+02 stress_335
                     -7.1225370805e+02 stress_336
                     -7.1596219566e+02 stress_337
                     -7.1906547214e+02 stress_338
                     -7.2154801259e+02 stress_339
                     -7.2339799228e+02 stress_340
                     -7.2460597258e+02 stress_341
                     -7.2516572512e+02 stress_342


Active response data for evaluation 148:
Active set vector = { 1 1 1 1 1 1 1 1 1 1 1 1 1 1 1 1 1 1 1 1 1 1 1 1 1 1 1 1 1 1 1 1 1 1 1 1 1 1 1 1 1 1 1 1 1 1 1 1 1 1 1 1 1 1 1 1 1 1 1 1 1 1 1 1 1 1 1 1 1 1 1 1 1 1 1 1 1 1 1 1 1 1 1 1 1 1 1 1 1 1 1 1 1 1 1 1 1 1 1 1 1 1 1 1 1 1 1 1 1 1 1 1 1 1 1 1 1 1 1 1 1 1 1 1 1 1 1 1 1 1 1 1 1 1 1 1 1 1 1 1 1 1 1 1 1 1 1 1 1 1 1 1 1 1 1 1 1 1 1 1 1 1 1 1 1 1 1 1 1 1 1 1 1 1 1 1 1 1 1 1 1 1 1 1 1 1 1 1 1 1 1 1 1 1 1 1 1 1 1 1 1 1 1 1 1 1 1 1 1 1 1 1 1 1 1 1 1 1 1 1 1 1 1 1 1 1 1 1 1 1 1 1 1 1 1 1 1 1 1 1 1 1 1 1 1 1 1 1 1 1 1 1 1 1 1 1 1 1 1 1 1 1 1 1 1 1 1 1 1 1 1 1 1 1 1 1 1 1 1 1 1 1 1 1 1 1 1 1 1 1 1 1 1 1 1 1 1 1 1 1 1 1 1 1 1 1 1 1 1 1 1 1 1 1 1 1 1 1 1 1 1 1 1 1 1 1 1 1 1 1 1 1 1 1 1 1 1 1 1 1 1 1 }
                      2.4220149393e+00 stress_1
                     -2.5171559076e+02 stress_2
                     -4.9425545393e+02 stress_3
                     -4.9577519868e+02 stress_4
                     -1.6683162210e+02 stress_5
                      2.5328972240e+02 stress_6
                      4.0135208184e+02 stress_7
                      4.0222034810e+02 stress_8
                      1.5255900335e+02 stress_9
                     -2.3138870837e+02 stress_10
                     -4.3994821310e+02 stress_11
                     -4.8923758618e+02 stress_12
                     -5.0315434022e+02 stress_13
                     -5.0414761842e+02 stress_14
                     -1.7339301481e+02 stress_15
                     -3.4135683463e+02 stress_16
                     -5.0982371367e+02 stress_17
                     -3.1502456949e+02 stress_18
                      2.1446443373e+01 stress_19
                      2.9856250529e+02 stress_20
                      4.1856100951e+02 stress_21
                      4.6350420360e+02 stress_22
                      4.8206665845e+02 stress_23
                      4.8818988691e+02 stress_24
                      1.5749206403e+02 stress_25
                      2.8560454618e+02 stress_26
                      4.2948003938e+02 stress_27
                      4.6525659900e+02 stress_28
                      3.4238579160e+02 stress_29
                      1.2874770502e+02 stress_30
                     -1.2500925430e+02 stress_31
                     -3.2065216266e+02 stress_32
                     -4.2447867882e+02 stress_33
                     -4.7428319716e+02 stress_34
                     -5.0123803455e+02 stress_35
                     -5.1872336813e+02 stress_36
                     -5.3172239191e+02 stress_37
                     -5.4203777356e+02 stress_38
                     -5.5027644877e+02 stress_39
                     -5.5658328133e+02 stress_40
                     -5.6094394176e+02 stress_41
                     -5.6329913223e+02 stress_42
                     -5.4783232736e+02 stress_43
                     -1.6077479754e+02 stress_44
                      1.0634730745e+02 stress_45
                     -9.9858334673e+01 stress_46
                     -4.5324642625e+02 stress_47
                     -1.5682815390e+02 stress_48
                     -2.5976426149e+02 stress_49
                     -4.1957288167e+02 stress_50
                     -5.6867595742e+02 stress_51
                     -3.9870339246e+02 stress_52
                     -6.1098145630e+01 stress_53
                      2.2647744096e+02 stress_54
                      3.5825673516e+02 stress_55
                      4.0781420559e+02 stress_56
                      4.2286718206e+02 stress_57
                      3.3649807629e+02 stress_58
                      2.1665808579e+01 stress_59
                     -3.1592888015e+02 stress_60
                     -4.7143782119e+02 stress_61
                     -5.2136032316e+02 stress_62
                     -5.3237565995e+02 stress_63
                     -2.6390594291e+02 stress_64
                      1.1337445347e+02 stress_65
                      2.0040366260e+02 stress_66
                     -7.1921825964e+01 stress_67
                     -4.4068052475e+02 stress_68
                     -5.3487866448e+02 stress_69
                     -5.3595800281e+02 stress_70
                     -4.4055986110e+02 stress_71
                     -2.6831479742e+02 stress_72
                     -4.4825218408e+01 stress_73
                      1.6685995908e+02 stress_74
                      3.1133732766e+02 stress_75
                      3.9198367955e+02 stress_76
                      4.3621409342e+02 stress_77
                      4.6304176147e+02 stress_78
                      4.8166407097e+02 stress_79
                      4.9613068205e+02 stress_80
                      5.0818719357e+02 stress_81
                      5.1856151900e+02 stress_82
                      5.2752190105e+02 stress_83
                      5.3512829611e+02 stress_84
                      5.4134629135e+02 stress_85
                      5.4611005557e+02 stress_86
                      5.4935174704e+02 stress_87
                      5.5101553823e+02 stress_88
                      4.7728741134e+02 stress_89
                      4.3672343705e+01 stress_90
                     -1.5952596853e+02 stress_91
                      1.3070310226e+02 stress_92
                      4.7802663927e+02 stress_93
                      4.8436760494e+02 stress_94
                      4.2416280501e+02 stress_95
                      3.1598615306e+02 stress_96
                      1.6529805317e+02 stress_97
                     -1.0253221761e+01 stress_98
                     -1.7747836726e+02 stress_99
                     -3.0624111788e+02 stress_100
                     -3.9083192125e+02 stress_101
                     -4.4300881641e+02 stress_102
                     -4.7596036667e+02 stress_103
                     -4.9843804051e+02 stress_104
                     -5.1531862811e+02 stress_105
                     -5.2917878734e+02 stress_106
                     -5.4136212816e+02 stress_107
                     -5.5256708270e+02 stress_108
                     -5.6315031419e+02 stress_109
                     -5.7328338152e+02 stress_110
                     -5.8303430540e+02 stress_111
                     -5.9241146405e+02 stress_112
                     -6.0139060546e+02 stress_113
                     -6.0992832379e+02 stress_114
                     -6.1797054884e+02 stress_115
                     -6.2545899154e+02 stress_116
                     -6.3233379366e+02 stress_117
                     -6.3853850288e+02 stress_118
                     -6.4401959736e+02 stress_119
                     -6.4872737009e+02 stress_120
                     -6.5262056325e+02 stress_121
                     -6.5566320670e+02 stress_122
                     -6.5782690977e+02 stress_123
                     -6.5909247441e+02 stress_124
                     -6.5943243069e+02 stress_125
                     -5.5685616373e+02 stress_126
                     -3.0594992764e+02 stress_127
                      8.5671910995e-01 stress_128
                      2.1963872267e+02 stress_129
                      3.2865546270e+02 stress_130
                      3.7949177255e+02 stress_131
                      4.0431779100e+02 stress_132
                      4.1559566468e+02 stress_133
                      4.1622473974e+02 stress_134
                      1.1294784493e+01 stress_135
                     -1.0597530376e+01 stress_136
                      1.7452231204e+02 stress_137
                      1.3838220617e+02 stress_138
                     -3.3983557201e+01 stress_139
                     -3.2105668714e+02 stress_140
                     -5.3008534013e+02 stress_141
                     -6.1381454731e+02 stress_142
                     -6.4632054295e+02 stress_143
                     -6.6111951278e+02 stress_144
                     -6.6723417601e+02 stress_145
                     -6.4683337384e+02 stress_146
                     -4.0878909592e+02 stress_147
                     -5.7949606336e+01 stress_148
                      1.9424827601e+02 stress_149
                      3.0662818524e+02 stress_150
                      3.4820816007e+02 stress_151
                      3.5334247106e+02 stress_152
                      1.3689055185e+02 stress_153
                     -2.3151503178e+02 stress_154
                     -4.9343523581e+02 stress_155
                     -5.9028207437e+02 stress_156
                     -6.1731887499e+02 stress_157
                     -4.9459180071e+02 stress_158
                     -8.9520813421e+01 stress_159
                      9.3824767309e+01 stress_160
                     -7.2992979904e+01 stress_161
                     -4.6834524756e+02 stress_162
                     -6.2390733639e+02 stress_163
                     -6.3487369008e+02 stress_164
                     -5.9311048838e+02 stress_165
                     -5.1082050399e+02 stress_166
                     -3.9003293240e+02 stress_167
                     -2.3781650620e+02 stress_168
                     -7.1411530231e+01 stress_169
                      8.3484327523e+01 stress_170
                      2.0606355197e+02 stress_171
                      2.9185431734e+02 stress_172
                      3.4850592966e+02 stress_173
                      3.8602982525e+02 stress_174
                      4.1207234975e+02 stress_175
                      4.3144785834e+02 stress_176
                      4.4697394113e+02 stress_177
                      4.6026252678e+02 stress_178
                      4.7223020636e+02 stress_179
                      4.8339856508e+02 stress_180
                      4.9406173096e+02 stress_181
                      5.0437903269e+02 stress_182
                      5.1443023698e+02 stress_183
                      5.2424546349e+02 stress_184
                      5.3382483905e+02 stress_185
                      5.4314910449e+02 stress_186
                      5.5218715624e+02 stress_187
                      5.6090099084e+02 stress_188
                      5.6924803478e+02 stress_189
                      5.7718429495e+02 stress_190
                      5.8466552548e+02 stress_191
                      5.9164733268e+02 stress_192
                      5.9808889133e+02 stress_193
                      6.0395058427e+02 stress_194
                      6.0919523523e+02 stress_195
                      6.1379092280e+02 stress_196
                      6.1770757731e+02 stress_197
                      6.2092100651e+02 stress_198
                      6.2341069017e+02 stress_199
                      6.2515985860e+02 stress_200
                      6.2615788372e+02 stress_201
                      6.2620676872e+02 stress_202
                      2.6420995060e+02 stress_203
                     -7.9930091268e+01 stress_204
                      2.8997197585e+01 stress_205
                      4.6806032083e+02 stress_206
                      4.8723686429e+02 stress_207
                      4.2240946265e+02 stress_208
                      3.0529881870e+02 stress_209
                      1.4335995535e+02 stress_210
                     -4.0019753837e+01 stress_211
                     -2.0583660027e+02 stress_212
                     -3.2623897451e+02 stress_213
                     -4.0211933673e+02 stress_214
                     -4.4832316226e+02 stress_215
                     -4.7786252947e+02 stress_216
                     -4.9856929402e+02 stress_217
                     -5.1461146156e+02 stress_218
                     -5.2813030354e+02 stress_219
                     -5.4021833942e+02 stress_220
                     -5.5142815737e+02 stress_221
                     -5.6202732862e+02 stress_222
                     -5.7212980974e+02 stress_223
                     -5.8176407739e+02 stress_224
                     -5.9091155075e+02 stress_225
                     -5.9952703120e+02 stress_226
                     -6.0755147778e+02 stress_227
                     -6.1492117332e+02 stress_228
                     -6.2156943148e+02 stress_229
                     -6.2743456747e+02 stress_230
                     -6.3245923642e+02 stress_231
                     -6.3659147065e+02 stress_232
                     -6.3979043428e+02 stress_233
                     -6.4202261159e+02 stress_234
                     -6.4326368696e+02 stress_235
                     -6.3677095947e+02 stress_236
                     -2.7213912173e+02 stress_237
                      2.2950643912e+01 stress_238
                     -1.9713378593e+02 stress_239
                     -4.4714907019e+02 stress_240
                     -1.1617527023e+02 stress_241
                      6.0502057209e+01 stress_242
                     -2.7198665948e+02 stress_243
                     -3.9580330951e+02 stress_244
                     -5.0431470639e+02 stress_245
                     -3.1929715820e+02 stress_246
                      1.5282805040e+01 stress_247
                      2.7652196502e+02 stress_248
                      3.9084305182e+02 stress_249
                      4.3379580370e+02 stress_250
                      4.4619068523e+02 stress_251
                      3.4076772653e+02 stress_252
                      1.9195158141e+01 stress_253
                     -3.1464698628e+02 stress_254
                     -4.8445561899e+02 stress_255
                     -5.4589465001e+02 stress_256
                     -5.5822812861e+02 stress_257
                     -2.8093684166e+02 stress_258
                      9.8302728387e+01 stress_259
                      2.1646260361e+02 stress_260
                      1.8172436541e+00 stress_261
                     -3.6368874571e+02 stress_262
                     -5.2136679523e+02 stress_263
                     -5.4320328448e+02 stress_264
                     -5.0115774048e+02 stress_265
                     -4.0693898692e+02 stress_266
                     -2.6423476934e+02 stress_267
                     -8.6848503596e+01 stress_268
                      9.4361268921e+01 stress_269
                      2.4346376063e+02 stress_270
                      3.4575056641e+02 stress_271
                      4.0970102584e+02 stress_272
                      4.4965068373e+02 stress_273
                      4.7621863805e+02 stress_274
                      4.9557240667e+02 stress_275
                      5.1101172907e+02 stress_276
                      5.2426657942e+02 stress_277
                      5.3623799451e+02 stress_278
                      5.4738916459e+02 stress_279
                      5.5794684408e+02 stress_280
                      5.6800692672e+02 stress_281
                      5.7759156232e+02 stress_282
                      5.8668066705e+02 stress_283
                      5.9523132960e+02 stress_284
                      6.0318741394e+02 stress_285
                      6.1048851639e+02 stress_286
                      6.1707328540e+02 stress_287
                      6.2288199641e+02 stress_288
                      6.2786124178e+02 stress_289
                      6.3196327533e+02 stress_290
                      6.3514753325e+02 stress_291
                      6.3738330585e+02 stress_292
                      6.3864774353e+02 stress_293
                      6.3866641365e+02 stress_294
                      2.6479477424e+02 stress_295
                     -7.1585205626e+01 stress_296
                      5.9039001453e+01 stress_297
                      4.8351415292e+02 stress_298
                      4.9839731714e+02 stress_299
                      4.5487750898e+02 stress_300
                      3.7652536002e+02 stress_301
                      2.6514521798e+02 stress_302
                      1.2707784066e+02 stress_303
                     -2.3170525054e+01 stress_304
                     -1.6393674979e+02 stress_305
                     -2.7725528429e+02 stress_306
                     -3.5828641619e+02 stress_307
                     -4.1278279473e+02 stress_308
                     -4.4928855853e+02 stress_309
                     -4.7469699383e+02 stress_310
                     -4.9353283175e+02 stress_311
                     -5.0852736883e+02 stress_312
                     -5.2127936912e+02 stress_313
                     -5.3272181376e+02 stress_314
                     -5.4339919757e+02 stress_315
                     -5.5362858810e+02 stress_316
                     -5.6359257870e+02 stress_317
                     -5.7339162590e+02 stress_318
                     -5.8307554422e+02 stress_319
                     -5.9266246218e+02 stress_320
                     -6.0214949084e+02 stress_321
                     -6.1152084556e+02 stress_322
                     -6.2075149205e+02 stress_323
                     -6.2981108180e+02 stress_324
                     -6.3866610448e+02 stress_325
                     -6.4727998393e+02 stress_326
                     -6.5561638282e+02 stress_327
                     -6.6363709873e+02 stress_328
                     -6.7130614576e+02 stress_329
                     -6.7858765578e+02 stress_330
                     -6.8544652543e+02 stress_331
                     -6.9185037950e+02 stress_332
                     -6.9776767219e+02 stress_333
                     -7.0316985852e+02 stress_334
                     -7.0803101689e+02 stress_335
                     -7.1232576954e+02 stress_336
                     -7.1603426119e+02 stress_337
                     -7.1913754089e+02 stress_338
                     -7.2162008383e+02 stress_339
                     -7.2347006532e+02 stress_340
                     -7.2467804677e+02 stress_341
                     -7.2523779983e+02 stress_342


Active response data for evaluation 149:
Active set vector = { 1 1 1 1 1 1 1 1 1 1 1 1 1 1 1 1 1 1 1 1 1 1 1 1 1 1 1 1 1 1 1 1 1 1 1 1 1 1 1 1 1 1 1 1 1 1 1 1 1 1 1 1 1 1 1 1 1 1 1 1 1 1 1 1 1 1 1 1 1 1 1 1 1 1 1 1 1 1 1 1 1 1 1 1 1 1 1 1 1 1 1 1 1 1 1 1 1 1 1 1 1 1 1 1 1 1 1 1 1 1 1 1 1 1 1 1 1 1 1 1 1 1 1 1 1 1 1 1 1 1 1 1 1 1 1 1 1 1 1 1 1 1 1 1 1 1 1 1 1 1 1 1 1 1 1 1 1 1 1 1 1 1 1 1 1 1 1 1 1 1 1 1 1 1 1 1 1 1 1 1 1 1 1 1 1 1 1 1 1 1 1 1 1 1 1 1 1 1 1 1 1 1 1 1 1 1 1 1 1 1 1 1 1 1 1 1 1 1 1 1 1 1 1 1 1 1 1 1 1 1 1 1 1 1 1 1 1 1 1 1 1 1 1 1 1 1 1 1 1 1 1 1 1 1 1 1 1 1 1 1 1 1 1 1 1 1 1 1 1 1 1 1 1 1 1 1 1 1 1 1 1 1 1 1 1 1 1 1 1 1 1 1 1 1 1 1 1 1 1 1 1 1 1 1 1 1 1 1 1 1 1 1 1 1 1 1 1 1 1 1 1 1 1 1 1 1 1 1 1 1 1 1 1 1 1 1 1 1 1 1 1 1 }
                      2.4220149393e+00 stress_1
                     -2.5171559214e+02 stress_2
                     -4.9424617592e+02 stress_3
                     -4.9576579185e+02 stress_4
                     -1.6682216194e+02 stress_5
                      2.5330118668e+02 stress_6
                      4.0136561793e+02 stress_7
                      4.0223389787e+02 stress_8
                      1.5257254651e+02 stress_9
                     -2.3137561966e+02 stress_10
                     -4.3993608456e+02 stress_11
                     -4.8922568251e+02 stress_12
                     -5.0314246992e+02 stress_13
                     -5.0413574970e+02 stress_14
                     -1.7338100190e+02 stress_15
                     -3.4134482196e+02 stress_16
                     -5.0980990931e+02 stress_17
                     -3.1501075030e+02 stress_18
                      2.1460987686e+01 stress_19
                      2.9858000900e+02 stress_20
                      4.1858091956e+02 stress_21
                      4.6352510035e+02 stress_22
                      4.8208791731e+02 stress_23
                      4.8821125151e+02 stress_24
                      1.5751340578e+02 stress_25
                      2.8562588791e+02 stress_26
                      4.2950127558e+02 stress_27
                      4.6527777502e+02 stress_28
                      3.4240696714e+02 stress_29
                      1.2876885779e+02 stress_30
                     -1.2498827808e+02 stress_31
                     -3.2063157466e+02 stress_32
                     -4.2445842191e+02 stress_33
                     -4.7426311558e+02 stress_34
                     -5.0121803530e+02 stress_35
                     -5.1870340856e+02 stress_36
                     -5.3170245271e+02 stress_37
                     -5.4201784548e+02 stress_38
                     -5.5025652706e+02 stress_39
                     -5.5656336335e+02 stress_40
                     -5.6092402588e+02 stress_41
                     -5.6327921736e+02 stress_42
                     -5.4781241249e+02 stress_43
                     -1.6075413904e+02 stress_44
                      1.0637208018e+02 stress_45
                     -9.9833556893e+01 stress_46
                     -4.5321704540e+02 stress_47
                     -1.5679855715e+02 stress_48
                     -2.5973466460e+02 stress_49
                     -4.1954305250e+02 stress_50
                     -5.6864142113e+02 stress_51
                     -3.9866884472e+02 stress_52
                     -6.1062953482e+01 stress_53
                      2.2651538065e+02 stress_54
                      3.5829713479e+02 stress_55
                      4.0785570729e+02 stress_56
                      4.2290901985e+02 stress_57
                      3.3653991355e+02 stress_58
                      2.1707428057e+01 stress_59
                     -3.1588937545e+02 stress_60
                     -4.7140073369e+02 stress_61
                     -5.2132419952e+02 stress_62
                     -5.3233974731e+02 stress_63
                     -2.6386997112e+02 stress_64
                      1.1341188391e+02 stress_65
                      2.0044198591e+02 stress_66
                     -7.1883542904e+01 stress_67
                     -4.4064395115e+02 stress_68
                     -5.3484327871e+02 stress_69
                     -5.3592263122e+02 stress_70
                     -4.4052448814e+02 stress_71
                     -2.6827936288e+02 stress_72
                     -4.4789252621e+01 stress_73
                      1.6689754943e+02 stress_74
                      3.1137705579e+02 stress_75
                      3.9202500579e+02 stress_76
                      4.3625634078e+02 stress_77
                      4.6308450466e+02 stress_78
                      4.8170708486e+02 stress_79
                      4.9617384990e+02 stress_80
                      5.0823045307e+02 stress_81
                      5.1860483534e+02 stress_82
                      5.2756525386e+02 stress_83
                      5.3517167285e+02 stress_84
                      5.4138968391e+02 stress_85
                      5.4615345840e+02 stress_86
                      5.4939515608e+02 stress_87
                      5.5105895023e+02 stress_88
                      4.7733082325e+02 stress_89
                      4.3715639602e+01 stress_90
                     -1.5948295434e+02 stress_91
                      1.3074618823e+02 stress_92
                      4.7807633335e+02 stress_93
                      4.8441759846e+02 stress_94
                      4.2421279825e+02 stress_95
                      3.1603613393e+02 stress_96
                      1.6534791378e+02 stress_97
                     -1.0203893444e+01 stress_98
                     -1.7743030295e+02 stress_99
                     -3.0619479057e+02 stress_100
                     -3.9078716655e+02 stress_101
                     -4.4296516970e+02 stress_102
                     -4.7591741594e+02 stress_103
                     -4.9839551234e+02 stress_104
                     -5.1527635780e+02 stress_105
                     -5.2913667787e+02 stress_106
                     -5.4132012186e+02 stress_107
                     -5.5252514448e+02 stress_108
                     -5.6310842216e+02 stress_109
                     -5.7324152162e+02 stress_110
                     -5.8299246838e+02 stress_111
                     -5.9236964366e+02 stress_112
                     -6.0134879736e+02 stress_113
                     -6.0988652494e+02 stress_114
                     -6.1792875704e+02 stress_115
                     -6.2541720515e+02 stress_116
                     -6.3229201148e+02 stress_117
                     -6.3849672396e+02 stress_118
                     -6.4397782097e+02 stress_119
                     -6.4868559566e+02 stress_120
                     -6.5257879030e+02 stress_121
                     -6.5562143482e+02 stress_122
                     -6.5778513862e+02 stress_123
                     -6.5905070367e+02 stress_124
                     -6.5939066006e+02 stress_125
                     -5.5681438648e+02 stress_126
                     -3.0590755536e+02 stress_127
                      9.0432016067e-01 stress_128
                      2.1969677416e+02 stress_129
                      3.2872160315e+02 stress_130
                      3.7956213076e+02 stress_131
                      4.0439013559e+02 stress_132
                      4.1566884823e+02 stress_133
                      4.1629796837e+02 stress_134
                      1.1367726350e+01 stress_135
                     -1.0524652305e+01 stress_136
                      1.7459534557e+02 stress_137
                      1.3845523963e+02 stress_138
                     -3.3910581837e+01 stress_139
                     -3.2098524957e+02 stress_140
                     -5.3001829735e+02 stress_141
                     -6.1375039048e+02 stress_142
                     -6.4625750775e+02 stress_143
                     -6.6105689851e+02 stress_144
                     -6.6717170612e+02 stress_145
                     -6.4677090394e+02 stress_146
                     -4.0872654798e+02 stress_147
                     -5.7885366783e+01 stress_148
                      1.9431690561e+02 stress_149
                      3.0670010206e+02 stress_150
                      3.4828148216e+02 stress_151
                      3.5341597037e+02 stress_152
                      1.3696402402e+02 stress_153
                     -2.3144291207e+02 stress_154
                     -4.9336749253e+02 stress_155
                     -5.9021710398e+02 stress_156
                     -6.1725475115e+02 stress_157
                     -4.9452767148e+02 stress_158
                     -8.9455592904e+01 stress_159
                      9.3892119732e+01 stress_160
                     -7.2925633261e+01 stress_161
                     -4.6827953602e+02 stress_162
                     -6.2384440962e+02 stress_163
                     -6.3481099423e+02 stress_164
                     -5.9304779242e+02 stress_165
                     -5.1075780221e+02 stress_166
                     -3.8997016590e+02 stress_167
                     -2.3775339912e+02 stress_168
                     -7.1347366129e+01 stress_169
                      8.3550558992e+01 stress_170
                      2.0613246171e+02 stress_171
                      2.9192574203e+02 stress_172
                      3.4857927259e+02 stress_173
                      3.8610447881e+02 stress_174
                      4.1214785952e+02 stress_175
                      4.3152392261e+02 stress_176
                      4.4705036795e+02 stress_177
                      4.6033919492e+02 stress_178
                      4.7230703852e+02 stress_179
                      4.8347551116e+02 stress_180
                      4.9413875781e+02 stress_181
                      5.0445611796e+02 stress_182
                      5.1450736526e+02 stress_183
                      5.2432262398e+02 stress_184
                      5.3390202402e+02 stress_185
                      5.4322630834e+02 stress_186
                      5.5226437481e+02 stress_187
                      5.6097822103e+02 stress_188
                      5.6932527422e+02 stress_189
                      5.7726154181e+02 stress_190
                      5.8474277835e+02 stress_191
                      5.9172459042e+02 stress_192
                      5.9816615303e+02 stress_193
                      6.0402784920e+02 stress_194
                      6.0927250278e+02 stress_195
                      6.1386819245e+02 stress_196
                      6.1778484863e+02 stress_197
                      6.2099827913e+02 stress_198
                      6.2348796374e+02 stress_199
                      6.2523713283e+02 stress_200
                      6.2623515831e+02 stress_201
                      6.2628404332e+02 stress_202
                      2.6428713938e+02 stress_203
                     -7.9853783695e+01 stress_204
                      2.9073505228e+01 stress_205
                      4.6814116157e+02 stress_206
                      4.8731872296e+02 stress_207
                      4.2249132082e+02 stress_208
                      3.0538065582e+02 stress_209
                      1.4344159589e+02 stress_210
                     -3.9938923595e+01 stress_211
                     -2.0575749857e+02 stress_212
                     -3.2616198446e+02 stress_213
                     -4.0204408562e+02 stress_214
                     -4.4824906684e+02 stress_215
                     -4.7778913915e+02 stress_216
                     -4.9849632687e+02 stress_217
                     -5.1453875222e+02 stress_218
                     -5.2805775556e+02 stress_219
                     -5.4014589552e+02 stress_220
                     -5.5135578265e+02 stress_221
                     -5.6195500116e+02 stress_222
                     -5.7205751540e+02 stress_223
                     -5.8169180679e+02 stress_224
                     -5.9083929749e+02 stress_225
                     -5.9945479083e+02 stress_226
                     -6.0747924710e+02 stress_227
                     -6.1484895002e+02 stress_228
                     -6.2149721381e+02 stress_229
                     -6.2736235412e+02 stress_230
                     -6.3238702634e+02 stress_231
                     -6.3651926302e+02 stress_232
                     -6.3971822840e+02 stress_233
                     -6.4195040686e+02 stress_234
                     -6.4319148285e+02 stress_235
                     -6.3669875536e+02 stress_236
                     -2.7206660329e+02 stress_237
                      2.3025488542e+01 stress_238
                     -1.9705898330e+02 stress_239
                     -4.4707494301e+02 stress_240
                     -1.1610077129e+02 stress_241
                      6.0577947385e+01 stress_242
                     -2.7191099163e+02 stress_243
                     -3.9572814504e+02 stress_244
                     -5.0424041243e+02 stress_245
                     -3.1922282837e+02 stress_246
                      1.5358642235e+01 stress_247
                      2.7660296222e+02 stress_248
                      3.9092811707e+02 stress_249
                      4.3388262390e+02 stress_250
                      4.4627800894e+02 stress_251
                      3.4085504750e+02 stress_252
                      1.9281987768e+01 stress_253
                     -3.1456383703e+02 stress_254
                     -4.8437693741e+02 stress_255
                     -5.4581809687e+02 stress_256
                     -5.5815202437e+02 stress_257
                     -2.8086062498e+02 stress_258
                      9.8381421725e+01 stress_259
                      2.1654340770e+02 stress_260
                      1.8979984610e+00 stress_261
                     -3.6360995144e+02 stress_262
                     -5.2129082388e+02 stress_263
                     -5.4312783678e+02 stress_264
                     -5.0108229264e+02 stress_265
                     -4.0686352977e+02 stress_266
                     -2.6415919277e+02 stress_267
                     -8.6772281789e+01 stress_268
                      9.4439322987e+01 stress_269
                      2.4354475959e+02 stress_270
                      3.4583455121e+02 stress_271
                      4.0978725655e+02 stress_272
                      4.4973836877e+02 stress_273
                      4.7630721592e+02 stress_274
                      4.9566153051e+02 stress_275
                      5.1110119283e+02 stress_276
                      5.2435626047e+02 stress_277
                      5.3632781848e+02 stress_278
                      5.4747908518e+02 stress_279
                      5.5803683169e+02 stress_280
                      5.6809696192e+02 stress_281
                      5.7768163201e+02 stress_282
                      5.8677076220e+02 stress_283
                      5.9532144382e+02 stress_284
                      6.0327754262e+02 stress_285
                      6.1057865614e+02 stress_286
                      6.1716343367e+02 stress_287
                      6.2297215124e+02 stress_288
                      6.2795140161e+02 stress_289
                      6.3205343890e+02 stress_290
                      6.3523769951e+02 stress_291
                      6.3747347390e+02 stress_292
                      6.3873791256e+02 stress_293
                      6.3875658270e+02 stress_294
                      2.6488461683e+02 stress_295
                     -7.1498378602e+01 stress_296
                      5.9125828610e+01 stress_297
                      4.8360228820e+02 stress_298
                      4.9848565508e+02 stress_299
                      4.5496584674e+02 stress_300
                      3.7661368993e+02 stress_301
                      2.6523347077e+02 stress_302
                      1.2716571720e+02 stress_303
                     -2.3083769857e+01 stress_304
                     -1.6385216278e+02 stress_305
                     -2.7717354351e+02 stress_306
                     -3.5820742095e+02 stress_307
                     -4.1270595500e+02 stress_308
                     -4.4921322889e+02 stress_309
                     -4.7462266961e+02 stress_310
                     -4.9345916768e+02 stress_311
                     -5.0845414059e+02 stress_312
                     -5.2120643287e+02 stress_313
                     -5.3264907679e+02 stress_314
                     -5.4332659935e+02 stress_315
                     -5.5355608837e+02 stress_316
                     -5.6352015021e+02 stress_317
                     -5.7331924984e+02 stress_318
                     -5.8300320738e+02 stress_319
                     -5.9259015512e+02 stress_320
                     -6.0207720671e+02 stress_321
                     -6.1144857930e+02 stress_322
                     -6.2067923990e+02 stress_323
                     -6.2973884088e+02 stress_324
                     -6.3859387261e+02 stress_325
                     -6.4720775939e+02 stress_326
                     -6.5554416428e+02 stress_327
                     -6.6356488513e+02 stress_328
                     -6.7123393625e+02 stress_329
                     -6.7851544967e+02 stress_330
                     -6.8537432216e+02 stress_331
                     -6.9177817861e+02 stress_332
                     -6.9769547328e+02 stress_333
                     -7.0309766127e+02 stress_334
                     -7.0795882102e+02 stress_335
                     -7.1225357480e+02 stress_336
                     -7.1596206738e+02 stress_337
                     -7.1906534781e+02 stress_338
                     -7.2154789132e+02 stress_339
                     -7.2339787321e+02 stress_340
                     -7.2460585492e+02 stress_341
                     -7.2516560811e+02 stress_342

>>>>> Total response returned to iterator:

Active set vector = { 2 2 2 2 2 2 2 2 2 2 2 2 2 2 2 2 2 2 2 2 2 2 2 2 2 2 2 2 2 2 2 2 2 2 2 2 2 2 2 2 2 2 2 2 2 2 2 2 2 2 2 2 2 2 2 2 2 2 2 2 2 2 2 2 2 2 2 2 2 2 2 2 2 2 2 2 2 2 2 2 2 2 2 2 2 2 2 2 2 2 2 2 2 2 2 2 2 2 2 2 2 2 2 2 2 2 2 2 2 2 2 2 2 2 2 2 2 2 2 2 2 2 2 2 2 2 2 2 2 2 2 2 2 2 2 2 2 2 2 2 2 2 2 2 2 2 2 2 2 2 2 2 2 2 2 2 2 2 2 2 2 2 2 2 2 2 2 2 2 2 2 2 2 2 2 2 2 2 2 2 2 2 2 2 2 2 2 2 2 2 2 2 2 2 2 2 2 2 2 2 2 2 2 2 2 2 2 2 2 2 2 2 2 2 2 2 2 2 2 2 2 2 2 2 2 2 2 2 2 2 2 2 2 2 2 2 2 2 2 2 2 2 2 2 2 2 2 2 2 2 2 2 2 2 2 2 2 2 2 2 2 2 2 2 2 2 2 2 2 2 2 2 2 2 2 2 2 2 2 2 2 2 2 2 2 2 2 2 2 2 2 2 2 2 2 2 2 2 2 2 2 2 2 2 2 2 2 2 2 2 2 2 2 2 2 2 2 2 2 2 2 2 2 2 2 2 2 2 2 2 2 2 2 2 2 2 2 2 2 2 2 2 } Deriv vars vector = { 1 2 3 4 5 6 7 }
 [  0.0000000000e+00  1.1653237292e-05  0.0000000000e+00  0.0000000000e+00 
    0.0000000000e+00  0.0000000000e+00  0.0000000000e+00 ] stress_1 gradient
 [ -1.9957179578e-05 -1.2110527795e-03 -5.4369662318e-04  2.4709263022e-03 
   -2.8643754802e-02  6.8893655325e-02  0.0000000000e+00 ] stress_2 gradient
 [ -9.9810976609e-01 -7.0259299715e-05 -2.2761797026e+02  2.2096976742e-01 
   -2.5622477308e+00 -4.6318551901e+02  0.0000000000e+00 ] stress_3 gradient
 [ -1.0006235799e+00 -7.1846574353e-05 -3.0614967142e+02  5.5716514974e-02 
   -6.4603526081e-01 -4.6961659190e+02  0.0000000000e+00 ] stress_4 gradient
 [ -9.8330180937e-01  1.4705035726e-03 -3.0517862726e+02 -2.3509840914e+01 
    3.0035440005e+01 -4.6499472629e+02  5.8269232502e+00 ] stress_5 gradient
 [ -2.9388076963e-01  1.8942186706e-03 -2.2915880965e+02 -5.2286873827e+02 
    6.8542662776e+02 -2.9129834695e+02  2.2480717973e+02 ] stress_6 gradient
 [  4.6015060894e-01  8.6518414435e-04 -2.6737967318e+01 -6.2754360083e+02 
    8.2295697145e+02 -1.1174001622e+02  4.5117981344e+02 ] stress_7 gradient
 [  4.6531494017e-01  8.5744725103e-04 -2.4292958592e+01 -6.2639833223e+02 
    8.2144596777e+02 -1.1055334798e+02  4.5267538109e+02 ] stress_8 gradient
 [  4.5823738343e-01 -3.2728005659e-04 -2.4619720933e+01 -6.1488788407e+02 
    8.0609948314e+02 -1.1243993582e+02  4.5090226484e+02 ] stress_9 gradient
 [  9.4029531514e-03 -1.1345256936e-03 -6.8424360221e+01 -7.9034830331e+01 
    8.6473671584e+01 -2.4188062898e+02  3.2920978218e+02 ] stress_10 gradient
 [ -8.3943526723e-01 -1.7733841531e-04 -3.6642345886e+02  4.0021516310e+02 
   -5.4957933273e+02 -5.1536697084e+02  7.2094347716e+01 ] stress_11 gradient
 [ -9.9619452197e-01 -5.1709789550e-05 -7.7925804396e+02  2.4368777419e+02 
   -3.3155638890e+02 -5.7941560429e+02  1.1879479537e+01 ] stress_12 gradient
 [ -1.0099724885e+00 -8.6413608120e-05 -1.0691033076e+03  1.5978737967e+02 
   -2.1670587843e+02 -5.8892193016e+02  2.9424145377e+00 ] stress_13 gradient
 [ -1.0102972140e+00 -9.0412154530e-05 -1.0959695876e+03  1.5375762993e+02 
   -2.0847709323e+02 -5.8936923969e+02  2.5214991029e+00 ] stress_14 gradient
 [ -9.7836220972e-01  1.4268560700e-03 -1.0917999697e+03  3.9566138384e+01 
   -1.6343506232e+02 -5.8076052824e+02  1.5166134212e+01 ] stress_15 gradient
 [ -9.7836254268e-01  6.1871883599e-04 -1.0917999697e+03  3.9568804686e+01 
   -1.6345221209e+02 -5.8074754827e+02  1.5166932914e+01 ] stress_16 gradient
 [ -9.9068971169e-01 -1.6301276854e-04 -1.1172558977e+03  3.1454868837e+01 
   -1.6662145200e+02 -6.7651072662e+02  1.0113950944e+01 ] stress_17 gradient
 [ -9.8664799783e-01  7.6485674368e-04 -1.1167687446e+03  1.2857217919e+01 
   -1.5952528100e+02 -6.7528212311e+02  1.1688989346e+01 ] stress_18 gradient
 [ -7.9908740230e-01  1.9487738436e-03 -1.0872419884e+03 -4.5573842632e+02 
    2.7656950172e+01 -6.1516676819e+02  8.8735123612e+01 ] stress_19 gradient
 [ -6.1206963373e-02  1.5743637779e-03 -8.8645675200e+02 -1.1675370306e+03 
    3.4844689963e+02 -3.6982862629e+02  4.0317309027e+02 ] stress_20 gradient
 [  5.2158917133e-01  8.0564681506e-04 -4.9578111188e+02 -1.0010837239e+03 
    3.3173755609e+02 -1.7034355481e+02  6.5884527199e+02 ] stress_21 gradient
 [  7.5524264827e-01  4.8272981511e-04 -8.4906557122e+01 -7.0483641662e+02 
    2.4021035988e+02 -8.8548315325e+01  7.6367997169e+02 ] stress_22 gradient
 [  8.3971483423e-01  3.7717172143e-04  2.2008938770e+02 -5.4161773630e+02 
    1.8649711634e+02 -5.8529153411e+01  8.0215419826e+02 ] stress_23 gradient
 [  8.6418685227e-01  3.5018136477e-04  3.5040775462e+02 -4.8573304897e+02 
    1.6778617640e+02 -4.9763683937e+01  8.1338872673e+02 ] stress_24 gradient
 [  8.3105196155e-01 -1.1640483764e-03  3.4547206656e+02 -3.4450193507e+02 
    1.2798504042e+02 -6.4498439120e+01  8.0068938060e+02 ] stress_25 gradient
 [  8.3105133724e-01 -5.4764905913e-04  3.4547152286e+02 -3.4450404973e+02 
    1.2798759464e+02 -6.4499437580e+01  8.0068778320e+02 ] stress_26 gradient
 [  8.2846693451e-01  1.5059108150e-04  3.4622835011e+02 -3.5694435917e+02 
    1.5114032348e+02 -6.6423966844e+01  7.9493394109e+02 ] stress_27 gradient
 [  8.3097995755e-01  3.1697609897e-04  3.4988199891e+02 -3.6783316824e+02 
    1.9917316377e+02 -6.7521273023e+01  7.9165287732e+02 ] stress_28 gradient
 [  8.3013116351e-01 -2.7223193835e-04  3.4977434675e+02 -3.6261353755e+02 
    1.9769609473e+02 -6.7872231278e+01  7.9135296509e+02 ] stress_29 gradient
 [  7.9311571471e-01 -1.2142466224e-03  3.4420361974e+02 -2.1255413727e+02 
    1.5416543240e+02 -8.4408705296e+01  7.7721555778e+02 ] stress_30 gradient
 [  5.2198868951e-01 -1.8067679693e-03  2.9090547426e+02  4.3934915372e+02 
   -4.2018746432e+01 -2.1267121712e+02  6.6756349292e+02 ] stress_31 gradient
 [ -4.7866036236e-02 -1.4294921777e-03  1.0269308490e+02  1.0349805000e+03 
   -2.3883199320e+02 -4.9467541068e+02  4.2647519236e+02 ] stress_32 gradient
 [ -5.1591452732e-01 -8.4766171972e-04 -2.3850116787e+02  9.7447465183e+02 
   -2.4639923538e+02 -7.3517117735e+02  2.2087237918e+02 ] stress_33 gradient
 [ -7.5601227952e-01 -5.3301278958e-04 -6.7558358465e+02  6.9747727406e+02 
   -1.8151529233e+02 -8.6253108245e+02  1.1199106079e+02 ] stress_34 gradient
 [ -8.6579670368e-01 -4.0932839483e-04 -1.1564641163e+03  4.7402294996e+02 
   -1.2494095730e+02 -9.2233976077e+02  6.0860218598e+01 ] stress_35 gradient
 [ -9.1753403736e-01 -3.7405543798e-04 -1.6463243599e+03  3.2968821472e+02 
   -8.7482406114e+01 -9.5115877525e+02  3.6222289056e+01 ] stress_36 gradient
 [ -9.4360294193e-01 -3.7643307820e-04 -2.1188982775e+03  2.4024568191e+02 
   -6.3999453093e+01 -9.6595094181e+02  2.3576056546e+01 ] stress_37 gradient
 [ -9.5763021707e-01 -3.9368799004e-04 -2.5521133723e+03  1.8458079210e+02 
   -4.9290611289e+01 -9.7403296626e+02  1.6666893419e+01 ] stress_38 gradient
 [ -9.6556657765e-01 -4.1500813404e-04 -2.9269135822e+03  1.4960481880e+02 
   -4.0012771367e+01 -9.7866132185e+02  1.2710128592e+01 ] stress_39 gradient
 [ -9.7015968404e-01 -4.3475000068e-04 -3.2270282087e+03  1.2778807957e+02 
   -3.4211590002e+01 -9.8136564741e+02  1.0397889155e+01 ] stress_40 gradient
 [ -9.7274489838e-01 -4.4976285702e-04 -3.4398358526e+03  1.1486681295e+02 
   -3.0770690528e+01 -9.8289828161e+02  9.0880194923e+00 ] stress_41 gradient
 [ -9.7397256667e-01 -4.5826042971e-04 -3.5562964516e+03  1.0854110370e+02 
   -2.9084722764e+01 -9.8362915342e+02  8.4630359522e+00 ] stress_42 gradient
 [ -9.7397212965e-01 -3.8384472217e-04 -3.5562964516e+03  1.0853508154e+02 
   -2.9083992987e+01 -9.8362865420e+02  8.4634352984e+00 ] stress_43 gradient
 [ -9.0790870421e-01  1.3252010650e-03 -3.5438517541e+03 -1.9324623869e+02 
    3.5425209480e+00 -9.5245427549e+02  6.3097779490e+01 ] stress_44 gradient
 [ -5.5236012476e-01  1.7865838405e-03 -3.4566980943e+03 -1.0204419029e+03 
    9.5108030465e+01 -7.7998150737e+02  3.6536657775e+02 ] stress_45 gradient
 [ -5.5265483133e-01  7.9514257888e-04 -3.4567058691e+03 -1.0197394301e+03 
    9.4436270557e+01 -7.8046566002e+02  3.6518095963e+02 ] stress_46 gradient
 [ -8.0183995727e-01 -3.2684765777e-04 -3.4803810240e+03 -4.4474948382e+02 
   -3.3247463106e+02 -1.2220346467e+03  1.9577879071e+02 ] stress_47 gradient
 [ -7.7225336568e-01  1.0306940678e-03 -3.4751038938e+03 -5.8760364002e+02 
   -3.1113521611e+02 -1.2031852429e+03  2.1947904526e+02 ] stress_48 gradient
 [ -7.7226191876e-01  5.3544932111e-04 -3.4751044375e+03 -5.8758241304e+02 
   -3.1115145365e+02 -1.2031992214e+03  2.1947345435e+02 ] stress_49 gradient
 [ -7.8625061141e-01 -2.0089623645e-04 -3.4759792471e+03 -5.5315351432e+02 
   -3.3066423628e+02 -1.2272830452e+03  2.0948410077e+02 ] stress_50 gradient
 [ -1.0150404051e+00 -3.8909490127e-04 -3.5665147069e+03  3.0506010152e+01 
   -2.3987904103e+02 -1.7152922459e+03  7.0880721502e+00 ] stress_51 gradient
 [ -1.0122242785e+00  4.2217319472e-04 -3.5660389714e+03  1.0115317197e+01 
   -2.3743209810e+02 -1.7130981328e+03  9.3004739627e+00 ] stress_52 gradient
 [ -8.6082071079e-01  1.6954107275e-03 -3.5359889062e+03 -5.3607251797e+02 
   -1.6234457451e+02 -1.5896277238e+03  1.3380310627e+02 ] stress_53 gradient
 [ -2.3204150287e-01  1.6231608536e-03 -3.3430777722e+03 -1.4391474098e+03 
    6.7533581608e+00 -1.0632103106e+03  6.6462547123e+02 ] stress_54 gradient
 [  3.2110962543e-01  9.7863882110e-04 -2.9942190125e+03 -1.4075114508e+03 
    6.8218477502e+01 -5.9191381184e+02  1.1398693475e+03 ] stress_55 gradient
 [  5.6614602000e-01  6.5125060466e-04 -2.6786084567e+03 -1.1565566709e+03 
    7.0431526845e+01 -3.8077423047e+02  1.3527782783e+03 ] stress_56 gradient
 [  6.4044670370e-01  5.5216521392e-04 -2.5311260960e+03 -1.0439164383e+03 
    6.7262104488e+01 -3.1638412412e+02  1.4177078785e+03 ] stress_57 gradient
 [  6.4028269689e-01  1.3699142403e-04 -2.5311440380e+03 -1.0428807984e+03 
    6.6885904345e+01 -3.1648996075e+02  1.4176020506e+03 ] stress_58 gradient
 [  5.8069694116e-01 -1.2395581728e-03 -2.5401566979e+03 -8.0773518080e+02 
   -1.5014052872e+01 -3.6037511888e+02  1.3737996896e+03 ] stress_59 gradient
 [  5.2050134896e-02 -1.6394233699e-03 -2.6723086311e+03  3.4463287118e+02 
   -3.6840958991e+02 -7.8649545233e+02  9.4847782150e+02 ] stress_60 gradient
 [ -5.1143034260e-01 -1.0847853948e-03 -2.9982494438e+03  7.5029788635e+02 
   -4.1070236768e+02 -1.2735376458e+03  4.6234525427e+02 ] stress_61 gradient
 [ -7.2473282381e-01 -8.3220318514e-04 -3.2994498347e+03  6.5987493595e+02 
   -3.2706424538e+02 -1.4677408704e+03  2.6850371288e+02 ] stress_62 gradient
 [ -7.7023246713e-01 -7.8010434731e-04 -3.4054197859e+03  6.1370331051e+02 
   -2.9827307549e+02 -1.5102527483e+03  2.2607072473e+02 ] stress_63 gradient
 [ -7.5527380145e-01  4.7690693731e-04 -3.4025659165e+03  5.1623189918e+02 
   -2.8574535528e+02 -1.4984619488e+03  2.3786474326e+02 ] stress_64 gradient
 [ -4.0269390969e-01  1.4751290419e-03 -3.3126007956e+03 -5.6215754678e+02 
   -1.2157194088e+02 -1.2076932842e+03  5.2871171766e+02 ] stress_65 gradient
 [ -1.9079692170e-01  1.4033685432e-03 -3.2375275557e+03 -9.0296979127e+02 
   -5.6443157576e+01 -1.0297120191e+03  7.0674177443e+02 ] stress_66 gradient
 [ -2.0362007552e-01  1.2289431786e-04 -3.2386606218e+03 -8.6576729961e+02 
   -8.8019211972e+01 -1.0377625921e+03  6.9869446236e+02 ] stress_67 gradient
 [ -6.6122306413e-01 -5.9189615596e-04 -3.3478704678e+03  6.3264930458e+01 
   -6.5878027305e+02 -1.3796957783e+03  3.5690314245e+02 ] stress_68 gradient
 [ -9.2233807802e-01 -4.4141963344e-04 -3.5819035277e+03  2.9659951195e+02 
   -5.5527214218e+02 -1.6172825354e+03  1.1941338932e+02 ] stress_69 gradient
 [ -9.2502066425e-01 -4.4040794433e-04 -3.5875895186e+03  2.9627106264e+02 
   -5.5023412532e+02 -1.6201186575e+03  1.1657840007e+02 ] stress_70 gradient
 [ -9.2465504622e-01  1.7740668881e-05 -3.5875286245e+03  2.9293935755e+02 
   -5.4979917811e+02 -1.6198425836e+03  1.1685395191e+02 ] stress_71 gradient
 [ -9.0900924173e-01  8.1018226349e-04 -3.5847432609e+03  2.0132511037e+02 
   -5.3623937050e+02 -1.6075525547e+03  1.2914436312e+02 ] stress_72 gradient
 [ -7.7774899650e-01  1.5811438175e-03 -3.5580491157e+03 -2.7189989819e+02 
   -4.5222499333e+02 -1.5015201781e+03  2.3517863188e+02 ] stress_73 gradient
 [ -3.8443144634e-01  1.6887626401e-03 -3.4499355818e+03 -1.0276489973e+03 
   -2.6808383494e+02 -1.1772752381e+03  5.5943015803e+02 ] stress_74 gradient
 [  1.2513028826e-01  1.2055321527e-03 -3.2126251120e+03 -1.3333862246e+03 
   -9.9001939132e+01 -7.5061733440e+02  9.8610063279e+02 ] stress_75 gradient
 [  5.0131573599e-01  7.2465385327e-04 -2.8598713016e+03 -1.1546505753e+03 
   -1.6011311654e+01 -4.3167116510e+02  1.3050570907e+03 ] stress_76 gradient
 [  7.1591716114e-01  4.4213287258e-04 -2.4311520434e+03 -8.6245217387e+02 
    1.1743757063e+01 -2.4784192702e+02  1.4888933045e+03 ] stress_77 gradient
 [  8.3045301725e-01  3.0693960602e-04 -1.9585384358e+03 -6.2199007329e+02 
    1.7906725473e+01 -1.4888767447e+02  1.5878511621e+03 ] stress_78 gradient
 [  8.9253840868e-01  2.5331185561e-04 -1.4647467140e+03 -4.5311429339e+02 
    1.7322903717e+01 -9.4863566994e+01  1.6418772955e+03 ] stress_79 gradient
 [  9.2763755203e-01  2.4195141492e-04 -9.6759765860e+02 -3.3918157104e+02 
    1.5119706365e+01 -6.4136497818e+01  1.6726053203e+03 ] stress_80 gradient
 [  9.4842227824e-01  2.5201648746e-04 -4.8253826610e+02 -2.6242539447e+02 
    1.2875094158e+01 -4.5848227902e+01  1.6908947748e+03 ] stress_81 gradient
 [  9.6126077974e-01  2.7231753282e-04 -2.3596481795e+01 -2.1015431618e+02 
    1.0997924768e+01 -3.4503240219e+01  1.7022399233e+03 ] stress_82 gradient
 [  9.6946700967e-01  2.9650068916e-04  3.9639044704e+02 -1.7413692215e+02 
    9.5356337156e+00 -2.7225474300e+01  1.7095180863e+03 ] stress_83 gradient
 [  9.7483696852e-01  3.2071146283e-04  7.6594723595e+02 -1.4916066118e+02 
    8.4369541484e+00 -2.2448847584e+01  1.7142947178e+03 ] stress_84 gradient
 [  9.7837815049e-01  3.4246039711e-04  1.0749714373e+03 -1.3194524643e+02 
    7.6376656744e+00 -1.9291720976e+01  1.7174519829e+03 ] stress_85 gradient
 [  9.8067241454e-01  3.6008867213e-04  1.3151384950e+03 -1.2042131736e+02 
    7.0826701193e+00 -1.7242384364e+01  1.7195014497e+03 ] stress_86 gradient
 [  9.8205699329e-01  3.7249197968e-04  1.4800115717e+03 -1.1330821010e+02 
    6.7318297346e+00 -1.6003796269e+01  1.7207402349e+03 ] stress_87 gradient
 [  9.8271784856e-01  3.7897271762e-04  1.5650377423e+03 -1.0986758888e+02 
    6.5597847593e+00 -1.5412708684e+01  1.7213312737e+03 ] stress_88 gradient
 [  9.8259113399e-01  2.4532606953e-05  1.5650154507e+03 -1.0852099151e+02 
    6.4532372893e+00 -1.5532523734e+01  1.7212318354e+03 ] stress_89 gradient
 [  8.3935154488e-01 -1.7295983571e-03  1.5350859233e+03  4.6558966356e+02 
   -3.9679719301e+01 -1.5983707279e+02  1.6011647493e+03 ] stress_90 gradient
 [  4.9769170779e-01 -1.9158203285e-03  1.4412073205e+03  1.1663494575e+03 
   -9.6102899225e+01 -5.1024437816e+02  1.3096120826e+03 ] stress_91 gradient
 [  5.0298741511e-01 -5.3178285622e-04  1.4414383920e+03  1.1529857226e+03 
   -8.3438893120e+01 -5.0625254003e+02  1.3156718272e+03 ] stress_92 gradient
 [  9.3487915719e-01  1.3887815903e-04  1.5163686393e+03  1.1397966995e+02 
    5.7982166457e+02 -1.3880174328e+02  1.8735033851e+03 ] stress_93 gradient
 [  9.5210765551e-01  1.2956977239e-04  1.5240146606e+03  7.4054350828e+01 
    5.8917521888e+02 -1.2215194420e+02  1.8987802755e+03 ] stress_94 gradient
 [  9.5203267562e-01 -1.5992443921e-04  1.5240021556e+03  7.4841289138e+01 
    5.8909165939e+02 -1.2222033862e+02  1.8987143826e+03 ] stress_95 gradient
 [  9.4890387266e-01 -6.7314383226e-04  1.5234595452e+03  9.7342314052e+01 
    5.8638710510e+02 -1.2516329582e+02  1.8958662148e+03 ] stress_96 gradient
 [  9.1912674099e-01 -1.3290846194e-03  1.5179910334e+03  2.4381238933e+02 
    5.6583329530e+02 -1.5378461547e+02  1.8681684617e+03 ] stress_97 gradient
 [  7.8943842145e-01 -1.8730337312e-03  1.4911530801e+03  6.5805907026e+02 
    4.9365433521e+02 -2.8046711622e+02  1.7455736865e+03 ] stress_98 gradient
 [  4.8529082832e-01 -1.9730952020e-03  1.4111468163e+03  1.2141818097e+03 
    3.5693566796e+02 -5.8128771447e+02  1.4544589076e+03 ] stress_99 gradient
 [  7.1470156288e-02 -1.6352236597e-03  1.2497833086e+03  1.5099829711e+03 
    2.0736710212e+02 -9.9465912737e+02  1.0544219169e+03 ] stress_100 gradient
 [ -3.0012112372e-01 -1.1834909751e-03  1.0040911944e+03  1.4297710030e+03 
    1.0049925949e+02 -1.3688989445e+03  6.9225253932e+02 ] stress_101 gradient
 [ -5.6010704821e-01 -8.3420322817e-04  6.8934783656e+02  1.1679915202e+03 
    4.1999224892e+01 -1.6325649452e+03  4.3708952949e+02 ] stress_102 gradient
 [ -7.2243600009e-01 -6.1810091031e-04  3.2263349941e+02  8.9398442292e+02 
    1.4173002900e+01 -1.7981852908e+03  2.7681020342e+02 ] stress_103 gradient
 [ -8.2047430259e-01 -5.0004871832e-04 -8.3234686579e+01  6.7028581042e+02 
    1.9238751293e+00 -1.8987385751e+03  1.7949926728e+02 ] stress_104 gradient
 [ -8.8002350900e-01 -4.4389393430e-04 -5.1901494728e+02  5.0322007023e+02 
   -3.0856804241e+00 -1.9600993575e+03  1.2011704491e+02 ] stress_105 gradient
 [ -9.1701689876e-01 -4.2524838897e-04 -9.7763214403e+02  3.8217555078e+02 
   -4.8572145635e+00 -1.9983762726e+03  8.3074889265e+01 ] stress_106 gradient
 [ -9.4065512707e-01 -4.2934383660e-04 -1.4530550378e+03  2.9493091266e+02 
   -5.2224680489e+00 -2.0229243798e+03  5.9317926942e+01 ] stress_107 gradient
 [ -9.5620432966e-01 -4.4739084612e-04 -1.9397547664e+03  2.3166495935e+02 
   -5.0088257757e+00 -2.0391263701e+03  4.3638627325e+01 ] stress_108 gradient
 [ -9.6672034820e-01 -4.7405590531e-04 -2.4324465878e+03  1.8527806451e+02 
   -4.5866496696e+00 -2.0501164057e+03  3.3002725264e+01 ] stress_109 gradient
 [ -9.7401732986e-01 -5.0597975597e-04 -2.9260028885e+03  1.5082376697e+02 
   -4.1194098192e+00 -2.0577636013e+03  2.5602361019e+01 ] stress_110 gradient
 [ -9.7919962046e-01 -5.4094233061e-04 -3.4153928335e+03  1.2489219992e+02 
   -3.6749755097e+00 -2.0632071985e+03  2.0334129126e+01 ] stress_111 gradient
 [ -9.8295704337e-01 -5.7739311356e-04 -3.8956459380e+03  1.0512862806e+02 
   -3.2790713807e+00 -2.0671630921e+03  1.6505555814e+01 ] stress_112 gradient
 [ -9.8573173645e-01 -6.1419541602e-04 -4.3619716812e+03  8.9890425555e+01 
   -2.9373532078e+00 -2.0700905732e+03  1.3672962666e+01 ] stress_113 gradient
 [ -9.8781352625e-01 -6.5047207508e-04 -4.8097399334e+03  7.8021681591e+01 
   -2.6476316639e+00 -2.0722906771e+03  1.1543625761e+01 ] stress_114 gradient
 [ -9.8939624089e-01 -6.8551567338e-04 -5.2344901981e+03  6.8700025922e+01 
   -2.4044334117e+00 -2.0739655917e+03  9.9222627008e+00 ] stress_115 gradient
 [ -9.9061240103e-01 -7.1874042528e-04 -5.6320180608e+03  6.1332941914e+01 
   -2.2021026836e+00 -2.0752556004e+03  8.6742923701e+00 ] stress_116 gradient
 [ -9.9155375976e-01 -7.4964647637e-04 -5.9983463725e+03  5.5490063161e+01 
   -2.0346188194e+00 -2.0762545584e+03  7.7070654371e+00 ] stress_117 gradient
 [ -9.9228522473e-01 -7.7781249402e-04 -6.3298981459e+03  5.0854352580e+01 
   -1.8972382634e+00 -2.0770318585e+03  6.9550884302e+00 ] stress_118 gradient
 [ -9.9285297423e-01 -8.0287464158e-04 -6.6234008643e+03  4.7192255917e+01 
   -1.7857647977e+00 -2.0776359261e+03  6.3708386378e+00 ] stress_119 gradient
 [ -9.9328997195e-01 -8.2451758114e-04 -6.8758924623e+03  4.4331670284e+01 
   -1.6967319777e+00 -2.0781012079e+03  5.9203712715e+00 ] stress_120 gradient
 [ -9.9362012905e-01 -8.4248765667e-04 -7.0849420675e+03  4.2144337366e+01 
   -1.6274031431e+00 -2.0784526654e+03  5.5801246373e+00 ] stress_121 gradient
 [ -9.9386038519e-01 -8.5657278250e-04 -7.2484607930e+03  4.0537718099e+01 
   -1.5759538537e+00 -2.0787087700e+03  5.3325273216e+00 ] stress_122 gradient
 [ -9.9402245663e-01 -8.6660937168e-04 -7.3648121088e+03  3.9446476595e+01 
   -1.5405596565e+00 -2.0788815034e+03  5.1651994626e+00 ] stress_123 gradient
 [ -9.9411406404e-01 -8.7248724356e-04 -7.4328928520e+03  3.8827021117e+01 
   -1.5204907864e+00 -2.0789793524e+03  5.0705533899e+00 ] stress_124 gradient
 [ -9.9413824573e-01 -8.7406701244e-04 -7.4511828439e+03  3.8662940118e+01 
   -1.5150174552e+00 -2.0790048131e+03  5.0457936615e+00 ] stress_125 gradient
 [ -9.9374347232e-01 -3.8144942418e-04 -7.4511072699e+03  3.4512266624e+01 
   -1.3270998278e+00 -2.0786179103e+03  5.6196603371e+00 ] stress_126 gradient
 [ -9.5912812930e-01  7.4546812865e-04 -7.4440348497e+03 -1.6516858596e+02 
    7.8210221959e+00 -2.0438001556e+03  5.7234115992e+01 ] stress_127 gradient
 [ -6.5937116836e-01  1.5269432135e-03 -7.3684744252e+03 -1.0454247120e+03 
    4.8423214536e+01 -1.7378552787e+03  5.1078101926e+02 ] stress_128 gradient
 [ -6.5921685772e-02  1.2062790715e-03 -7.1266170427e+03 -1.6555106121e+03 
    7.6565304167e+01 -1.1264162449e+03  1.4172306547e+03 ] stress_129 gradient
 [  3.9036686555e-01  6.7633603931e-04 -6.7543993971e+03 -1.4980111953e+03 
    6.9129239441e+01 -6.5317075459e+02  2.1188287946e+03 ] stress_130 gradient
 [  6.2715867661e-01  3.7414492967e-04 -6.3649052121e+03 -1.1868001767e+03 
    5.4655933225e+01 -4.0641764686e+02  2.4846514306e+03 ] stress_131 gradient
 [  7.3832008373e-01  2.3700069618e-04 -6.0461102187e+03 -9.6884749069e+02 
    4.4554904628e+01 -2.9021002690e+02  2.6569360316e+03 ] stress_132 gradient
 [  7.8518024898e-01  1.8311404535e-04 -5.8538679417e+03 -8.5897520130e+02 
    3.9472006467e+01 -2.4112829030e+02  2.7297020869e+03 ] stress_133 gradient
 [  7.8769660168e-01  1.8033354818e-04 -5.8420544773e+03 -8.5272214878e+02 
    3.9182832253e+01 -2.3849086148e+02  2.7336121277e+03 ] stress_134 gradient
 [  7.3616124548e-01 -1.6484019845e-03 -5.8510228259e+03 -6.1167729920e+02 
   -1.7934347539e+01 -3.1022747763e+02  2.6647752821e+03 ] stress_135 gradient
 [  7.2499836044e-01 -1.7278487320e-03 -5.8531326449e+03 -5.6854882407e+02 
   -2.7995566791e+01 -3.2618319811e+02  2.6494644632e+03 ] stress_136 gradient
 [  7.3611137126e-01 -8.6286515487e-04 -5.8466465484e+03 -7.0194735213e+02 
   -1.8438185715e+01 -3.1472917872e+02  2.6648351846e+03 ] stress_137 gradient
 [  7.3609751153e-01 -1.0367167623e-03 -5.8466476358e+03 -7.0183759703e+02 
   -1.8464457693e+01 -3.1474665175e+02  2.6648184119e+03 ] stress_138 gradient
 [  7.2572310156e-01 -1.8419466808e-03 -5.8480332495e+03 -6.5203662561e+02 
   -3.0152897645e+01 -3.2913718828e+02  2.6509868672e+03 ] stress_139 gradient
 [  4.6957197930e-01 -2.6291115759e-03 -5.8932425319e+03  2.1046361869e+01 
   -1.7632821847e+02 -7.1003997031e+02  2.2848779368e+03 ] stress_140 gradient
 [ -2.2836748808e-01 -2.0197002605e-03 -6.1257195288e+03  7.5864864037e+02 
   -2.8895546272e+02 -1.7985182768e+03  1.2386610754e+03 ] stress_141 gradient
 [ -6.6992377012e-01 -1.4026599230e-03 -6.5234877059e+03  6.6465252368e+02 
   -2.1281726065e+02 -2.5132355272e+03  5.5168395624e+02 ] stress_142 gradient
 [ -8.3684118766e-01 -1.1738160094e-03 -6.9352593619e+03  4.6737280235e+02 
   -1.4164646951e+02 -2.7909992664e+03  2.8469897334e+02 ] stress_143 gradient
 [ -8.9833668731e-01 -1.1031172862e-03 -7.2568206894e+03  3.5414478818e+02 
   -1.0485840112e+02 -2.8952388604e+03  1.8450432719e+02 ] stress_144 gradient
 [ -9.1921048206e-01 -1.0843724340e-03 -7.4262396228e+03  3.0783731925e+02 
   -9.0325982952e+01 -2.9309916718e+03  1.5013861864e+02 ] stress_145 gradient
 [ -9.1920942073e-01 -9.8621881529e-04 -7.4262396228e+03  3.0781904589e+02 
   -9.0325253174e+01 -2.9309901741e+03  1.5014021604e+02 ] stress_146 gradient
 [ -9.0864924251e-01  1.3460757713e-04 -7.4240496083e+03  2.2843833185e+02 
   -8.6289037955e+01 -2.9155699769e+03  1.6559188586e+02 ] stress_147 gradient
 [ -6.8421117118e-01  1.3023719564e-03 -7.3685673203e+03 -6.1558247295e+02 
   -3.8596018411e+01 -2.5813315131e+03  5.0051521568e+02 ] stress_148 gradient
 [ -1.0836480067e-01  1.1827988098e-03 -7.1457111635e+03 -1.4816418372e+03 
    2.4112385848e+01 -1.7139647950e+03  1.3696680093e+03 ] stress_149 gradient
 [  3.1967772381e-01  7.3397633725e-04 -6.8314924740e+03 -1.4908720916e+03 
    4.1331478759e+01 -1.0645252808e+03  2.0204519919e+03 ] stress_150 gradient
 [  5.0188379765e-01  5.1311806537e-04 -6.6014169900e+03 -1.3372772440e+03 
    4.1369062285e+01 -7.8690082659e+02  2.2986527338e+03 ] stress_151 gradient
 [  5.2482506464e-01  4.8483628589e-04 -6.5645657010e+03 -1.3103307468e+03 
    4.1022600560e+01 -7.5188837241e+02  2.3337376726e+03 ] stress_152 gradient
 [  5.2019412493e-01 -5.4584811105e-04 -6.5651316904e+03 -1.2868201589e+03 
    3.1535497029e+01 -7.5732448114e+02  2.3283053077e+03 ] stress_153 gradient
 [  3.1496574838e-01 -1.8426473526e-03 -6.6024984048e+03 -6.1207879714e+02 
   -2.1602098254e+02 -1.0282203217e+03  2.0575959819e+03 ] stress_154 gradient
 [ -2.9213225848e-01 -1.6978506174e-03 -6.8148042157e+03  4.8077332525e+02 
   -5.1300928528e+02 -1.9047577837e+03  1.1816509950e+03 ] stress_155 gradient
 [ -6.4936870755e-01 -1.3380827200e-03 -7.1165303623e+03  6.5590357126e+02 
   -4.5908914991e+02 -2.4600990496e+03  6.2667918604e+02 ] stress_156 gradient
 [ -7.5345805188e-01 -1.2276500718e-03 -7.2891185098e+03  6.1613329989e+02 
   -3.9892376375e+02 -2.6296383458e+03  4.5725193791e+02 ] stress_157 gradient
 [ -7.5269401862e-01 -6.3893544161e-04 -7.2889581190e+03  6.0781449552e+02 
   -3.9838810729e+02 -2.6285630057e+03  4.5832738882e+02 ] stress_158 gradient
 [ -6.0305091351e-01  9.6312377204e-04 -7.2522017597e+03 -9.7642621241e+01 
   -3.3469902844e+02 -2.4108349944e+03  6.7607600839e+02 ] stress_159 gradient
 [ -3.1400311101e-01  1.1758320598e-03 -7.1592133531e+03 -8.3402177744e+02 
   -2.4016354467e+02 -1.9855034433e+03  1.1014509102e+03 ] stress_160 gradient
 [ -3.1509306853e-01  3.7574455513e-04 -7.1592853931e+03 -8.3080730229e+02 
   -2.4311494609e+02 -1.9866588598e+03  1.1002958288e+03 ] stress_161 gradient
 [ -5.7522229140e-01 -9.2378888365e-04 -7.2038607239e+03 -2.4027768903e+02 
   -6.5064270999e+02 -2.3134059874e+03  7.7362180257e+02 ] stress_162 gradient
 [ -9.4022277007e-01 -8.2825852620e-04 -7.4245813447e+03  2.7119230994e+02 
   -6.5749294608e+02 -2.8698560417e+03  2.1728860773e+02 ] stress_163 gradient
 [ -9.6436623342e-01 -8.2517933850e-04 -7.4717112393e+03  2.7545194554e+02 
   -6.0440931782e+02 -2.9159998134e+03  1.7115483843e+02 ] stress_164 gradient
 [ -9.6435000130e-01 -6.2427838690e-04 -7.4717085209e+03  2.7522861977e+02 
   -6.0439490472e+02 -2.9159778473e+03  1.7117680271e+02 ] stress_165 gradient
 [ -9.6352322467e-01 -2.3026769753e-04 -7.4715497611e+03  2.6721986493e+02 
   -6.0379648742e+02 -2.9148171390e+03  1.7233771463e+02 ] stress_166 gradient
 [ -9.5444855568e-01  3.2983826794e-04 -7.4697609956e+03  2.0387110687e+02 
   -5.9828593982e+02 -2.9018955850e+03  1.8525870030e+02 ] stress_167 gradient
 [ -9.0720679001e-01  9.5265596764e-04 -7.4598988623e+03 -3.0170722692e+01 
   -5.7376177719e+02 -2.8339105278e+03  2.5324333194e+02 ] stress_168 gradient
 [ -7.6178422675e-01  1.4162311211e-03 -7.4255770727e+03 -5.1840713950e+02 
   -5.0846580193e+02 -2.6229107307e+03  4.6424145035e+02 ] stress_169 gradient
 [ -4.7920499150e-01  1.5070688952e-03 -7.3419570676e+03 -1.1010777223e+03 
   -3.9782130759e+02 -2.2102439301e+03  8.7690802068e+02 ] stress_170 gradient
 [ -1.1504494108e-01  1.2543312010e-03 -7.1894766566e+03 -1.4609367160e+03 
   -2.7272412324e+02 -1.6756549307e+03  1.4115007736e+03 ] stress_171 gradient
 [  2.2540768643e-01  8.8017919859e-04 -6.9654416544e+03 -1.4887036296e+03 
   -1.6962667449e+02 -1.1736842811e+03  1.9134787702e+03 ] stress_172 gradient
 [  4.8410190900e-01  5.5523670341e-04 -6.6797029397e+03 -1.3087739023e+03 
   -1.0029765854e+02 -7.9082476953e+02  2.2963460853e+03 ] stress_173 gradient
 [  6.6026988509e-01  3.2907701122e-04 -6.3448188429e+03 -1.0674026733e+03 
   -5.8388196243e+01 -5.2923905765e+02  2.5579374402e+03 ] stress_174 gradient
 [  7.7501642575e-01  1.8955658092e-04 -5.9710522024e+03 -8.4218806129e+02 
   -3.4109421195e+01 -3.5835583588e+02  2.7288255125e+03 ] stress_175 gradient
 [  8.4913443570e-01  1.1175760639e-04 -5.5659908639e+03 -6.5770155515e+02 
   -2.0151885012e+01 -2.4768766514e+02  2.8394967199e+03 ] stress_176 gradient
 [  8.9748033910e-01  7.4918352528e-05 -5.1353741006e+03 -5.1454048692e+02 
   -1.2052817705e+01 -1.7532985787e+02  2.9118566357e+03 ] stress_177 gradient
 [  9.2959179485e-01  6.4774613898e-05 -4.6838146442e+03 -4.0574759008e+02 
   -7.2749664102e+00 -1.2716620410e+02  2.9600215016e+03 ] stress_178 gradient
 [  9.5137494192e-01  7.2104945520e-05 -4.2153891402e+03 -3.2348817794e+02 
   -4.4045702592e+00 -9.4430235894e+01  2.9927582595e+03 ] stress_179 gradient
 [  9.6647563863e-01  9.1006071418e-05 -3.7338572586e+03 -2.6110305814e+02 
   -2.6487263285e+00 -7.1696328334e+01  3.0154932839e+03 ] stress_180 gradient
 [  9.7716636053e-01  1.1764986430e-04 -3.2428046860e+03 -2.1345454281e+02 
   -1.5577094228e+00 -5.5575213164e+01  3.0316146645e+03 ] stress_181 gradient
 [  9.8488564776e-01  1.4948417516e-04 -2.7457828559e+03 -1.7673691125e+02 
   -8.7044174992e-01 -4.3917707887e+01  3.0432729038e+03 ] stress_182 gradient
 [  9.9056241443e-01  1.8474981871e-04 -2.2462638220e+03 -1.4816756716e+02 
   -4.3312276438e-01 -3.5332460215e+01  3.0518581410e+03 ] stress_183 gradient
 [  9.9480759164e-01  2.2218226775e-04 -1.7477152887e+03 -1.2572207488e+02 
   -1.5307076773e-01 -2.8904382707e+01  3.0582864861e+03 ] stress_184 gradient
 [  9.9803118600e-01  2.6083651892e-04 -1.2535380851e+03 -1.0792125747e+02 
    2.6819312442e-02 -2.4016927065e+01  3.0631737377e+03 ] stress_185 gradient
 [  1.0005130350e+00  2.9997426577e-04 -7.6710096255e+02 -9.3679229019e+01 
    1.4194166498e-01 -2.0250740612e+01  3.0669404116e+03 ] stress_186 gradient
 [  1.0024476120e+00  3.3899730931e-04 -2.9170470994e+02 -8.2192111003e+01 
    2.1510182872e-01 -1.7311777246e+01  3.0698792320e+03 ] stress_187 gradient
 [  1.0039723281e+00  3.7740584324e-04  1.6945046785e+02 -7.2859617736e+01 
    2.6053045779e-01 -1.4993356006e+01  3.0721978611e+03 ] stress_188 gradient
 [  1.0051855331e+00  4.1476823857e-04  6.1323613404e+02 -6.5230328223e+01 
    2.8807954801e-01 -1.3147205749e+01  3.0740440585e+03 ] stress_189 gradient
 [  1.0061587110e+00  4.5070776416e-04  1.0366706502e+03 -5.8961185952e+01 
    3.0376975770e-01 -1.1664993721e+01  3.0755260482e+03 ] stress_190 gradient
 [  1.0069445119e+00  4.8489017336e-04  1.4369142831e+03 -5.3789732578e+01 
    3.1161486047e-01 -1.0467841663e+01  3.0767237004e+03 ] stress_191 gradient
 [  1.0075819555e+00  5.1701191612e-04  1.8112306020e+03 -4.9514340514e+01 
    3.1453397156e-01 -9.4958420592e+00  3.0776957195e+03 ] stress_192 gradient
 [  1.0081005508e+00  5.4680855895e-04  2.1571577436e+03 -4.5977709445e+01 
    3.1435152712e-01 -8.7040642570e+00  3.0784872322e+03 ] stress_193 gradient
 [  1.0085224193e+00  5.7403813749e-04  2.4723578075e+03 -4.3058016956e+01 
    3.1234464032e-01 -8.0605575851e+00  3.0791309852e+03 ] stress_194 gradient
 [  1.0088645216e+00  5.9848308108e-04  2.7546701391e+03 -4.0660390970e+01 
    3.0960797367e-01 -7.5378644284e+00  3.0796537350e+03 ] stress_195 gradient
 [  1.0091397809e+00  6.1995969119e-04  3.0022521466e+03 -3.8710025630e+01 
    3.0632397783e-01 -7.1175132853e+00  3.0800738518e+03 ] stress_196 gradient
 [  1.0093580612e+00  6.3830077232e-04  3.2133884636e+03 -3.7149537983e+01 
    3.0322242437e-01 -6.7835288311e+00  3.0804077088e+03 ] stress_197 gradient
 [  1.0095267712e+00  6.5337261620e-04  3.3867008165e+03 -3.5934187023e+01 
    3.0030331535e-01 -6.5259264704e+00  3.0806656892e+03 ] stress_198 gradient
 [  1.0096515087e+00  6.6506374312e-04  3.5210289542e+03 -3.5030494572e+01 
    2.9811398410e-01 -6.3352208488e+00  3.0808561794e+03 ] stress_199 gradient
 [  1.0097361655e+00  6.7328437271e-04  3.6154279301e+03 -3.4414521376e+01 
    2.9647198411e-01 -6.2059204387e+00  3.0809859683e+03 ] stress_200 gradient
 [  1.0097834051e+00  6.7797729764e-04  3.6692980456e+03 -3.4069832904e+01 
    2.9537731952e-01 -6.1335321778e+00  3.0810582508e+03 ] stress_201 gradient
 [  1.0097856942e+00  6.7820718543e-04  3.6719366107e+03 -3.4053076575e+01 
    2.9537731952e-01 -6.1300375693e+00  3.0810614456e+03 ] stress_202 gradient
 [  9.7495242465e-01 -9.8270713254e-04  3.6645983224e+03  1.7606299196e+02 
   -7.4871491299e+00 -6.6621162447e+01  3.0292453179e+03 ] stress_203 gradient
 [  6.2194721190e-01 -1.8204946376e-03  3.5704185110e+03  1.1889229863e+03 
   -4.5206832841e+01 -6.8773365272e+02  2.4972053333e+03 ] stress_204 gradient
 [  6.2195001506e-01 -1.2964105541e-03  3.5704185654e+03  1.1889145828e+03 
   -4.5199535069e+01 -6.8773010819e+02  2.4972109641e+03 ] stress_205 gradient
 [  7.8677659443e-01  4.3337303151e-04  3.5857333345e+03  7.1275065565e+02 
    2.8141540474e+02 -4.6364381158e+02  2.8574946485e+03 ] stress_206 gradient
 [  8.2215655340e-01  4.4369955451e-04  3.5908848706e+03  6.1059701137e+02 
    3.4010043786e+02 -4.1333097532e+02  2.9383926782e+03 ] stress_207 gradient
 [  8.2205605995e-01  1.3202328809e-04  3.5908652975e+03  6.1175705955e+02 
    3.4003858924e+02 -4.1349771794e+02  2.9382393276e+03 ] stress_208 gradient
 [  8.1793944943e-01 -4.2189091099e-04  3.5900579063e+03  6.4282867048e+02 
    3.3809263835e+02 -4.2042951789e+02  2.9318537130e+03 ] stress_209 gradient
 [  7.7993040779e-01 -1.1128863626e-03  3.5821933186e+03  8.2876749516e+02 
    3.2375470580e+02 -4.8516209559e+02  2.8722214972e+03 ] stress_210 gradient
 [  6.2453703574e-01 -1.6349959755e-03  3.5453988460e+03  1.2847223815e+03 
    2.7620667474e+02 -7.5198147869e+02  2.6264243350e+03 ] stress_211 gradient
 [  2.9506985543e-01 -1.6698566547e-03  3.4425277001e+03  1.7524979058e+03 
    1.9375511544e+02 -1.3211481534e+03  2.1020992031e+03 ] stress_212 gradient
 [ -1.0550534680e-01 -1.3226346743e-03  3.2482449255e+03  1.8346603657e+03 
    1.1154662667e+02 -2.0164239140e+03  1.4615957006e+03 ] stress_213 gradient
 [ -4.3409683354e-01 -9.2846289986e-04  2.9671069811e+03  1.5729267961e+03 
    5.6315811454e+01 -2.5889591389e+03  9.3416070647e+02 ] stress_214 gradient
 [ -6.5175634789e-01 -6.4817670948e-04  2.6183140088e+03  1.2165603693e+03 
    2.6482337288e+01 -2.9694523033e+03  5.8363878577e+02 ] stress_215 gradient
 [ -7.8417156859e-01 -4.8467293950e-04  2.2196025161e+03  9.0496688585e+02 
    1.1808342345e+01 -3.2015879747e+03  3.6978738787e+02 ] stress_216 gradient
 [ -8.6344591857e-01 -4.0137099590e-04  1.7838565084e+03  6.6942219294e+02 
    4.8101439355e+00 -3.3409099150e+03  2.4143972900e+02 ] stress_217 gradient
 [ -9.1163434962e-01 -3.6737387299e-04  1.3205075102e+03  5.0020302325e+02 
    1.5016990233e+00 -3.4257849006e+03  1.6324969514e+02 ] stress_218 gradient
 [ -9.4173499986e-01 -3.6297453854e-04  8.3718305718e+02  3.8013851914e+02 
   -4.5246186709e-02 -3.4789054029e+03  1.1431288464e+02 ] stress_219 gradient
 [ -9.6111858223e-01 -3.7641797047e-04  3.4066740965e+02  2.9459391279e+02 
   -7.4437274011e-01 -3.5131720083e+03  8.2745425094e+01 ] stress_220 gradient
 [ -9.7398114056e-01 -4.0068056271e-04 -1.6269937305e+02  2.3294677248e+02 
   -1.0326347305e+00 -3.5359463535e+03  6.1764747497e+01 ] stress_221 gradient
 [ -9.8275813750e-01 -4.3143019580e-04 -6.6678220568e+02  1.8789349978e+02 
   -1.1218499928e+00 -3.5515083318e+03  4.7428862985e+01 ] stress_222 gradient
 [ -9.8890078674e-01 -4.6586712706e-04 -1.1656145493e+03  1.5448550736e+02 
   -1.1169239949e+00 -3.5624129991e+03  3.7383200980e+01 ] stress_223 gradient
 [ -9.9329738046e-01 -5.0207931362e-04 -1.6533619834e+03  1.2936817373e+02 
   -1.0702182568e+00 -3.5702264382e+03  3.0184908088e+01 ] stress_224 gradient
 [ -9.9650655320e-01 -5.3868843912e-04 -2.1243950617e+03  1.1024627270e+02 
   -1.0080047514e+00 -3.5759356254e+03  2.4925461904e+01 ] stress_225 gradient
 [ -9.9888824177e-01 -5.7464682532e-04 -2.5732925740e+03  9.5532860468e+01 
   -9.4323702373e-01 -3.5801765790e+03  2.1018216547e+01 ] stress_226 gradient
 [ -1.0006797888e+00 -6.0912277688e-04 -2.9948931977e+03  8.4116721246e+01 
   -8.8193573845e-01 -3.5833691509e+03  1.8077399413e+01 ] stress_227 gradient
 [ -1.0020411432e+00 -6.4144092022e-04 -3.3844205482e+03  7.5208744611e+01 
   -8.2720244898e-01 -3.5857969033e+03  1.5840637223e+01 ] stress_228 gradient
 [ -1.0030814554e+00 -6.7102841232e-04 -3.7373543225e+03  6.8246065043e+01 
   -7.7958448865e-01 -3.5876530382e+03  1.4131017698e+01 ] stress_229 gradient
 [ -1.0038769956e+00 -6.9741272742e-04 -4.0497162842e+03  6.2819795957e+01 
   -7.3981163110e-01 -3.5890733458e+03  1.2822346087e+01 ] stress_230 gradient
 [ -1.0044811009e+00 -7.2019480957e-04 -4.3179511940e+03  5.8634127251e+01 
   -7.0715410062e-01 -3.5901526797e+03  1.1828362672e+01 ] stress_231 gradient
 [ -1.0049311675e+00 -7.3903834324e-04 -4.5389268090e+03  5.5475973135e+01 
   -6.8142945691e-01 -3.5909564390e+03  1.1087567479e+01 ] stress_232 gradient
 [ -1.0052536456e+00 -7.5368596764e-04 -4.7102079071e+03  5.3190952432e+01 
   -6.6227280487e-01 -3.5915330489e+03  1.0556431305e+01 ] stress_233 gradient
 [ -1.0054662863e+00 -7.6393521985e-04 -4.8298257589e+03  5.1673298005e+01 
   -6.4913681531e-01 -3.5919129625e+03  1.0206600261e+01 ] stress_234 gradient
 [ -1.0055803898e+00 -7.6964329810e-04 -4.8963662064e+03  5.0855432892e+01 
   -6.4202148617e-01 -3.5921171473e+03  1.0018506172e+01 ] stress_235 gradient
 [ -1.0055803690e+00 -7.3840439566e-04 -4.8963662064e+03  5.0855099604e+01 
   -6.4202148617e-01 -3.5921171473e+03  1.0018506177e+01 ] stress_236 gradient
 [ -9.6911708269e-01  9.3140924532e-04 -4.8887055053e+03 -1.6617196592e+02 
    9.7646013106e+00 -3.5294383993e+03  7.2710146199e+01 ] stress_237 gradient
 [ -7.0338814159e-01  1.7353513159e-03 -4.8210477045e+03 -1.0003816073e+03 
    4.9943688901e+01 -3.0656133674e+03  5.3663602978e+02 ] stress_238 gradient
 [ -7.1012689451e-01  6.9206199045e-04 -4.8248552741e+03 -8.7845480052e+02 
    3.2506100698e+01 -3.0740543378e+03  5.2820653927e+02 ] stress_239 gradient
 [ -8.0035619612e-01 -3.0172296225e-04 -4.9084178105e+03  5.8482849098e+01 
   -8.8546421262e+01 -3.2098227634e+03  3.9262664272e+02 ] stress_240 gradient
 [ -7.5716165907e-01  1.1905408513e-03 -4.8999638544e+03 -1.6645491571e+02 
   -7.5754521704e+01 -3.1356692280e+03  4.6679082412e+02 ] stress_241 gradient
 [ -5.9735315955e-01  1.6702066586e-03 -4.8637845215e+03 -6.6086804376e+02 
   -4.4431663504e+01 -2.8581643392e+03  7.4433547306e+02 ] stress_242 gradient
 [ -6.2792056640e-01  1.4135770430e-04 -4.8800666920e+03 -3.0324425801e+02 
   -9.2737896581e+01 -2.9026933535e+03  6.9983660481e+02 ] stress_243 gradient
 [ -6.9108745383e-01 -3.0792281176e-04 -4.9256861943e+03  1.7261917578e+02 
   -1.4904495071e+02 -3.0035087332e+03  5.9908845885e+02 ] stress_244 gradient
 [ -7.9320734293e-01 -5.9331556151e-04 -5.0415307838e+03  6.0669052286e+02 
   -1.8385933667e+02 -3.1778486192e+03  4.2486421242e+02 ] stress_245 gradient
 [ -7.8894945057e-01  2.8699946237e-04 -5.0406913144e+03  5.7132557979e+02 
   -1.8184734095e+02 -3.1706906683e+03  4.3202257026e+02 ] stress_246 gradient
 [ -6.1403882466e-01  1.4913896001e-03 -5.0003112097e+03 -1.4726089351e+02 
   -1.3302896848e+02 -2.8699012220e+03  7.3283094371e+02 ] stress_247 gradient
 [ -2.2769997349e-02  1.3799466917e-03 -4.7831422401e+03 -1.1512153327e+03 
   -3.4866929924e+01 -1.8403132614e+03  1.7624983207e+03 ] stress_248 gradient
 [  4.3957330005e-01  8.6166048126e-04 -4.4285202843e+03 -1.1908041116e+03 
    6.5351547791e+00 -1.0286636374e+03  2.5742221552e+03 ] stress_249 gradient
 [  6.3801269777e-01  6.1017627689e-04 -4.1245954240e+03 -1.0090954209e+03 
    1.4887272330e+01 -6.7853160715e+02  2.9243886539e+03 ] stress_250 gradient
 [  6.9480373456e-01  5.3873645670e-04 -3.9951382743e+03 -9.2948256616e+02 
    1.5974457905e+01 -5.7807816878e+02  3.0248524623e+03 ] stress_251 gradient
 [  6.9444635745e-01  3.2335512431e-05 -3.9952067802e+03 -9.2564586120e+02 
    1.5538233586e+01 -5.7862532418e+02  3.0243053521e+03 ] stress_252 gradient
 [  6.3491256115e-01 -1.3767994951e-03 -4.0084603912e+03 -5.8300151106e+02 
   -2.2379529899e+01 -6.7672449664e+02  2.9262106906e+03 ] stress_253 gradient
 [  2.0676495452e-01 -1.9911213783e-03 -4.1437140112e+03  6.5634688992e+02 
   -1.4857077798e+02 -1.4114926960e+03  2.1914686551e+03 ] stress_254 gradient
 [ -2.9942106165e-01 -1.6370625214e-03 -4.4426966591e+03  1.1533020357e+03 
   -1.8026700843e+02 -2.3033784661e+03  1.2996023621e+03 ] stress_255 gradient
 [ -5.3662223422e-01 -1.3843947173e-03 -4.7115959674e+03  1.0976161028e+03 
   -1.5993359134e+02 -2.7282661024e+03  8.7472097763e+02 ] stress_256 gradient
 [ -5.8628832897e-01 -1.3289718406e-03 -4.7916641584e+03  1.0592434448e+03 
   -1.5242454890e+02 -2.8178762786e+03  7.8511191536e+02 ] stress_257 gradient
 [ -5.7293314671e-01 -2.5789339707e-05 -4.7884797207e+03  9.4552207282e+02 
   -1.4610394861e+02 -2.7954279302e+03  8.0755940737e+02 ] stress_258 gradient
 [ -2.8590113797e-01  1.1337510372e-03 -4.7008078626e+03 -2.4305978310e+02 
   -7.0211571998e+01 -2.3010245496e+03  1.3019548960e+03 ] stress_259 gradient
 [ -4.3834935682e-02  1.1418650706e-03 -4.5969931836e+03 -7.7863227408e+02 
   -2.8832219855e+01 -1.8796844873e+03  1.7232920847e+03 ] stress_260 gradient
 [ -5.0327001210e-02  1.2417335473e-04 -4.5987370506e+03 -7.1502463166e+02 
   -3.7201377703e+01 -1.8895220918e+03  1.7134545282e+03 ] stress_261 gradient
 [ -2.8488426452e-01 -1.0911240045e-03 -4.6910757274e+03  3.5672700960e+02 
   -1.6123368942e+02 -2.2809051563e+03  1.3220798054e+03 ] stress_262 gradient
 [ -6.0572437438e-01 -1.1074341536e-03 -4.9360838698e+03  8.7396859822e+02 
   -1.9033300773e+02 -2.8444183079e+03  7.5857307741e+02 ] stress_263 gradient
 [ -6.6378765535e-01 -1.0782329673e-03 -5.0108569885e+03  8.8233937249e+02 
   -1.8287687413e+02 -2.9489454580e+03  6.5404627695e+02 ] stress_264 gradient
 [ -6.6377163134e-01 -8.7597299297e-04 -5.0108542700e+03  8.8208902743e+02 
   -1.8286410303e+02 -2.9489199973e+03  6.5407223473e+02 ] stress_265 gradient
 [ -6.6264992963e-01 -4.2525218996e-04 -5.0106106934e+03  8.7000597946e+02 
   -1.8220712110e+02 -2.9470598686e+03  6.5593201004e+02 ] stress_266 gradient
 [ -6.4852524097e-01  2.2859704165e-04 -5.0074262558e+03  7.6306586361e+02 
   -1.7600383250e+02 -2.9232216657e+03  6.7977004052e+02 ] stress_267 gradient
 [ -5.7318516489e-01  9.0741181311e-04 -4.9888758327e+03  3.7161698158e+02 
   -1.5120675145e+02 -2.7944103011e+03  8.0857819045e+02 ] stress_268 gradient
 [ -3.6135337798e-01  1.2885236323e-03 -4.9256414480e+03 -3.3760990101e+02 
   -9.9810039664e+01 -2.4286428059e+03  1.1743393664e+03 ] stress_269 gradient
 [ -2.3521148962e-02  1.2239879853e-03 -4.7838457849e+03 -9.6851524879e+02 
   -4.1500969513e+01 -1.8407885277e+03  1.7621884247e+03 ] stress_270 gradient
 [  3.1685366844e-01  9.2908024817e-04 -4.5517477453e+03 -1.1899862235e+03 
   -2.4755866896e+00 -1.2447895219e+03  2.3581879074e+03 ] stress_271 gradient
 [  5.7153060857e-01  6.4832172451e-04 -4.2415698174e+03 -1.0959884289e+03 
    1.4349426537e+01 -7.9650050836e+02  2.8064800173e+03 ] stress_272 gradient
 [  7.3570238435e-01  4.6138893406e-04 -3.8720809907e+03 -8.9301930209e+02 
    1.8434536829e+01 -5.0621859243e+02  3.0967651056e+03 ] stress_273 gradient
 [  8.3609388597e-01  3.5743606148e-04 -3.4585515598e+03 -6.9385814853e+02 
    1.7385664555e+01 -3.2801616870e+02  3.2749704772e+03 ] stress_274 gradient
 [  8.9727448256e-01  3.0932585861e-04 -3.0120370747e+03 -5.3255788389e+02 
    1.4867203457e+01 -2.1904437939e+02  3.3839440456e+03 ] stress_275 gradient
 [  9.3525041484e-01  2.9595570402e-04 -2.5410105208e+03 -4.1056351738e+02 
    1.2278318858e+01 -1.5119910650e+02  3.4517905019e+03 ] stress_276 gradient
 [  9.5946196984e-01  3.0384887101e-04 -2.0525209393e+03 -3.2037616694e+02 
    1.0047572417e+01 -1.0782755557e+02  3.4951623631e+03 ] stress_277 gradient
 [  9.7534703157e-01  3.2478593283e-04 -1.5529633029e+03 -2.5391490368e+02 
    8.2439280807e+00 -7.9304084872e+01  3.5236867718e+03 ] stress_278 gradient
 [  9.8606370405e-01  3.5370541277e-04 -1.0483878802e+03 -2.0465698785e+02 
    6.8214098837e+00 -6.0018853889e+01  3.5429722065e+03 ] stress_279 gradient
 [  9.9348321738e-01  3.8737901841e-04 -5.4464648971e+02 -1.6779730676e+02 
    5.7084996624e+00 -4.6641503388e+01  3.5563496498e+03 ] stress_280 gradient
 [  9.9874181975e-01  4.2364576603e-04 -4.7442520845e+01 -1.3991191507e+02 
    4.8380579135e+00 -3.7144163640e+01  3.5658474029e+03 ] stress_281 gradient
 [  1.0025473563e+00  4.6097852325e-04  4.3767395992e+02 -1.1858441925e+02 
    4.1549864587e+00 -3.0259291249e+01  3.5727322056e+03 ] stress_282 gradient
 [  1.0053517250e+00  4.9823757012e-04  9.0531762650e+02 -1.0210827118e+02 
    3.6165933314e+00 -2.5179632296e+01  3.5778123434e+03 ] stress_283 gradient
 [  1.0074504545e+00  5.3453453321e-04  1.3503565160e+03 -8.9269338117e+01 
    3.1900385628e+00 -2.1373008265e+01  3.5816189525e+03 ] stress_284 gradient
 [  1.0090406193e+00  5.6914433739e-04  1.7678745134e+03 -7.9198669984e+01 
    2.8510570545e+00 -1.8485465522e+01  3.5845062566e+03 ] stress_285 gradient
 [  1.0102565713e+00  6.0146652230e-04  2.1533192376e+03 -7.1266789686e+01 
    2.5812219384e+00 -1.6275377052e+01  3.5867162624e+03 ] stress_286 gradient
 [  1.0111911042e+00  6.3099156266e-04  2.5024775748e+03 -6.5015369128e+01 
    2.3666674430e+00 -1.4575501006e+01  3.5884162975e+03 ] stress_287 gradient
 [  1.0119091881e+00  6.5728224829e-04  2.8114898148e+03 -6.0109132341e+01 
    2.1969942454e+00 -1.3268518488e+01  3.5897237710e+03 ] stress_288 gradient
 [  1.0124569804e+00  6.7997512743e-04  3.0770165661e+03 -5.6300561466e+01 
    2.0647221276e+00 -1.2270558958e+01  3.5907217479e+03 ] stress_289 gradient
 [  1.0128670287e+00  6.9876520666e-04  3.2961533953e+03 -5.3408991566e+01 
    1.9636479869e+00 -1.1523212572e+01  3.5914689327e+03 ] stress_290 gradient
 [  1.0131622451e+00  7.1340450737e-04  3.4664797603e+03 -5.1304233557e+01 
    1.8899404898e+00 -1.0985043298e+01  3.5920068579e+03 ] stress_291 gradient
 [  1.0133584248e+00  7.2370894613e-04  3.5861769919e+03 -4.9894518385e+01 
    1.8404980851e+00 -1.0627095832e+01  3.5923646759e+03 ] stress_292 gradient
 [  1.0134655360e+00  7.2954544013e-04  3.6539075938e+03 -4.9120957554e+01 
    1.8133138858e+00 -1.0431397918e+01  3.5925603577e+03 ] stress_293 gradient
 [  1.0134670967e+00  7.2963166008e-04  3.6549079976e+03 -4.9109660250e+01 
    1.8129489948e+00 -1.0428901775e+01  3.5925631531e+03 ] stress_294 gradient
 [  9.7582602470e-01 -9.8190786590e-04  3.6468841064e+03  1.7708376035e+02 
   -6.5968209522e+00 -7.5603796704e+01  3.5273903484e+03 ] stress_295 gradient
 [  6.3259404049e-01 -1.8050143507e-03  3.5546979803e+03  1.1761424291e+03 
   -4.4022860564e+01 -6.7759774867e+02  2.9254081958e+03 ] stress_296 gradient
 [  6.3261628265e-01 -1.1765837275e-03  3.5546986327e+03  1.1760739385e+03 
   -4.3958804371e+01 -6.7757094005e+02  2.9254349523e+03 ] stress_297 gradient
 [  8.2630910348e-01  4.1634459138e-04  3.5778138333e+03  5.9718082395e+02 
    3.6614563861e+02 -4.1642070596e+02  3.1865778366e+03 ] stress_298 gradient
 [  8.5447209680e-01  4.2275878792e-04  3.5833867351e+03  5.1319671675e+02 
    4.1325421608e+02 -3.7596465461e+02  3.2270332410e+03 ] stress_299 gradient
 [  8.5444895563e-01  2.1342208988e-04  3.5833823855e+03  5.1349896275e+02 
    4.1323797854e+02 -3.7600259604e+02  3.2269957021e+03 ] stress_300 gradient
 [  8.5350768015e-01 -1.6137627347e-04  3.5832007905e+03  5.2208408700e+02 
    4.1270943741e+02 -3.7756817938e+02  3.2254298487e+03 ] stress_301 gradient
 [  8.4435545077e-01 -6.7603835916e-04  3.5813919081e+03  5.8146276756e+02 
    4.0842746972e+02 -3.9296341503e+02  3.2100348867e+03 ] stress_302 gradient
 [  8.0007336189e-01 -1.2376366226e-03  3.5721436096e+03  7.8155002431e+02 
    3.9084585998e+02 -4.6807846617e+02  3.1349222478e+03 ] stress_303 gradient
 [  6.6895705391e-01 -1.6566115960e-03  3.5413504183e+03  1.1702713979e+03 
    3.4618459033e+02 -6.9193157274e+02  2.9110736691e+03 ] stress_304 gradient
 [  4.1673013331e-01 -1.7496963766e-03  3.4679472004e+03  1.5992925221e+03 
    2.7195384341e+02 -1.1247538110e+03  2.4782578290e+03 ] stress_305 gradient
 [  8.6995530959e-02 -1.5319449097e-03  3.3347059145e+03  1.8136303694e+03 
    1.8770726938e+02 -1.6929038051e+03  1.9101110474e+03 ] stress_306 gradient
 [ -2.2997523763e-01 -1.1890646234e-03  3.1379346353e+03  1.7374235314e+03 
    1.1716974240e+02 -2.2409313605e+03  1.3620819470e+03 ] stress_307 gradient
 [ -4.7808493381e-01 -8.7812680774e-04  2.8849645833e+03  1.4877309581e+03 
    6.8974161787e+01 -2.6711707357e+03  9.3183848327e+02 ] stress_308 gradient
 [ -6.5144564852e-01 -6.5350771978e-04  2.5860270624e+03  1.1975967455e+03 
    3.9549362850e+01 -2.9725764807e+03  6.3042828860e+02 ] stress_309 gradient
 [ -7.6659803373e-01 -5.0997844672e-04  2.2498674506e+03  9.3716560693e+02 
    2.2479509374e+01 -3.1732502174e+03  4.2975106457e+02 ] stress_310 gradient
 [ -8.4204593269e-01 -4.2650363020e-04  1.8829361781e+03  7.2700006241e+02 
    1.2733699828e+01 -3.3050098310e+03  2.9798895887e+02 ] stress_311 gradient
 [ -8.9176147297e-01 -3.8394162338e-04  1.4899438419e+03  5.6507415923e+02 
    7.1614860566e+00 -3.3919975553e+03  2.1099963594e+02 ] stress_312 gradient
 [ -9.2500928096e-01 -3.6859192224e-04  1.0746207523e+03  4.4256013969e+02 
    3.9488243994e+00 -3.4502731002e+03  1.5272241642e+02 ] stress_313 gradient
 [ -9.4766615294e-01 -3.7137814495e-04  6.4008120981e+02  3.5021594640e+02 
    2.0789527839e+00 -3.4900487019e+03  1.1294630720e+02 ] stress_314 gradient
 [ -9.6341621757e-01 -3.8641818560e-04  1.8913721922e+02  2.8036598586e+02 
    9.8246254796e-01 -3.5177394580e+03  8.5254544328e+01 ] stress_315 gradient
 [ -9.7458195780e-01 -4.0987876872e-04 -2.7553513923e+02  2.2714688785e+02 
    3.3788684166e-01 -3.5373976133e+03  6.5596116265e+01 ] stress_316 gradient
 [ -9.8264767587e-01 -4.3921380764e-04 -7.5134786432e+02  1.8622861262e+02 
   -3.9043079780e-02 -3.5516151668e+03  5.1378040156e+01 ] stress_317 gradient
 [ -9.8857724735e-01 -4.7268283336e-04 -1.2357287220e+03  1.5445833866e+02 
   -2.5578690641e-01 -3.5620795139e+03  4.0913459463e+01 ] stress_318 gradient
 [ -9.9300805338e-01 -5.0905528702e-04 -1.7261147213e+03  1.2954468981e+02 
   -3.7565281033e-01 -3.5699079298e+03  3.3084991470e+01 ] stress_319 gradient
 [ -9.9636920452e-01 -5.4742845730e-04 -2.2199613566e+03  1.0981646944e+02 
   -4.3731898450e-01 -3.5758522541e+03  2.7140659172e+01 ] stress_320 gradient
 [ -9.9895435643e-01 -5.8711099685e-04 -2.7147050932e+03  9.4048534814e+01 
   -4.6340851917e-01 -3.5804281906e+03  2.2564501707e+01 ] stress_321 gradient
 [ -1.0009681170e+00 -6.2755503369e-04 -3.2078144744e+03  8.1334170913e+01 
   -4.6833451500e-01 -3.5839961830e+03  1.8996704279e+01 ] stress_322 gradient
 [ -1.0025550354e+00 -6.6830671023e-04 -3.6967504318e+03  7.0997803500e+01 
   -4.6103674141e-01 -3.5868098397e+03  1.6182481256e+01 ] stress_323 gradient
 [ -1.0038188721e+00 -7.0898058675e-04 -4.1790163053e+03  6.2530582653e+01 
   -4.4680608726e-01 -3.5890523781e+03  1.3940128154e+01 ] stress_324 gradient
 [ -1.0048351067e+00 -7.4924126185e-04 -4.6521752417e+03  5.5545963559e+01 
   -4.2910899077e-01 -3.5908565931e+03  1.2135463215e+01 ] stress_325 gradient
 [ -1.0056593028e+00 -7.8878475248e-04 -5.1137871256e+03  4.9748595821e+01 
   -4.0995233873e-01 -3.5923213321e+03  1.0671044906e+01 ] stress_326 gradient
 [ -1.0063329357e+00 -8.2734046657e-04 -5.5615385231e+03  4.4909671663e+01 
   -3.9079568669e-01 -3.5935189834e+03  9.4733927333e+00 ] stress_327 gradient
 [ -1.0068871376e+00 -8.6465282354e-04 -5.9930996894e+03  4.0852008432e+01 
   -3.7236881450e-01 -3.5945049614e+03  8.4873963297e+00 ] stress_328 gradient
 [ -1.0073457365e+00 -9.0049366770e-04 -6.4063192125e+03  3.7435832146e+01 
   -3.5503660482e-01 -3.5953212015e+03  7.6711238901e+00 ] stress_329 gradient
 [ -1.0077269832e+00 -9.3464836334e-04 -6.7990995065e+03  3.4551203825e+01 
   -3.3916395069e-01 -3.5960001534e+03  6.9922280341e+00 ] stress_330 gradient
 [ -1.0080449870e+00 -9.6691550604e-04 -7.1694169286e+03  3.2111031936e+01 
   -3.2475085210e-01 -3.5965667788e+03  6.4255496598e+00 ] stress_331 gradient
 [ -1.0083107775e+00 -9.9711375486e-04 -7.5154201878e+03  3.0045486953e+01 
   -3.1143241603e-01 -3.5970400482e+03  5.9519199593e+00 ] stress_332 gradient
 [ -1.0085329910e+00 -1.0250715359e-03 -7.8353254120e+03  2.8298898331e+01 
   -2.9993842854e-01 -3.5974364364e+03  5.5557642552e+00 ] stress_333 gradient
 [ -1.0087184742e+00 -1.0506356068e-03 -8.1275237995e+03  2.6826375659e+01 
   -2.8972154593e-01 -3.5977669262e+03  5.2251020362e+00 ] stress_334 gradient
 [ -1.0088726377e+00 -1.0736688911e-03 -8.3905631336e+03  2.5591728489e+01 
   -2.8078177649e-01 -3.5980420016e+03  4.9499495364e+00 ] stress_335 gradient
 [ -1.0089996852e+00 -1.0940395572e-03 -8.6230287129e+03  2.4566374522e+01 
   -2.7330155846e-01 -3.5982691510e+03  4.7231184500e+00 ] stress_336 gradient
 [ -1.0091030505e+00 -1.1116441121e-03 -8.8238130251e+03  2.3726857199e+01 
   -2.6691600917e-01 -3.5984533666e+03  4.5386185146e+00 ] stress_337 gradient
 [ -1.0091852932e+00 -1.1263854141e-03 -8.9918640149e+03  2.3055041069e+01 
   -2.6180756890e-01 -3.5986001400e+03  4.3920568757e+00 ] stress_338 gradient
 [ -1.0092484944e+00 -1.1381841235e-03 -9.1263220964e+03  2.2536721180e+01 
   -2.5761134877e-01 -3.5987129659e+03  4.2790406878e+00 ] stress_339 gradient
 [ -1.0092941316e+00 -1.1469798093e-03 -9.2265315701e+03  2.2161059933e+01 
   -2.5469224183e-01 -3.5987948395e+03  4.1975731833e+00 ] stress_340 gradient
 [ -1.0093232870e+00 -1.1527245984e-03 -9.2919704860e+03  2.1920506638e+01 
   -2.5268535295e-01 -3.5988467594e+03  4.1456576170e+00 ] stress_341 gradient
 [ -1.0093366265e+00 -1.1553870243e-03 -9.3222952273e+03  2.1810280340e+01 
   -2.5177313281e-01 -3.5988702231e+03  4.1216965857e+00 ] stress_342 gradient


<<<<< Function evaluation summary: 149 total (142 new, 7 duplicate)
<<<<< Best parameters          =
                      4.8052882187e+02 fy
                      2.0784052872e+05 E
                      1.8392572411e-02 b
                      8.7011903122e-01 cR1
                      5.4811249634e-02 cR2
                      2.0030872338e-02 a1
                      2.5040659319e-02 a3
Original (as-posed) response:
<<<<< Best model responses =
                      2.4220149393e+00
                     -2.5171559214e+02
                     -4.9424617592e+02
                     -4.9576579185e+02
                     -1.6682230785e+02
                      2.5329555736e+02
                      4.0135432009e+02
                      4.0222256258e+02
                      1.5256125562e+02
                     -2.3138386329e+02
                     -4.3993788985e+02
                     -4.8922597998e+02
                     -5.0314254360e+02
                     -5.0413581284e+02
                     -1.7338138167e+02
                     -3.4134520175e+02
                     -5.0981016257e+02
                     -3.1501104300e+02
                      2.1458765700e+01
                      2.9856991328e+02
                      4.1856442164e+02
                      4.6350597730e+02
                      4.8206783084e+02
                      4.8819088372e+02
                      1.5749335599e+02
                      2.8560583816e+02
                      4.2948136991e+02
                      4.6525795151e+02
                      3.4238715114e+02
                      1.2874939580e+02
                     -1.2500499431e+02
                     -3.2064225388e+02
                     -4.2446395270e+02
                     -4.7426591991e+02
                     -5.0121955928e+02
                     -5.1870431559e+02
                     -5.3170304307e+02
                     -5.4201826283e+02
                     -5.5025684533e+02
                     -5.5656362372e+02
                     -5.6092425345e+02
                     -5.6327942928e+02
                     -5.4781262442e+02
                     -1.6075571905e+02
                      1.0636293116e+02
                     -9.9842701265e+01
                     -4.5322194783e+02
                     -1.5680405305e+02
                     -2.5974016036e+02
                     -4.1954829812e+02
                     -5.6864159862e+02
                     -3.9866907761e+02
                     -6.1066304000e+01
                      2.2649873799e+02
                      3.5826859171e+02
                      4.0782183283e+02
                      4.2287351951e+02
                      3.3650441586e+02
                      2.1673027207e+01
                     -3.1591312596e+02
                     -4.7141231112e+02
                     -5.2133092303e+02
                     -5.3234540827e+02
                     -2.6387592741e+02
                      1.1339864462e+02
                      2.0042428863e+02
                     -7.1901038674e+01
                     -4.4065288824e+02
                     -5.3484626890e+02
                     -5.3592555042e+02
                     -4.4052741424e+02
                     -2.6828259674e+02
                     -4.4795141649e+01
                      1.6688354093e+02
                      3.1135236318e+02
                      3.9199232630e+02
                      4.3621905791e+02
                      4.6304474382e+02
                      4.8166597117e+02
                      4.9613196676e+02
                      5.0818811195e+02
                      5.1856221013e+02
                      5.2752244640e+02
                      5.3512874578e+02
                      5.4134667778e+02
                      5.4611040095e+02
                      5.4935206761e+02
                      5.5101584696e+02
                      4.7728772247e+02
                      4.3675545381e+01
                     -1.5951574789e+02
                      1.3071324294e+02
                      4.7802941959e+02
                      4.8437005175e+02
                      4.2416525319e+02
                      3.1598866019e+02
                      1.6530113361e+02
                     -1.0247603760e+01
                     -1.7746672356e+02
                     -3.0622119399e+02
                     -3.9080450101e+02
                     -4.4297611471e+02
                     -4.7592434745e+02
                     -4.9840000712e+02
                     -5.1527936561e+02
                     -5.2913875812e+02
                     -5.4132160722e+02
                     -5.5252623722e+02
                     -5.6310924857e+02
                     -5.7324216272e+02
                     -5.8299297756e+02
                     -5.9237005697e+02
                     -6.0134913974e+02
                     -6.0988681400e+02
                     -6.1792900550e+02
                     -6.2541742236e+02
                     -6.3229220447e+02
                     -6.3849689812e+02
                     -6.4397798050e+02
                     -6.4868574391e+02
                     -6.5257893003e+02
                     -6.5562156835e+02
                     -6.5778526796e+02
                     -6.5905083064e+02
                     -6.5939078641e+02
                     -5.5681452720e+02
                     -3.0590898854e+02
                      8.9152986718e-01
                      2.1966128577e+02
                      3.2866854628e+02
                      3.7949991345e+02
                      4.0432360416e+02
                      4.1560049469e+02
                      4.1622951692e+02
                      1.1300998620e+01
                     -1.0590996642e+01
                      1.7452861634e+02
                      1.3838851082e+02
                     -3.3976964296e+01
                     -3.2104246442e+02
                     -5.3004931424e+02
                     -6.1376420501e+02
                     -6.4626463680e+02
                     -6.6106151862e+02
                     -6.6717546569e+02
                     -6.4677466355e+02
                     -4.0873069451e+02
                     -5.7897900014e+01
                      1.9428260822e+02
                      3.0664950861e+02
                      3.4822392238e+02
                      3.5335753204e+02
                      1.3690572172e+02
                     -2.3149443563e+02
                     -4.9339708185e+02
                     -5.9023279644e+02
                     -6.1726620104e+02
                     -4.9453914830e+02
                     -8.9472522293e+01
                      9.3864538675e+01
                     -7.2953185394e+01
                     -4.6829890802e+02
                     -6.2384985067e+02
                     -6.3481528006e+02
                     -5.9305207880e+02
                     -5.1076211766e+02
                     -3.8997480490e+02
                     -2.3775974050e+02
                     -7.1358991041e+01
                      8.3528600637e+01
                      2.0609711680e+02
                      2.9187782726e+02
                      3.4852177057e+02
                      3.8604042637e+02
                      4.1207952793e+02
                      4.3145281974e+02
                      4.4697745314e+02
                      4.6026507403e+02
                      4.7223209788e+02
                      4.8340000122e+02
                      4.9406284418e+02
                      5.0437991240e+02
                      5.1443094472e+02
                      5.2424604247e+02
                      5.3382532013e+02
                      5.4314951013e+02
                      5.5218750301e+02
                      5.6090129117e+02
                      5.6924829813e+02
                      5.7718452861e+02
                      5.8466573516e+02
                      5.9164752289e+02
                      5.9808906568e+02
                      6.0395074573e+02
                      6.0919538622e+02
                      6.1379106537e+02
                      6.1770771319e+02
                      6.2092113723e+02
                      6.2341081707e+02
                      6.2515998291e+02
                      6.2615800658e+02
                      6.2620689151e+02
                      2.6421128508e+02
                     -7.9916315363e+01
                      2.9010973419e+01
                      4.6806960802e+02
                      4.8724514367e+02
                      4.2241774537e+02
                      3.0530724027e+02
                      1.4336967357e+02
                     -4.0004690992e+01
                     -2.0581013652e+02
                     -3.2619858378e+02
                     -4.0206747762e+02
                     -4.4826368154e+02
                     -4.7779839887e+02
                     -4.9850237268e+02
                     -5.1454284010e+02
                     -5.2806061803e+02
                     -5.4014796752e+02
                     -5.5135732928e+02
                     -5.6195618881e+02
                     -5.7205845150e+02
                     -5.8169256264e+02
                     -5.9083992164e+02
                     -5.9945531714e+02
                     -6.0747969977e+02
                     -6.1484934668e+02
                     -6.2149756766e+02
                     -6.2736267520e+02
                     -6.3238732253e+02
                     -6.3651954066e+02
                     -6.3971849274e+02
                     -6.4195066244e+02
                     -6.4319173372e+02
                     -6.3669900623e+02
                     -2.7206842400e+02
                      2.3012050822e+01
                     -1.9707220994e+02
                     -4.4708477464e+02
                     -1.1611246004e+02
                      6.0559308734e+01
                     -2.7192851600e+02
                     -3.9574314661e+02
                     -5.0425105131e+02
                     -3.1923364650e+02
                      1.5340291665e+01
                      2.7655882810e+02
                      3.9086365685e+02
                      4.3380939528e+02
                      4.4620226464e+02
                      3.4077931690e+02
                      1.9208713523e+01
                     -3.1461871285e+02
                     -4.8440948031e+02
                     -5.4584000046e+02
                     -5.5817168409e+02
                     -2.8088084680e+02
                      9.8348819916e+01
                      2.1650025533e+02
                      1.8550924299e+00
                     -3.6364305719e+02
                     -5.2130981905e+02
                     -5.4314421453e+02
                     -5.0109867104e+02
                     -4.0687995474e+02
                     -2.6417621466e+02
                     -8.6792529120e+01
                      9.4409916755e+01
                      2.4350063323e+02
                      3.4577550063e+02
                      4.0971698044e+02
                      4.4966082373e+02
                      4.7622520850e+02
                      4.9557679432e+02
                      5.1101475772e+02
                      5.2426873930e+02
                      5.3623958304e+02
                      5.4739036682e+02
                      5.5794777835e+02
                      5.6800767075e+02
                      5.7759216844e+02
                      5.8668117142e+02
                      5.9523175772e+02
                      6.0318778422e+02
                      6.1048884240e+02
                      6.1707357736e+02
                      6.2288226219e+02
                      6.2786148757e+02
                      6.3196350615e+02
                      6.3514775329e+02
                      6.3738351872e+02
                      6.3864795248e+02
                      6.3866662255e+02
                      2.6479628865e+02
                     -7.1571632752e+01
                      5.9052573790e+01
                      4.8352249419e+02
                      4.9840484804e+02
                      4.5488504064e+02
                      3.7653292304e+02
                      2.6515308938e+02
                      1.2708721668e+02
                     -2.3156665061e+01
                     -1.6391421999e+02
                     -2.7722137395e+02
                     -3.5824152838e+02
                     -4.1272928885e+02
                     -4.4922901523e+02
                     -4.7463343086e+02
                     -4.9346662952e+02
                     -5.0845942416e+02
                     -5.2121025714e+02
                     -5.3265190504e+02
                     -5.4332873418e+02
                     -5.5355773094e+02
                     -5.6352143675e+02
                     -5.7332027434e+02
                     -5.8300403585e+02
                     -5.9259083474e+02
                     -6.0207777174e+02
                     -6.1144905499e+02
                     -6.2067964512e+02
                     -6.2973918995e+02
                     -6.3859417649e+02
                     -6.4720802660e+02
                     -6.5554440150e+02
                     -6.6356509766e+02
                     -6.7123412834e+02
                     -6.7851562476e+02
                     -6.8537448306e+02
                     -6.9177832765e+02
                     -6.9769561240e+02
                     -7.0309779211e+02
                     -7.0795894497e+02
                     -7.1225369307e+02
                     -7.1596218103e+02
                     -7.1906545779e+02
                     -7.2154799847e+02
                     -7.2339797832e+02
                     -7.2460595873e+02
                     -7.2516571132e+02
Original (as-posed) residuals:
<<<<< Best residual terms =
                      2.4220147820e+00
                      1.2647084033e+01
                      3.5053750183e+01
                     -1.2425871885e+01
                     -2.1824165662e+01
                     -2.0647356929e+01
                     -4.2443606511e+01
                     -9.2096831841e+00
                     -8.2313299781e+00
                      8.8987787287e+00
                      8.1099540613e+01
                      3.6717261820e+01
                      2.0476895774e+01
                     -3.8611867635e+01
                     -3.7445624243e+01
                     -3.6164868556e+01
                     -2.4921038657e+01
                     -2.8679475544e+01
                     -2.3594230028e+01
                      1.1680735047e+01
                      1.2310674461e+01
                     -2.5594897217e+00
                     -5.2294908702e+00
                      1.6703140731e+00
                     -1.2278231818e+00
                     -4.3904462161e+00
                      4.5850138395e+00
                      1.7317240025e+01
                      1.5882401044e+01
                      1.1197334572e+01
                      8.3415243128e+00
                     -4.1010241420e+00
                      2.6401817320e-01
                      1.8885664682e+01
                      2.4723682520e+01
                      6.9807127334e+00
                      1.9863023772e+00
                      4.3229696326e+00
                      8.2199450843e+00
                      1.0950232844e+01
                      1.1753620936e+01
                      9.3984451057e+00
                     -2.1094714220e+01
                     -9.2844518822e+00
                      7.4534788234e+00
                      9.9416085892e+00
                     -1.1194387199e+01
                     -1.4654083336e+01
                     -6.2523207279e+00
                     -1.6251094903e+01
                     -1.9201930292e+01
                     -2.1192096354e+01
                     -1.8343634383e+01
                      5.8944185645e+00
                      3.6683413522e+01
                      4.2219371217e+01
                      4.8208666144e+01
                      5.7641901695e+01
                      3.9279944772e+01
                      2.6448360700e+01
                      1.4251411271e+01
                      1.5456858282e+01
                      5.4751849972e+00
                      7.9955874445e+00
                      9.3106867059e+00
                      2.3578325952e+01
                      1.3803223041e+01
                      3.1584320689e+01
                      2.8794546328e+01
                     -2.4943834890e+00
                     -4.9549388158e+00
                      1.5175256725e+00
                      3.8828051866e+00
                      8.6802221050e+00
                      2.3427471246e+01
                      3.0014824185e+01
                      2.8670698321e+01
                      2.4166424088e+01
                      2.0002222702e+01
                      1.4013143635e+01
                      1.2346223873e+01
                      9.2562467072e+00
                      7.8594438534e+00
                      6.6623131186e+00
                      6.6659978710e+00
                      7.5458628342e+00
                      8.7161370522e+00
                      1.2710207553e+01
                      2.6757758197e+01
                     -2.9310034188e+00
                     -1.4258679025e+01
                      2.8041635643e+00
                      1.0410385512e+01
                      2.0117050493e+01
                      1.8170432689e+01
                      1.2787164216e+01
                      3.7317749721e+00
                      1.6629583692e+00
                      5.3345107428e+00
                     -2.1697043959e+01
                     -3.8114929761e+01
                     -4.2260955365e+01
                     -3.8028034639e+01
                     -3.0294011051e+01
                     -2.2902379496e+01
                     -1.4814584388e+01
                     -8.4068602508e+00
                     -1.5373719364e+00
                      4.4046079937e+00
                      9.7638661765e+00
                      1.4988698825e+01
                      1.9554559831e+01
                      2.2452793567e+01
                      2.4759658819e+01
                      2.7561943901e+01
                      2.8335952760e+01
                      2.9723659298e+01
                      2.9974015894e+01
                      2.9398779812e+01
                      2.9080442738e+01
                      2.7769300490e+01
                      2.6534107564e+01
                      2.5145006432e+01
                      2.1297399880e+01
                      1.0887572998e+01
                      4.5024576337e+00
                      8.5666522488e+00
                     -5.0637513373e+00
                     -1.5960697034e+01
                     -1.9844845529e+01
                     -2.3387800908e+01
                     -2.6010184165e+01
                     -2.5867077830e+01
                      1.3600729239e+01
                     -2.4220404614e+00
                     -1.8099829030e+01
                     -1.5263596297e+01
                     -1.6707722838e+01
                     -1.6111122850e+01
                     -3.3936284501e+01
                     -4.3094566417e+01
                     -2.6885176731e+01
                     -1.1618163981e+01
                     -6.5335450222e+00
                     -9.5490212664e+00
                     -4.0272243087e+01
                     -3.8741568464e+01
                     -4.2362384680e+01
                     -4.1857227938e+01
                     -3.7980024992e+01
                     -3.5244396062e+01
                     -9.1378234301e+00
                     -1.5601245165e+01
                     -2.6943472308e+01
                     -1.2122778803e+01
                     -2.5536725707e-01
                      8.0689013173e-02
                     -1.8428905028e+01
                     -2.2669803838e+01
                     -3.3008847976e+01
                     -2.9453739242e+01
                     -1.9816304135e+01
                      1.5444227001e+01
                     -1.1787945231e+01
                     -1.5468386085e+01
                     -1.8126960022e+01
                     -1.6112679471e+01
                     -1.6637560728e+01
                     -2.4493517662e+01
                     -3.5318093978e+01
                     -3.9881884151e+01
                     -3.9028669359e+01
                     -4.0383980127e+01
                     -4.0927322143e+01
                     -4.2852147905e+01
                     -4.5228606091e+01
                     -4.6016227502e+01
                     -4.8523070999e+01
                     -4.9761258747e+01
                     -5.1021745020e+01
                     -5.1751619924e+01
                     -5.0755835173e+01
                     -4.9508232968e+01
                     -4.8237743538e+01
                     -4.5908391866e+01
                     -4.3316204578e+01
                     -4.0233497308e+01
                     -3.7216068080e+01
                     -3.4565413060e+01
                     -3.0513040787e+01
                     -2.7433552790e+01
                     -2.4335693189e+01
                     -2.0742294904e+01
                     -1.7728759359e+01
                     -1.4555546272e+01
                     -1.1772360855e+01
                     -9.1503604063e+00
                     -6.1958630436e+00
                     -3.7061832036e+00
                     -1.1802303395e+00
                      2.4070740879e+00
                      2.0580749516e+01
                     -1.5686914818e+01
                     -2.7872337804e+01
                     -4.0639923803e+01
                      9.2540739786e+00
                      1.5483324708e+01
                      1.2797958378e+01
                      5.4717771169e+00
                     -6.2891278331e+00
                     -6.3444075346e+00
                     -1.7053616608e+01
                     -3.7284993428e+01
                     -4.4730273550e+01
                     -4.1351650465e+01
                     -3.3447042805e+01
                     -2.5490565273e+01
                     -1.7518221165e+01
                     -1.1670820388e+01
                     -7.2332205508e+00
                     -2.6922664225e+00
                     -1.1555959695e+00
                      3.6121640088e-01
                      1.3134662565e+00
                      1.9777299309e+00
                      1.8830085871e+00
                      2.3793630428e+00
                      3.2721418512e+00
                      2.5625441634e+00
                      2.3779513210e+00
                      2.5173288052e+00
                      1.4835115794e+00
                      9.2004893242e-02
                     -1.6238077744e+00
                     -5.1886814806e+00
                     -2.9163808773e+01
                     -2.5830496372e+01
                     -3.2139029384e+01
                     -2.2815514035e+01
                      3.5738725363e+01
                      2.8626755471e+01
                      1.3434911474e+01
                      2.7829585895e+01
                      5.8936294044e+01
                      1.0173494220e+02
                      9.6973685178e+01
                      7.8518054817e+01
                      3.9124365547e+01
                      3.6136052754e+01
                      3.3769860388e+01
                      4.0207444139e+01
                      4.5863460616e+01
                      3.6297780531e+01
                      5.3821174287e+01
                      4.6956069703e+01
                      3.8715225393e+01
                      1.9670250071e+01
                      1.9135461580e+01
                      4.1000267946e+00
                      3.9226139561e+00
                      4.7032701480e+00
                      4.6109196273e+01
                      8.1061283671e+01
                      5.0448042511e+01
                      4.4209749468e+01
                      4.2635461100e+01
                      4.4877152877e+01
                      4.0598696901e+01
                      2.5794720649e+01
                      1.5905314494e+01
                      1.6422571067e+01
                      1.6927371536e+01
                      1.6737789608e+01
                      1.5856100410e+01
                      1.3457971195e+01
                      1.0771151089e+01
                      9.2663819842e+00
                      8.0320490872e+00
                      7.0133699317e+00
                      7.9905293620e+00
                      8.4702046231e+00
                      9.7690276626e+00
                      1.0831387552e+01
                      1.2649971140e+01
                      1.4391715431e+01
                      1.6514337955e+01
                      1.9474078457e+01
                      2.1398905080e+01
                      2.3270989356e+01
                      2.6337364156e+01
                      2.7967967326e+01
                      3.0462666426e+01
                      3.4834241290e+01
                      5.5566975623e+01
                      2.0111914093e+01
                     -1.1439610922e+00
                     -1.0080474972e+01
                      3.4546103965e+01
                      3.9848205715e+01
                      3.8533222968e+01
                      3.3974816840e+01
                      2.5129374039e+01
                      1.6267207109e+01
                      1.5682120478e+01
                      4.3872112815e+00
                     -2.2956768270e+01
                     -3.9892888209e+01
                     -4.6613204139e+01
                     -4.5415385059e+01
                     -4.0610152392e+01
                     -3.3881342568e+01
                     -2.8992573499e+01
                     -2.2894612773e+01
                     -1.8069524823e+01
                     -1.4545200070e+01
                     -1.1605924814e+01
                     -8.9176806787e+00
                     -6.8392297313e+00
                     -4.9038532515e+00
                     -3.9044239969e+00
                     -2.0304714449e+00
                     -5.5721518302e-01
                      7.9849275318e-01
                      1.8088190354e+00
                      3.2819450532e+00
                      3.7051191397e+00
                      4.1476668336e+00
                      3.6147909219e+00
                      3.1754089661e+00
                      3.1236311919e+00
                      1.9452176679e+00
                      7.0539789212e-01
                      7.2673643434e-01
                     -2.8593303355e-01
                     -1.7904994810e+00
                     -2.9868117160e+00
                     -4.1132348277e+00
                     -5.1508876777e+00
                     -7.3752778101e+00
                     -8.9670371910e+00
                     -1.2757012528e+01
                     -1.7964453876e+01
<<<<< Best residual norm =  4.9041547277e+02; 0.5 * norm^2 =  1.2025366797e+05
<<<<< Best residual terms =
                      2.4220147820e+00
                      1.2647084033e+01
                      3.5053750183e+01
                     -1.2425871885e+01
                     -2.1824165662e+01
                     -2.0647356929e+01
                     -4.2443606511e+01
                     -9.2096831841e+00
                     -8.2313299781e+00
                      8.8987787287e+00
                      8.1099540613e+01
                      3.6717261820e+01
                      2.0476895774e+01
                     -3.8611867635e+01
                     -3.7445624243e+01
                     -3.6164868556e+01
                     -2.4921038657e+01
                     -2.8679475544e+01
                     -2.3594230028e+01
                      1.1680735047e+01
                      1.2310674461e+01
                     -2.5594897217e+00
                     -5.2294908702e+00
                      1.6703140731e+00
                     -1.2278231818e+00
                     -4.3904462161e+00
                      4.5850138395e+00
                      1.7317240025e+01
                      1.5882401044e+01
                      1.1197334572e+01
                      8.3415243128e+00
                     -4.1010241420e+00
                      2.6401817320e-01
                      1.8885664682e+01
                      2.4723682520e+01
                      6.9807127334e+00
                      1.9863023772e+00
                      4.3229696326e+00
                      8.2199450843e+00
                      1.0950232844e+01
                      1.1753620936e+01
                      9.3984451057e+00
                     -2.1094714220e+01
                     -9.2844518822e+00
                      7.4534788234e+00
                      9.9416085892e+00
                     -1.1194387199e+01
                     -1.4654083336e+01
                     -6.2523207279e+00
                     -1.6251094903e+01
                     -1.9201930292e+01
                     -2.1192096354e+01
                     -1.8343634383e+01
                      5.8944185645e+00
                      3.6683413522e+01
                      4.2219371217e+01
                      4.8208666144e+01
                      5.7641901695e+01
                      3.9279944772e+01
                      2.6448360700e+01
                      1.4251411271e+01
                      1.5456858282e+01
                      5.4751849972e+00
                      7.9955874445e+00
                      9.3106867059e+00
                      2.3578325952e+01
                      1.3803223041e+01
                      3.1584320689e+01
                      2.8794546328e+01
                     -2.4943834890e+00
                     -4.9549388158e+00
                      1.5175256725e+00
                      3.8828051866e+00
                      8.6802221050e+00
                      2.3427471246e+01
                      3.0014824185e+01
                      2.8670698321e+01
                      2.4166424088e+01
                      2.0002222702e+01
                      1.4013143635e+01
                      1.2346223873e+01
                      9.2562467072e+00
                      7.8594438534e+00
                      6.6623131186e+00
                      6.6659978710e+00
                      7.5458628342e+00
                      8.7161370522e+00
                      1.2710207553e+01
                      2.6757758197e+01
                     -2.9310034188e+00
                     -1.4258679025e+01
                      2.8041635643e+00
                      1.0410385512e+01
                      2.0117050493e+01
                      1.8170432689e+01
                      1.2787164216e+01
                      3.7317749721e+00
                      1.6629583692e+00
                      5.3345107428e+00
                     -2.1697043959e+01
                     -3.8114929761e+01
                     -4.2260955365e+01
                     -3.8028034639e+01
                     -3.0294011051e+01
                     -2.2902379496e+01
                     -1.4814584388e+01
                     -8.4068602508e+00
                     -1.5373719364e+00
                      4.4046079937e+00
                      9.7638661765e+00
                      1.4988698825e+01
                      1.9554559831e+01
                      2.2452793567e+01
                      2.4759658819e+01
                      2.7561943901e+01
                      2.8335952760e+01
                      2.9723659298e+01
                      2.9974015894e+01
                      2.9398779812e+01
                      2.9080442738e+01
                      2.7769300490e+01
                      2.6534107564e+01
                      2.5145006432e+01
                      2.1297399880e+01
                      1.0887572998e+01
                      4.5024576337e+00
                      8.5666522488e+00
                     -5.0637513373e+00
                     -1.5960697034e+01
                     -1.9844845529e+01
                     -2.3387800908e+01
                     -2.6010184165e+01
                     -2.5867077830e+01
                      1.3600729239e+01
                     -2.4220404614e+00
                     -1.8099829030e+01
                     -1.5263596297e+01
                     -1.6707722838e+01
                     -1.6111122850e+01
                     -3.3936284501e+01
                     -4.3094566417e+01
                     -2.6885176731e+01
                     -1.1618163981e+01
                     -6.5335450222e+00
                     -9.5490212664e+00
                     -4.0272243087e+01
                     -3.8741568464e+01
                     -4.2362384680e+01
                     -4.1857227938e+01
                     -3.7980024992e+01
                     -3.5244396062e+01
                     -9.1378234301e+00
                     -1.5601245165e+01
                     -2.6943472308e+01
                     -1.2122778803e+01
                     -2.5536725707e-01
                      8.0689013173e-02
                     -1.8428905028e+01
                     -2.2669803838e+01
                     -3.3008847976e+01
                     -2.9453739242e+01
                     -1.9816304135e+01
                      1.5444227001e+01
                     -1.1787945231e+01
                     -1.5468386085e+01
                     -1.8126960022e+01
                     -1.6112679471e+01
                     -1.6637560728e+01
                     -2.4493517662e+01
                     -3.5318093978e+01
                     -3.9881884151e+01
                     -3.9028669359e+01
                     -4.0383980127e+01
                     -4.0927322143e+01
                     -4.2852147905e+01
                     -4.5228606091e+01
                     -4.6016227502e+01
                     -4.8523070999e+01
                     -4.9761258747e+01
                     -5.1021745020e+01
                     -5.1751619924e+01
                     -5.0755835173e+01
                     -4.9508232968e+01
                     -4.8237743538e+01
                     -4.5908391866e+01
                     -4.3316204578e+01
                     -4.0233497308e+01
                     -3.7216068080e+01
                     -3.4565413060e+01
                     -3.0513040787e+01
                     -2.7433552790e+01
                     -2.4335693189e+01
                     -2.0742294904e+01
                     -1.7728759359e+01
                     -1.4555546272e+01
                     -1.1772360855e+01
                     -9.1503604063e+00
                     -6.1958630436e+00
                     -3.7061832036e+00
                     -1.1802303395e+00
                      2.4070740879e+00
                      2.0580749516e+01
                     -1.5686914818e+01
                     -2.7872337804e+01
                     -4.0639923803e+01
                      9.2540739786e+00
                      1.5483324708e+01
                      1.2797958378e+01
                      5.4717771169e+00
                     -6.2891278331e+00
                     -6.3444075346e+00
                     -1.7053616608e+01
                     -3.7284993428e+01
                     -4.4730273550e+01
                     -4.1351650465e+01
                     -3.3447042805e+01
                     -2.5490565273e+01
                     -1.7518221165e+01
                     -1.1670820388e+01
                     -7.2332205508e+00
                     -2.6922664225e+00
                     -1.1555959695e+00
                      3.6121640088e-01
                      1.3134662565e+00
                      1.9777299309e+00
                      1.8830085871e+00
                      2.3793630428e+00
                      3.2721418512e+00
                      2.5625441634e+00
                      2.3779513210e+00
                      2.5173288052e+00
                      1.4835115794e+00
                      9.2004893242e-02
                     -1.6238077744e+00
                     -5.1886814806e+00
                     -2.9163808773e+01
                     -2.5830496372e+01
                     -3.2139029384e+01
                     -2.2815514035e+01
                      3.5738725363e+01
                      2.8626755471e+01
                      1.3434911474e+01
                      2.7829585895e+01
                      5.8936294044e+01
                      1.0173494220e+02
                      9.6973685178e+01
                      7.8518054817e+01
                      3.9124365547e+01
                      3.6136052754e+01
                      3.3769860388e+01
                      4.0207444139e+01
                      4.5863460616e+01
                      3.6297780531e+01
                      5.3821174287e+01
                      4.6956069703e+01
                      3.8715225393e+01
                      1.9670250071e+01
                      1.9135461580e+01
                      4.1000267946e+00
                      3.9226139561e+00
                      4.7032701480e+00
                      4.6109196273e+01
                      8.1061283671e+01
                      5.0448042511e+01
                      4.4209749468e+01
                      4.2635461100e+01
                      4.4877152877e+01
                      4.0598696901e+01
                      2.5794720649e+01
                      1.5905314494e+01
                      1.6422571067e+01
                      1.6927371536e+01
                      1.6737789608e+01
                      1.5856100410e+01
                      1.3457971195e+01
                      1.0771151089e+01
                      9.2663819842e+00
                      8.0320490872e+00
                      7.0133699317e+00
                      7.9905293620e+00
                      8.4702046231e+00
                      9.7690276626e+00
                      1.0831387552e+01
                      1.2649971140e+01
                      1.4391715431e+01
                      1.6514337955e+01
                      1.9474078457e+01
                      2.1398905080e+01
                      2.3270989356e+01
                      2.6337364156e+01
                      2.7967967326e+01
                      3.0462666426e+01
                      3.4834241290e+01
                      5.5566975623e+01
                      2.0111914093e+01
                     -1.1439610922e+00
                     -1.0080474972e+01
                      3.4546103965e+01
                      3.9848205715e+01
                      3.8533222968e+01
                      3.3974816840e+01
                      2.5129374039e+01
                      1.6267207109e+01
                      1.5682120478e+01
                      4.3872112815e+00
                     -2.2956768270e+01
                     -3.9892888209e+01
                     -4.6613204139e+01
                     -4.5415385059e+01
                     -4.0610152392e+01
                     -3.3881342568e+01
                     -2.8992573499e+01
                     -2.2894612773e+01
                     -1.8069524823e+01
                     -1.4545200070e+01
                     -1.1605924814e+01
                     -8.9176806787e+00
                     -6.8392297313e+00
                     -4.9038532515e+00
                     -3.9044239969e+00
                     -2.0304714449e+00
                     -5.5721518302e-01
                      7.9849275318e-01
                      1.8088190354e+00
                      3.2819450532e+00
                      3.7051191397e+00
                      4.1476668336e+00
                      3.6147909219e+00
                      3.1754089661e+00
                      3.1236311919e+00
                      1.9452176679e+00
                      7.0539789212e-01
                      7.2673643434e-01
                     -2.8593303355e-01
                     -1.7904994810e+00
                     -2.9868117160e+00
                     -4.1132348277e+00
                     -5.1508876777e+00
                     -7.3752778101e+00
                     -8.9670371910e+00
                     -1.2757012528e+01
                     -1.7964453876e+01
<<<<< Best residual norm =  4.9041547277e+02; 0.5 * norm^2 =  1.2025366797e+05
<<<<< Best data captured at function evaluation 134

Confidence Intervals on Calibrated Parameters:
            fy: [ 4.6906784263e+02, 4.9198980111e+02 ]
             E: [ 2.0303237142e+05, 2.1264868602e+05 ]
             b: [ 1.6906052129e-02, 1.9879092692e-02 ]
           cR1: [ 8.6163547610e-01, 8.7860258634e-01 ]
           cR2: [ 3.8488096621e-02, 7.1134402647e-02 ]
            a1: [ 1.5967170983e-02, 2.4094573693e-02 ]
            a3: [ 2.1045970998e-02, 2.9035347640e-02 ]

<<<<< Iterator nl2sol completed.
<<<<< Environment execution completed.
DAKOTA execution time in seconds:
  Total CPU        =    2.24457 [parent =    2.24453, child =    4.2e-05]
  Total wall clock =    9.04571
